0 701
0 348
0 54
0 751
0 68
0 585
0 689
0 820
0 240
0 32
0 356
0 844
0 533
0 205
0 371
0 120
0 522
0 140
0 518
0 335
0 242
0 36
0 130
0 82
0 575
0 895
0 734
0 924
0 755
0 146
0 407
0 899
0 360
0 184
0 142
0 84
0 935
0 696
0 654
0 960
0 219
0 579
0 235
0 576
0 346
0 928
0 908
0 94
0 934
0 106
0 233
0 557
0 562
0 129
0 324
1 512
1 500
1 790
1 503
1 852
1 206
1 548
1 135
1 73
1 423
1 168
1 962
1 465
1 528
1 592
1 468
1 344
1 546
1 77
1 478
1 641
1 473
1 273
1 509
1 950
1 566
1 727
1 106
1 266
1 714
1 11
1 914
1 268
1 719
1 494
1 779
1 716
1 250
1 489
1 816
1 155
1 585
1 731
1 510
1 619
1 636
1 480
1 286
1 997
2 572
2 239
2 584
2 703
2 701
2 812
2 482
2 954
2 855
2 936
2 443
2 459
2 708
2 156
2 683
2 677
2 183
2 917
2 688
2 651
2 815
2 768
2 79
2 165
2 933
2 361
2 486
2 601
2 64
2 513
2 396
2 579
2 108
2 718
2 725
2 726
2 734
2 263
2 289
2 805
2 294
2 835
2 457
2 609
2 752
2 862
2 543
2 4
2 193
2 3
2 378
2 992
2 448
2 912
2 755
2 269
2 900
3 701
3 857
3 17
3 930
3 910
3 596
3 362
3 185
3 842
3 879
3 576
3 715
3 974
3 354
3 118
3 110
3 836
3 833
3 267
3 660
3 809
3 116
3 150
3 559
3 212
3 138
3 605
3 104
3 491
3 803
3 157
3 319
3 436
3 699
3 630
3 892
3 939
3 291
3 463
3 337
3 753
3 603
3 606
3 240
3 342
3 946
3 296
3 980
3 527
4 62
4 835
4 936
4 595
4 229
4 125
4 601
4 634
4 686
4 375
4 922
4 15
4 552
4 729
4 95
4 64
4 537
4 837
4 876
4 633
4 33
4 858
4 30
4 661
4 489
4 336
4 892
4 542
4 35
4 107
4 624
4 710
4 790
4 845
4 569
4 58
4 589
4 334
4 644
5 586
5 366
5 505
5 496
5 888
5 27
5 751
5 357
5 779
5 862
5 977
5 86
5 213
5 656
5 796
5 794
5 105
5 621
5 537
5 463
5 465
5 550
5 565
5 655
5 498
5 14
5 248
6 975
6 478
6 930
6 211
6 881
6 111
6 716
6 733
6 845
6 96
6 826
6 75
6 121
6 562
6 602
6 607
6 243
6 274
7 201
7 511
7 774
7 25
7 358
7 102
7 363
7 186
7 584
7 369
7 176
7 104
7 817
7 244
7 17
7 536
7 40
7 556
7 98
7 894
7 930
7 211
7 859
7 674
7 168
7 44
7 12
7 127
8 329
8 435
8 517
8 675
8 163
8 299
8 506
8 11
8 228
8 113
8 34
8 772
8 773
8 390
8 733
8 910
8 143
8 54
8 711
8 987
8 995
8 888
8 656
8 588
8 255
8 292
8 267
8 753
8 884
8 203
8 692
8 404
8 94
8 653
8 698
8 631
9 810
9 754
9 13
9 995
9 874
9 638
9 634
9 777
9 46
9 647
9 543
9 856
9 58
9 68
9 83
9 96
9 753
9 865
9 412
9 418
9 427
9 327
9 104
9 946
9 655
9 332
9 257
10 734
10 759
10 19
10 794
10 998
10 772
10 277
10 689
10 981
10 801
10 318
10 926
10 442
10 441
10 679
10 138
10 704
10 764
10 740
10 782
10 66
10 627
10 648
10 845
10 851
10 269
10 616
10 677
10 322
10 498
10 484
10 172
10 58
10 688
10 882
10 821
10 404
10 919
10 559
10 653
10 332
10 132
10 901
11 475
11 299
11 512
11 862
11 230
11 330
11 262
11 381
11 860
11 207
11 755
11 162
11 113
11 563
11 339
11 870
11 275
11 320
11 143
11 402
11 285
11 54
11 987
11 995
11 888
11 16
11 463
11 67
11 494
11 753
11 965
11 57
11 685
11 764
11 919
12 263
12 835
12 475
12 208
12 396
12 930
12 246
12 599
12 772
12 401
12 567
12 839
12 418
12 39
12 620
12 338
12 474
12 744
12 731
12 68
12 973
12 571
12 978
12 43
12 66
12 994
12 372
12 807
12 427
12 477
12 70
12 90
12 849
12 227
12 945
12 984
12 711
12 718
12 821
12 703
12 93
12 160
12 736
12 661
12 760
12 507
12 301
12 466
12 825
12 836
12 44
12 761
12 287
12 23
12 932
12 213
12 910
12 413
12 822
12 658
12 680
12 543
12 683
12 60
12 522
12 137
12 468
12 400
12 541
12 593
12 250
12 935
12 563
12 544
12 83
12 689
12 811
12 823
12 378
12 412
12 992
12 510
12 404
12 296
12 851
12 782
12 244
12 324
13 725
13 435
13 351
13 512
13 910
13 143
13 230
13 611
13 54
13 995
13 721
13 788
13 871
13 19
13 711
13 859
13 888
13 464
13 334
13 413
13 936
13 737
13 507
13 489
13 624
13 192
13 15
13 226
13 937
13 141
13 420
13 803
13 84
13 829
13 53
13 558
13 85
13 496
13 613
13 77
13 418
13 994
13 326
13 213
13 636
14 759
14 903
14 711
14 543
14 600
14 135
14 337
14 823
14 412
14 476
14 817
14 919
14 514
14 132
14 286
14 266
14 386
14 153
14 540
14 684
14 392
14 244
14 248
14 980
14 160
14 145
14 864
14 947
14 149
14 666
14 956
14 650
14 827
14 249
14 271
14 161
14 505
14 184
14 213
14 310
14 368
14 780
14 356
14 178
14 45
14 516
14 299
14 449
14 311
14 968
14 510
14 63
14 841
14 837
14 819
14 697
14 997
14 969
14 420
14 589
14 83
14 327
14 171
14 298
14 560
14 28
14 607
15 108
15 774
15 516
15 496
15 760
15 723
15 815
15 593
15 634
15 686
15 549
15 55
15 387
15 175
15 772
15 107
15 558
15 307
15 733
15 125
15 335
15 795
15 662
15 887
15 696
15 640
15 960
15 865
15 940
15 643
15 718
15 911
15 363
15 64
15 123
15 152
15 500
15 663
15 747
15 105
15 923
15 441
15 712
15 777
15 595
15 623
15 680
15 255
15 863
15 487
15 288
15 765
15 899
15 473
16 641
16 223
16 54
16 281
16 674
16 355
16 854
16 35
16 680
16 599
16 541
16 832
16 229
16 729
16 444
16 111
16 322
16 686
16 401
16 790
16 125
16 736
16 657
16 549
16 588
16 347
16 437
16 987
16 333
16 496
16 703
16 308
16 382
16 192
16 306
16 31
16 140
16 179
16 149
16 888
16 328
16 701
16 886
16 431
16 121
16 975
16 724
16 478
16 368
16 315
16 53
16 601
16 623
16 710
16 723
16 733
16 375
16 548
16 44
16 58
16 96
16 176
16 87
16 636
16 158
16 436
16 349
17 538
17 253
17 219
17 894
17 883
17 432
17 848
17 305
17 345
17 780
17 444
17 743
17 59
17 917
17 536
17 40
17 102
17 930
17 426
17 184
17 955
17 454
17 530
17 105
17 376
17 589
17 441
17 762
18 703
18 517
18 390
18 714
18 661
18 490
18 299
18 969
18 377
18 961
18 458
18 975
18 440
18 453
18 553
18 73
18 587
18 26
18 950
18 724
18 304
18 533
18 835
18 863
18 901
18 902
18 640
18 538
18 134
18 162
18 740
18 351
18 868
18 396
18 425
18 455
18 774
18 54
18 862
18 732
18 558
18 807
18 412
18 825
18 460
18 79
18 803
19 451
19 647
19 351
19 781
19 910
19 143
19 516
19 862
19 721
19 788
19 799
19 512
19 628
19 262
19 859
19 230
19 611
19 330
19 381
19 999
19 987
19 438
19 532
19 418
19 566
19 410
19 550
19 126
19 318
19 140
19 316
19 590
19 651
19 610
19 369
19 325
19 866
19 368
19 727
19 180
19 986
19 373
19 54
19 711
19 990
19 995
19 776
19 595
19 974
19 865
19 992
19 884
19 769
19 188
19 441
19 132
19 719
20 714
20 939
20 774
20 876
20 515
20 930
20 383
20 698
20 417
20 369
20 847
20 21
20 536
20 98
20 358
20 102
20 184
20 211
20 979
20 350
20 424
20 104
20 949
20 639
20 136
20 602
21 586
21 867
21 609
21 545
21 641
21 214
21 932
21 914
21 184
21 308
21 460
21 603
21 125
21 144
21 201
21 714
21 740
21 857
21 415
21 975
21 381
21 541
21 720
21 763
21 814
21 118
21 326
21 825
21 106
22 662
22 699
22 193
22 378
22 940
22 397
22 180
22 245
22 958
22 176
22 171
22 771
22 384
22 460
22 410
22 965
22 827
22 497
22 462
22 471
22 898
22 778
22 270
22 792
22 196
22 687
22 976
22 993
22 318
22 492
22 619
22 150
22 509
22 829
22 785
22 370
22 885
22 191
22 942
22 504
22 912
22 568
22 146
22 775
22 331
22 198
22 35
22 614
22 313
22 758
22 63
22 550
22 680
22 660
22 842
22 359
22 705
22 298
22 115
22 412
22 752
22 991
22 402
22 553
22 447
22 375
22 45
22 948
22 540
22 48
22 230
22 732
22 528
22 762
22 192
22 545
22 551
22 532
22 876
22 849
22 963
22 455
22 80
22 893
22 371
22 586
22 355
22 618
22 449
22 538
22 177
22 235
22 364
22 676
22 926
22 563
22 94
22 851
22 28
23 661
23 624
23 93
23 196
23 829
23 334
23 442
23 75
23 296
23 819
23 935
23 646
23 654
24 156
24 858
24 749
24 55
24 193
24 427
24 945
24 994
24 53
24 203
24 87
24 399
24 480
24 538
24 434
24 973
24 34
24 677
24 475
24 111
24 331
24 313
24 589
24 622
24 817
24 404
24 949
24 639
25 835
25 438
25 675
25 536
25 117
25 293
25 883
25 454
25 338
25 797
25 494
25 937
25 849
25 584
25 903
25 225
25 160
25 40
25 102
25 894
25 902
25 930
25 184
25 955
25 143
25 862
25 595
25 735
25 181
25 550
25 397
25 809
25 949
25 851
25 28
25 392
25 813
25 562
26 951
26 511
26 939
26 621
26 152
26 732
26 710
26 255
26 869
26 931
26 449
26 140
26 99
26 654
26 958
26 290
26 728
26 368
26 747
26 184
26 840
26 229
26 817
26 76
26 124
26 809
26 87
26 106
26 334
26 690
26 514
27 781
27 531
27 308
27 659
27 707
27 320
27 56
27 275
27 543
27 800
27 909
27 696
27 532
27 333
27 271
27 907
27 116
27 982
27 133
27 576
27 148
27 550
27 419
27 326
27 378
27 668
27 176
27 105
27 618
27 621
27 991
27 592
27 44
27 41
27 823
27 247
27 801
27 101
28 294
28 162
28 961
28 696
28 255
28 378
28 820
28 36
28 519
28 520
28 149
28 782
28 52
28 284
28 904
28 467
28 777
28 286
28 160
28 651
28 145
28 266
28 132
28 50
28 806
28 204
28 551
28 756
28 758
28 956
28 947
28 833
28 221
28 61
28 510
28 958
28 780
28 170
28 723
28 617
28 230
28 874
28 513
28 190
28 700
28 863
28 245
28 106
28 693
28 186
28 321
28 65
28 509
28 840
28 613
28 659
28 104
28 390
28 228
28 526
28 485
28 797
28 646
28 392
29 201
29 366
29 656
29 531
29 530
29 115
29 275
29 554
29 621
29 707
29 320
29 776
29 182
29 744
29 745
29 711
29 714
29 452
29 123
29 911
29 379
29 118
29 167
29 608
29 618
29 107
29 733
29 77
29 550
29 603
29 885
29 442
29 895
29 298
29 631
30 708
30 961
30 511
30 541
30 879
30 187
30 412
30 519
30 665
30 442
30 901
30 137
30 654
30 298
30 706
30 997
31 681
31 250
31 38
31 447
31 547
31 595
31 393
31 583
31 544
31 276
31 895
31 598
31 884
31 912
31 793
31 385
31 46
31 631
32 837
32 475
32 641
32 939
32 914
32 38
32 481
32 624
32 720
32 763
32 450
32 823
32 427
32 326
32 301
32 140
32 411
32 809
32 36
32 87
32 101
32 106
32 120
32 817
32 607
33 62
33 163
33 515
33 143
33 621
33 613
33 142
33 735
33 203
33 419
33 751
33 468
33 955
33 479
33 984
33 126
33 842
33 338
33 319
33 484
33 602
33 607
33 349
33 243
34 294
34 714
34 867
34 656
34 481
34 232
34 601
34 444
34 450
34 712
34 731
34 753
34 892
34 525
34 318
34 957
34 866
34 761
34 654
34 288
34 973
34 84
34 550
34 326
34 202
34 341
34 598
34 254
34 636
35 368
35 868
35 969
35 848
35 432
35 547
35 694
35 193
35 664
35 377
35 269
35 115
35 247
35 585
35 567
35 39
35 336
35 232
35 245
35 55
35 595
35 624
35 720
35 815
35 818
35 842
35 879
35 850
35 202
35 180
35 445
35 87
36 586
36 502
36 402
36 105
36 549
36 84
36 268
36 825
36 314
36 958
36 522
36 140
36 225
36 249
36 411
36 205
36 606
36 809
36 743
36 533
36 112
36 92
36 213
36 388
36 950
36 407
36 408
36 187
36 705
36 337
36 107
36 636
36 141
36 283
36 961
36 448
36 931
36 133
36 604
36 451
36 233
36 168
36 361
36 413
36 422
36 208
36 976
36 197
36 345
36 240
36 177
36 179
36 132
37 299
37 857
37 537
37 623
37 326
37 522
37 622
37 730
37 248
37 257
37 901
37 585
37 837
37 469
37 451
37 616
37 371
37 991
38 683
38 766
38 835
38 325
38 621
38 258
38 537
38 500
38 667
38 113
38 398
38 255
38 898
38 552
38 469
38 197
38 124
38 542
38 65
38 71
38 610
38 878
38 206
38 753
38 127
38 949
38 228
39 348
39 714
39 791
39 799
39 172
39 595
39 599
39 600
39 691
39 905
39 496
39 735
39 376
39 417
39 352
39 96
39 620
39 689
39 181
39 753
39 892
39 418
39 427
39 994
39 510
39 128
39 565
39 817
39 919
39 574
39 95
39 257
39 654
39 670
40 293
40 883
40 939
40 505
40 848
40 426
40 663
40 955
40 876
40 211
40 506
40 358
40 930
40 184
40 139
40 556
40 253
40 374
40 135
40 733
40 612
40 918
40 222
40 191
40 221
40 103
40 600
40 737
40 860
40 217
40 777
40 823
40 289
40 681
40 766
40 913
40 349
40 494
40 366
40 102
40 454
40 979
40 862
40 541
40 854
40 313
40 44
40 343
40 203
40 785
40 318
40 553
40 188
40 408
40 137
41 148
41 289
41 929
41 903
41 102
41 262
41 781
41 166
41 595
41 772
41 361
41 135
41 546
41 89
41 849
41 807
41 620
41 227
41 338
41 427
41 753
41 973
41 811
41 474
41 562
41 915
41 848
41 391
41 119
41 408
41 836
41 610
41 591
41 434
41 282
41 748
41 260
41 232
41 955
41 455
41 50
41 161
41 325
41 817
41 197
41 673
41 298
41 653
41 58
41 343
41 372
41 892
41 992
41 994
41 688
41 882
41 692
41 309
41 920
41 121
42 683
42 652
42 807
42 497
42 120
42 75
42 669
42 755
42 284
42 839
42 536
42 946
42 50
42 132
42 646
42 248
42 670
43 271
43 435
43 162
43 740
43 433
43 413
43 710
43 716
43 720
43 736
43 866
43 585
43 689
43 753
43 343
43 360
43 412
43 427
43 591
43 676
43 460
43 841
43 392
44 675
44 396
44 595
44 394
44 77
44 789
44 569
44 69
44 173
44 46
44 307
44 54
44 707
44 155
44 866
44 833
44 973
44 192
44 591
44 589
44 764
45 708
45 675
45 776
45 531
45 535
45 796
45 941
45 707
45 621
45 800
45 554
45 320
45 539
45 889
45 275
45 696
45 499
45 447
45 402
45 356
45 469
45 557
45 927
45 546
45 310
45 99
45 89
45 985
45 614
45 752
45 285
45 193
45 101
45 710
45 945
45 568
45 203
45 419
46 781
46 491
46 549
46 601
46 101
46 560
46 653
46 137
46 654
46 169
46 171
46 320
46 951
46 613
46 240
46 857
46 726
46 754
46 867
46 161
46 230
46 909
46 575
46 706
46 324
46 997
47 675
47 351
47 511
47 663
47 987
47 914
47 537
47 667
47 918
47 587
47 923
47 393
47 877
47 73
47 430
47 706
47 614
47 878
47 749
47 710
47 950
47 452
47 337
47 338
47 992
47 771
47 318
47 817
47 946
47 75
47 305
47 298
48 718
48 784
48 907
48 561
48 304
48 891
48 622
48 932
48 556
48 768
48 559
48 355
48 481
48 741
48 614
48 232
48 657
48 710
48 255
48 544
48 83
48 687
48 270
48 87
48 606
48 967
49 323
49 506
49 258
49 610
49 267
49 231
49 836
49 110
49 265
49 473
49 62
49 273
49 763
49 507
49 371
49 124
49 840
49 715
49 974
49 337
49 735
49 118
49 372
49 472
49 434
49 631
50 368
50 892
50 589
50 817
50 655
50 467
50 947
50 160
50 153
50 702
50 642
50 811
50 170
50 981
50 510
50 659
50 152
50 656
50 343
50 541
50 545
50 427
50 464
50 132
50 136
51 837
51 987
51 531
51 541
51 863
51 321
51 598
51 305
51 399
51 520
51 806
51 489
51 573
51 268
51 408
51 701
51 132
51 646
52 805
52 330
52 742
52 601
52 193
52 567
52 693
52 782
52 200
52 619
52 469
52 285
52 431
52 622
52 840
52 392
52 698
52 248
53 883
53 610
53 983
53 850
53 899
53 492
53 673
53 786
53 775
53 728
53 890
53 771
53 801
53 568
53 319
53 490
53 179
53 168
53 767
53 951
53 652
53 96
53 522
53 249
53 594
53 693
53 57
53 754
53 270
53 825
53 460
53 809
53 564
54 289
54 754
54 511
54 143
54 402
54 788
54 230
54 871
54 330
54 721
54 987
54 596
54 860
54 285
54 990
54 166
54 711
54 628
54 212
54 781
54 888
54 859
54 496
54 995
54 85
54 464
54 722
54 262
54 611
54 381
54 999
54 862
54 341
54 877
54 709
54 529
54 735
54 408
54 216
54 193
54 936
54 748
54 318
54 992
54 67
54 803
54 61
54 127
54 126
54 745
54 356
54 884
54 861
54 549
54 677
54 338
54 734
54 480
54 866
54 764
54 63
54 804
54 421
54 544
54 542
54 629
54 481
54 613
54 790
54 463
54 583
54 591
54 176
54 419
54 131
54 826
54 94
54 648
54 257
54 564
55 156
55 835
55 893
55 987
55 742
55 772
55 716
55 983
55 938
55 694
55 547
55 593
55 424
55 595
55 751
55 255
55 691
55 350
55 444
55 292
55 624
55 238
55 762
55 920
55 587
55 929
55 584
55 251
55 305
55 864
55 795
55 420
55 113
55 824
55 771
55 978
55 614
55 722
55 194
55 244
55 554
55 927
55 759
55 948
55 146
55 756
55 601
55 107
55 710
55 723
55 76
55 449
55 524
55 188
55 210
55 404
55 228
55 311
55 310
56 918
56 883
56 888
56 659
56 796
56 696
56 115
56 618
56 331
56 59
56 192
56 949
56 204
56 86
56 935
56 247
56 835
56 105
56 537
56 542
56 973
56 127
56 771
56 665
56 690
56 296
56 298
57 263
57 144
57 930
57 621
57 763
57 772
57 93
57 70
57 630
57 254
57 497
57 345
57 268
57 815
57 589
57 622
57 334
57 342
57 404
57 441
57 472
58 700
58 325
58 511
58 358
58 635
58 940
58 973
58 731
58 76
58 70
58 89
58 96
58 823
58 587
58 227
58 571
58 90
58 477
58 849
58 744
58 978
58 839
58 984
58 753
58 992
58 378
58 843
58 418
58 373
58 66
58 994
58 963
58 446
58 170
58 811
58 510
58 474
58 181
58 343
58 173
58 519
58 380
58 777
58 610
58 866
58 983
58 500
58 169
58 134
58 780
58 680
58 729
58 151
58 557
58 114
58 890
58 359
58 157
58 205
58 262
58 913
58 484
58 734
58 72
58 876
58 433
58 106
58 485
58 692
58 65
58 368
58 423
58 337
58 688
58 150
58 531
58 972
58 916
58 930
58 439
58 390
58 757
58 68
58 620
58 892
58 412
58 427
58 827
58 460
59 348
59 754
59 351
59 402
59 907
59 914
59 667
59 453
59 583
59 237
59 234
59 646
59 481
59 610
59 998
59 307
59 592
59 188
59 94
59 607
60 708
60 726
60 734
60 766
60 300
60 675
60 454
60 595
60 716
60 830
60 620
60 945
60 221
60 524
60 385
60 690
61 579
61 725
61 675
61 759
61 425
61 478
61 652
61 667
61 610
61 879
61 428
61 833
61 452
61 715
61 974
61 735
61 127
61 792
61 685
61 693
61 758
62 936
62 312
62 929
62 766
62 303
62 108
62 586
62 708
62 428
62 239
62 738
62 734
62 837
62 795
62 682
62 482
62 699
62 572
62 451
62 459
62 835
62 271
62 278
62 475
62 300
62 726
62 495
62 250
62 916
62 329
62 918
62 725
62 681
62 315
62 662
62 457
62 294
62 443
62 435
62 703
62 855
62 677
62 368
62 584
62 156
62 804
62 425
62 131
62 74
62 88
62 739
62 890
62 189
62 337
62 211
62 613
62 121
62 872
62 986
62 431
62 436
62 933
62 978
62 917
62 157
62 619
62 680
62 750
62 193
62 838
62 408
62 150
62 689
62 972
62 857
62 223
62 782
62 281
62 770
62 166
62 70
62 752
62 965
62 266
62 840
62 592
62 226
62 285
62 286
62 980
62 668
62 886
62 714
62 291
62 961
62 876
62 794
62 126
62 753
62 331
62 345
62 120
62 808
63 936
63 902
63 797
63 992
63 203
63 695
63 923
63 764
63 306
63 104
63 617
63 738
63 694
63 559
63 985
63 722
63 732
63 461
63 79
63 225
63 917
63 921
63 765
63 316
63 589
63 645
63 404
63 919
63 441
63 935
63 392
64 662
64 718
64 734
64 300
64 438
64 299
64 455
64 511
64 656
64 554
64 748
64 181
64 378
64 884
64 629
64 254
64 685
64 717
64 654
65 725
65 726
65 857
65 907
65 500
65 351
65 860
65 557
65 250
65 837
65 938
65 732
65 481
65 880
65 267
65 660
65 192
65 755
65 803
65 813
66 495
66 545
66 930
66 454
66 587
66 216
66 173
66 412
66 744
66 567
66 316
66 100
66 814
66 894
66 832
66 652
66 918
66 693
66 856
66 398
66 429
66 712
66 759
66 904
66 585
66 90
66 689
66 753
66 807
66 892
66 418
66 427
66 992
66 994
66 985
66 177
66 94
66 602
67 718
67 328
67 351
67 842
67 155
67 503
67 546
67 962
67 423
67 313
67 77
67 360
67 106
67 910
67 176
67 752
67 893
67 132
67 107
67 326
67 239
67 921
67 601
67 823
67 884
67 460
67 993
67 130
67 648
67 310
67 257
68 454
68 588
68 624
68 746
68 343
68 544
68 689
68 892
68 931
68 83
68 865
68 477
68 446
68 839
68 173
68 474
68 427
68 76
68 316
68 661
68 801
68 334
68 154
68 795
68 646
68 897
68 443
68 682
68 486
68 564
68 397
68 813
68 981
68 466
68 522
68 200
68 160
68 177
68 353
68 753
68 378
68 448
68 591
68 709
68 821
69 579
69 812
69 538
69 888
69 111
69 624
69 720
69 789
69 889
69 665
69 306
69 857
69 991
69 380
69 715
69 337
69 231
69 793
69 648
70 668
70 271
70 368
70 545
70 165
70 740
70 903
70 659
70 608
70 468
70 118
70 544
70 962
70 264
70 483
70 288
70 689
70 753
70 811
70 343
70 378
70 892
70 418
70 992
70 410
70 237
70 559
70 94
70 217
71 156
71 795
71 713
71 893
71 663
71 930
71 211
71 914
71 537
71 667
71 635
71 538
71 766
71 319
71 825
71 809
71 188
71 100
71 953
71 409
71 745
71 835
71 223
71 461
71 481
71 232
71 749
71 541
71 842
71 181
71 418
71 994
71 687
71 240
71 284
72 579
72 435
72 396
72 921
72 975
72 102
72 696
72 623
72 720
72 448
72 604
72 222
72 450
72 202
72 981
72 341
72 884
72 632
72 318
72 912
72 345
72 158
72 935
72 607
73 804
73 857
73 543
73 260
73 185
73 927
73 583
73 200
73 787
73 126
73 476
73 772
73 122
73 290
73 503
73 247
73 196
73 203
73 565
73 636
73 456
73 644
73 392
73 527
74 537
74 588
74 528
74 571
74 378
74 222
74 318
74 112
74 131
74 923
74 441
74 385
74 759
74 94
74 121
74 851
74 967
74 243
75 586
75 766
75 312
75 339
75 930
75 595
75 238
75 884
75 676
75 335
75 240
75 851
75 395
75 94
75 179
75 79
75 747
75 116
75 896
75 434
75 838
75 917
75 86
75 436
75 498
75 977
75 996
75 406
75 399
75 911
75 398
75 847
75 282
75 932
75 798
75 853
75 878
75 338
75 288
75 622
75 320
75 471
75 431
75 593
75 785
75 551
75 789
75 849
75 665
75 852
75 736
75 812
75 488
75 123
75 933
75 496
75 297
75 206
75 728
75 748
75 885
75 142
75 378
75 765
75 822
75 809
75 170
75 281
75 788
75 749
75 639
75 755
75 762
76 144
76 325
76 903
76 308
76 424
76 583
76 585
76 978
76 811
76 372
76 689
76 973
76 351
76 203
76 904
76 725
76 535
76 130
76 434
76 845
76 681
76 549
76 679
76 213
76 633
76 887
76 807
76 378
76 412
76 418
76 688
76 104
76 782
76 386
77 675
77 215
77 621
77 251
77 749
77 552
77 599
77 834
77 927
77 297
77 246
77 753
77 813
77 661
77 735
77 847
77 798
77 943
77 229
77 231
77 843
77 957
78 718
78 805
78 329
78 713
78 323
78 921
78 975
78 790
78 731
78 427
78 525
78 448
78 202
78 341
78 884
78 370
78 636
78 919
78 441
78 116
78 690
78 747
79 475
79 186
79 868
79 102
79 863
79 450
79 715
79 270
79 882
79 928
79 192
79 997
79 142
79 441
79 124
79 89
79 639
79 755
79 305
79 248
79 779
80 857
80 722
80 105
80 558
80 548
80 195
80 465
80 200
80 938
80 425
80 947
80 777
80 300
80 129
80 755
80 807
80 892
80 949
80 472
80 559
81 415
81 304
81 723
81 790
81 927
81 583
81 459
81 149
81 606
81 629
81 382
81 802
81 84
81 378
81 448
81 598
81 203
81 827
81 345
81 177
81 824
81 520
81 286
81 129
82 810
82 308
82 621
82 84
82 193
82 503
82 460
82 809
82 779
82 529
82 346
82 741
82 956
82 553
82 855
82 893
82 692
82 385
82 441
83 837
83 144
83 861
83 959
83 711
83 748
83 544
83 992
83 620
83 892
83 587
83 731
83 90
83 187
83 510
83 373
83 477
83 474
83 446
83 378
83 744
83 230
83 151
83 836
83 267
83 686
83 630
83 458
83 634
83 212
83 556
83 637
83 794
83 784
83 691
83 820
83 712
83 448
83 296
83 408
83 172
83 829
83 220
83 407
83 689
83 753
83 807
83 360
83 412
83 994
83 97
83 441
83 442
83 574
83 806
83 646
83 607
83 109
83 706
84 696
84 667
84 634
84 307
84 950
84 623
84 450
84 964
84 490
84 838
84 282
84 215
84 881
84 498
84 600
84 624
84 763
84 790
84 375
84 195
84 372
84 687
84 851
84 967
85 511
85 143
85 788
85 279
85 285
85 711
85 859
85 402
85 342
85 581
85 524
85 970
85 800
85 133
85 97
85 528
85 817
85 987
85 990
85 888
85 481
85 610
85 600
85 863
85 598
85 622
86 930
86 842
86 393
86 994
86 460
86 695
86 559
86 921
86 450
86 448
86 826
86 678
86 167
86 121
86 639
86 305
86 997
87 208
87 453
87 455
87 776
87 275
87 535
87 757
87 914
87 393
87 297
87 580
87 140
87 809
87 469
87 240
87 533
87 225
87 844
87 213
87 411
87 242
87 356
87 371
87 743
87 359
87 120
87 335
87 112
87 484
87 396
87 490
87 134
87 959
87 873
87 450
87 687
87 301
87 321
87 244
87 633
87 403
87 412
87 247
87 811
87 807
87 730
87 233
87 856
87 285
87 916
87 152
87 523
87 434
87 719
87 614
87 879
87 221
87 106
87 946
87 935
87 248
87 265
88 294
88 835
88 521
88 784
88 336
88 433
88 455
88 458
88 930
88 722
88 610
88 429
88 753
88 373
88 183
88 222
88 809
88 335
88 993
88 736
88 218
88 501
88 94
88 935
88 498
88 646
88 980
89 250
89 936
89 144
89 433
89 454
89 539
89 232
89 172
89 948
89 902
89 423
89 793
89 460
89 92
89 99
89 350
89 807
89 412
89 994
89 765
89 574
90 289
90 390
90 859
90 660
90 337
90 807
90 418
90 811
90 378
90 372
90 227
90 891
90 968
90 810
90 668
90 611
90 543
90 962
90 485
90 199
90 229
90 659
90 580
90 198
90 417
90 264
90 96
90 689
90 343
90 892
90 412
90 931
90 427
90 992
90 994
90 460
90 560
90 967
90 498
90 631
91 475
91 98
91 990
91 618
91 667
91 588
91 723
91 790
91 340
91 926
91 441
91 155
91 134
91 832
91 604
91 335
91 759
91 848
91 182
91 568
91 851
91 782
92 271
92 459
92 144
92 351
92 415
92 211
92 888
92 275
92 172
92 613
92 720
92 842
92 922
92 569
92 427
92 632
92 926
92 417
92 522
92 140
92 213
92 345
92 106
92 240
93 435
93 861
93 516
93 995
93 107
93 720
93 763
93 842
93 267
93 833
93 715
93 259
93 414
93 735
93 544
93 550
93 352
93 222
93 497
93 225
93 557
93 257
94 263
94 443
94 955
94 547
94 720
94 319
94 326
94 318
94 158
94 612
94 116
94 159
94 643
94 895
94 935
94 233
94 838
94 967
94 151
94 932
94 977
94 559
94 574
94 305
94 379
94 207
94 364
94 333
94 768
94 480
94 996
94 890
94 881
94 194
94 292
94 247
94 107
94 477
94 231
94 483
94 412
94 904
94 803
94 842
94 423
94 752
94 175
94 998
94 857
94 321
94 915
94 357
94 199
94 926
94 754
94 260
94 565
94 704
94 298
94 625
94 121
94 690
94 399
94 243
94 575
95 351
95 867
95 102
95 105
95 907
95 790
95 797
95 118
95 319
95 846
95 589
95 342
95 551
95 121
95 122
95 690
95 851
95 399
95 498
95 310
95 167
95 174
96 328
96 425
96 774
96 556
96 720
96 751
96 818
96 842
96 168
96 811
96 850
96 945
96 892
96 746
96 567
96 360
96 474
96 994
96 126
96 503
96 159
96 261
96 231
96 815
96 855
96 624
96 358
96 269
96 154
96 885
96 395
96 597
96 212
96 253
96 337
96 871
96 134
96 238
96 224
96 273
96 173
96 412
96 427
96 448
96 318
96 410
96 404
96 116
96 122
96 286
97 848
97 930
97 987
97 230
97 707
97 624
97 448
97 326
97 202
97 846
97 591
97 856
97 352
97 695
97 740
97 635
97 697
97 467
97 462
97 694
97 253
97 177
97 698
97 949
97 831
97 444
97 884
97 630
97 882
97 518
97 636
97 404
97 851
97 498
98 186
98 523
98 536
98 184
98 894
98 883
98 979
98 102
98 454
98 505
98 234
98 930
98 171
98 594
98 703
98 739
98 381
98 366
98 898
98 273
98 138
98 768
98 500
98 755
98 374
98 133
98 211
98 542
98 865
98 360
98 147
98 203
98 665
98 236
99 584
99 351
99 511
99 914
99 537
99 600
99 842
99 897
99 361
99 714
99 972
99 821
99 690
99 909
99 928
99 329
99 271
99 627
99 591
99 185
99 710
99 733
99 790
99 818
99 807
99 994
99 629
99 926
99 120
99 819
99 406
99 153
100 734
100 294
100 435
100 134
100 144
100 396
100 659
100 757
100 595
100 375
100 378
100 598
100 419
100 442
100 296
100 851
100 243
100 901
101 718
101 909
101 231
101 994
101 673
101 196
101 345
101 221
101 533
101 346
101 322
101 662
101 467
101 964
101 245
101 987
101 667
101 489
101 342
101 383
101 114
102 668
102 368
102 144
102 511
102 536
102 556
102 893
102 374
102 432
102 293
102 253
102 358
102 894
102 876
102 515
102 454
102 663
102 954
102 388
102 572
102 464
102 163
102 738
102 644
102 401
102 628
102 682
102 332
102 375
102 288
102 928
102 246
102 797
102 216
102 113
102 161
102 930
102 184
102 211
102 362
102 552
102 600
102 393
102 524
102 636
102 349
103 428
103 582
103 714
103 987
103 674
103 751
103 836
103 731
103 753
103 533
103 589
103 188
103 404
103 690
103 755
103 935
103 967
103 137
103 986
104 166
104 981
104 203
104 827
104 882
104 560
104 589
104 964
104 679
104 953
104 565
104 841
104 824
104 613
104 229
104 904
104 852
104 891
104 213
104 794
104 649
104 226
104 120
104 329
104 994
104 776
104 919
104 204
104 349
105 294
105 886
105 675
105 740
105 328
105 652
105 656
105 154
105 530
105 252
105 531
105 535
105 748
105 554
105 889
105 796
105 618
105 621
105 320
105 757
105 527
105 351
105 626
105 333
105 266
105 846
105 524
105 805
105 451
105 507
105 218
105 246
105 165
105 107
105 430
105 865
105 362
105 613
105 580
105 533
105 664
105 491
105 691
105 354
105 603
105 559
105 651
105 719
106 925
106 447
106 749
106 710
106 763
106 879
106 897
106 885
106 397
106 533
106 809
106 205
106 411
106 345
106 606
106 371
106 469
106 484
106 221
106 249
106 522
106 225
106 844
106 526
106 743
106 948
106 388
106 321
106 486
106 427
106 912
106 200
106 344
106 151
106 306
106 323
106 618
106 808
106 846
106 575
106 326
106 238
106 445
106 296
106 456
106 937
106 540
106 347
106 839
106 727
106 292
106 945
106 182
106 144
106 247
106 455
106 978
106 788
106 605
106 972
106 796
106 188
106 919
106 269
106 851
106 298
107 294
107 134
107 556
107 659
107 621
107 541
107 547
107 595
107 599
107 600
107 350
107 983
107 634
107 175
107 558
107 763
107 613
107 466
107 340
107 281
107 729
107 185
107 760
107 680
107 277
107 790
107 189
107 815
107 549
107 407
107 470
107 230
107 668
107 209
107 245
107 997
107 212
107 247
107 497
107 899
107 660
107 197
107 712
107 290
107 498
107 612
107 400
107 460
107 495
107 202
107 876
107 708
107 246
107 648
107 788
107 408
107 478
107 474
107 771
107 844
107 691
107 710
107 720
107 255
107 405
107 673
107 825
107 773
107 851
107 286
107 248
107 555
107 607
108 584
108 586
108 315
108 837
108 668
108 289
108 918
108 271
108 156
108 479
108 630
108 925
108 616
108 691
108 532
108 623
108 577
108 965
108 767
108 662
108 681
108 718
108 734
108 810
108 835
108 329
108 368
108 475
108 868
108 903
108 530
108 742
108 614
108 833
108 474
108 525
108 319
108 603
108 982
108 821
108 655
108 575
109 699
109 718
109 861
109 415
109 814
109 126
109 446
109 884
109 778
109 509
109 524
109 473
109 559
109 228
109 305
109 136
109 602
109 607
109 924
109 639
109 812
109 389
109 438
109 276
109 590
109 638
109 384
109 671
109 230
109 792
109 472
109 776
109 135
109 287
109 595
109 913
109 880
109 243
110 683
110 289
110 415
110 711
110 500
110 715
110 337
110 719
110 864
110 795
110 893
110 118
110 892
110 648
110 745
110 324
111 788
111 599
111 600
111 487
111 854
111 842
111 256
111 939
111 379
111 693
111 339
111 193
111 710
111 255
111 735
111 807
111 510
111 448
111 630
111 612
112 668
112 144
112 802
112 992
112 140
112 411
112 809
112 503
112 417
112 176
112 120
112 949
112 935
113 718
113 795
113 366
113 848
113 979
113 711
113 381
113 152
113 537
113 610
113 749
113 193
113 411
113 131
113 404
113 514
113 562
113 349
113 236
114 726
114 722
114 696
114 600
114 297
114 337
114 494
114 585
114 841
114 562
114 243
114 513
114 310
114 749
114 528
114 731
114 566
114 214
114 290
114 416
114 382
114 316
114 989
114 330
114 360
114 523
115 835
115 642
115 652
115 535
115 530
115 412
115 216
115 856
115 307
115 462
115 865
115 864
115 614
115 552
115 487
115 127
115 944
115 607
116 718
116 835
116 390
116 506
116 888
116 531
116 185
116 790
116 845
116 585
116 850
116 591
116 247
116 809
116 213
116 589
116 188
116 441
116 356
116 729
116 446
116 214
116 899
116 628
116 954
116 297
116 416
116 136
116 437
116 887
116 972
116 298
116 187
116 423
116 323
116 178
116 230
116 473
116 121
116 305
116 996
116 498
116 873
116 654
117 515
117 848
117 363
117 184
117 724
117 856
117 812
117 125
117 879
117 638
117 683
117 374
117 930
117 454
117 211
117 979
117 800
117 614
117 830
117 569
117 270
117 779
117 575
118 278
118 363
118 656
118 815
118 267
118 337
118 576
118 437
118 420
118 452
118 494
118 376
118 405
118 836
118 354
118 678
118 797
118 735
118 658
118 294
118 443
118 265
118 723
118 842
118 409
118 717
118 648
118 237
118 366
118 734
118 306
118 406
118 193
118 297
118 378
118 857
118 622
118 269
118 935
118 514
119 144
119 325
119 328
119 396
119 211
119 656
119 491
119 552
119 601
119 192
119 817
119 421
119 779
119 803
119 602
119 607
119 349
119 243
119 640
119 778
119 763
119 716
119 299
119 541
119 138
119 518
119 460
119 574
119 495
119 398
119 993
119 380
119 582
119 797
120 681
120 425
120 975
120 293
120 930
120 143
120 530
120 316
120 140
120 225
120 356
120 221
120 205
120 411
120 359
120 242
120 526
120 213
120 469
120 484
120 573
120 810
120 679
120 391
120 473
120 407
120 488
120 433
120 402
120 915
120 793
120 568
120 896
120 959
120 659
120 231
120 476
120 933
120 346
120 235
120 824
120 919
120 768
120 296
120 853
120 905
121 208
121 133
121 995
121 304
121 732
121 674
121 729
121 865
121 926
121 436
121 290
121 559
121 305
121 911
121 639
121 648
121 332
121 159
121 395
121 207
121 917
121 690
121 838
121 233
121 847
121 853
121 151
121 957
121 745
121 296
121 269
121 470
121 655
121 941
121 257
121 441
121 132
121 988
121 652
121 356
121 255
121 210
121 575
121 314
121 786
121 445
121 975
121 636
121 696
121 598
121 454
121 450
121 266
121 191
121 386
121 388
121 931
121 178
121 152
121 308
121 258
121 390
121 958
121 547
121 405
121 464
121 365
121 549
121 394
121 756
121 966
121 195
121 755
121 851
121 935
121 498
122 683
122 716
122 576
122 147
122 356
122 949
122 559
122 697
122 932
122 900
122 318
122 343
122 779
122 742
122 308
122 519
122 476
122 891
122 586
122 915
122 347
122 639
122 649
122 655
122 305
122 851
122 935
123 718
123 443
123 208
123 377
123 659
123 268
123 344
123 850
123 892
123 945
123 171
123 622
123 685
123 821
123 385
123 639
123 305
124 681
124 929
124 134
124 390
124 880
124 982
124 923
124 421
124 755
124 132
124 557
124 602
124 607
124 575
125 701
125 726
125 211
125 512
125 614
125 595
125 599
125 600
125 751
125 763
125 790
125 818
125 487
125 468
125 503
125 342
125 875
125 404
125 745
125 819
125 957
125 392
125 956
125 706
126 542
126 716
126 815
126 863
126 620
126 338
126 571
126 474
126 343
126 587
126 281
126 189
126 743
126 999
126 546
126 636
126 274
126 806
126 633
126 748
126 715
126 753
126 360
126 378
126 892
126 418
126 427
126 994
126 196
126 367
126 484
126 690
126 305
126 719
126 248
127 254
127 619
127 331
127 687
127 778
127 389
127 958
127 180
127 460
127 183
127 198
127 944
127 410
127 476
127 439
127 270
127 462
127 492
127 445
127 769
127 982
127 150
127 191
127 430
127 220
127 657
127 438
127 530
127 532
127 395
127 483
127 372
127 908
127 804
127 689
127 228
127 225
127 911
127 207
127 802
127 429
127 783
127 857
127 873
127 928
127 553
127 676
127 203
127 801
127 213
127 243
127 137
128 582
128 740
128 425
128 556
128 930
128 741
128 547
128 361
128 452
128 620
128 899
128 460
128 331
128 318
128 328
128 923
128 295
128 909
128 521
128 534
128 185
128 558
128 706
128 344
128 140
128 372
128 762
128 266
128 882
128 926
128 985
128 383
128 719
128 607
129 681
129 144
129 219
129 888
129 308
129 749
129 657
129 885
129 284
129 153
129 275
129 869
129 747
129 527
129 958
129 901
129 298
129 575
129 706
130 787
130 954
130 857
130 663
130 143
130 405
130 620
130 673
130 537
130 967
130 443
130 171
130 408
130 536
130 140
130 269
131 263
131 415
131 505
131 891
131 601
131 723
131 382
131 882
131 419
131 965
131 589
131 622
131 676
131 901
131 469
131 259
131 574
131 660
131 677
131 768
131 797
131 831
131 404
131 919
131 441
131 648
131 434
131 967
131 243
131 257
132 144
132 396
132 415
132 554
132 232
132 878
132 790
132 814
132 360
132 892
132 280
132 619
132 180
132 518
132 411
132 919
132 755
132 646
132 684
132 467
132 145
132 702
132 386
132 257
132 425
132 437
132 553
132 503
132 625
132 499
132 890
132 631
132 803
132 640
132 845
132 453
132 192
132 462
132 611
132 504
132 335
132 659
132 249
132 708
132 761
132 604
132 262
132 941
132 436
132 653
132 441
132 392
132 698
132 980
132 248
133 936
133 536
133 363
133 848
133 930
133 219
133 523
133 925
133 293
133 894
133 139
133 893
133 979
133 939
133 374
133 774
133 506
133 211
133 955
133 245
133 660
133 193
133 624
133 682
133 369
133 391
133 539
133 547
133 621
133 470
133 619
133 662
133 687
133 169
133 460
133 966
133 712
133 134
133 615
133 454
133 447
133 998
133 542
133 597
133 427
133 630
133 270
133 286
133 174
134 609
134 959
134 351
134 214
134 641
134 517
134 366
134 425
134 868
134 208
134 767
134 754
134 647
134 502
134 440
134 887
134 453
134 705
134 199
134 770
134 283
134 594
134 325
134 194
134 582
134 431
134 415
134 291
134 336
134 969
134 215
134 377
134 974
134 352
134 574
134 353
134 376
134 369
134 484
134 709
134 944
134 541
134 485
134 406
134 673
134 991
134 514
134 983
134 949
134 736
134 358
134 508
134 152
134 160
134 250
134 340
134 880
134 576
134 421
134 645
134 516
134 773
134 580
134 308
134 144
134 163
134 536
134 979
134 506
134 614
134 760
134 597
134 823
134 222
134 306
134 923
134 248
135 734
135 641
135 144
135 279
135 711
135 481
135 741
135 281
135 490
135 959
135 781
135 843
135 313
135 735
135 688
135 318
135 821
135 949
135 847
135 646
135 956
136 795
136 886
136 642
136 211
136 742
136 393
136 150
136 287
136 385
136 643
136 153
136 607
136 803
136 956
136 522
136 396
136 371
136 861
136 326
136 225
136 818
136 745
136 250
136 419
136 565
136 800
136 557
136 562
136 243
137 586
137 475
137 748
137 878
137 591
137 829
137 690
137 179
137 346
137 272
137 986
137 664
137 934
137 276
137 493
137 564
137 631
137 409
137 324
137 937
137 575
137 174
137 317
137 434
137 950
137 990
137 977
137 802
137 389
137 786
137 202
137 234
137 494
137 791
137 369
137 813
137 762
137 365
137 906
137 872
137 198
137 764
137 819
137 563
137 849
137 433
137 496
137 706
138 263
138 740
138 770
138 979
138 464
138 308
138 544
138 632
138 533
138 524
138 636
138 955
138 361
138 883
138 776
138 731
138 890
138 381
138 476
138 766
138 188
138 342
138 385
138 919
138 441
138 755
138 768
138 900
138 498
138 286
138 756
138 901
139 368
139 517
139 366
139 415
139 975
139 478
139 556
139 358
139 883
139 203
139 472
139 404
139 930
139 955
139 454
139 211
139 223
139 505
139 506
139 496
139 539
139 716
139 340
139 622
139 636
139 441
139 233
139 562
139 575
140 703
140 481
140 322
140 344
140 372
140 280
140 591
140 603
140 985
140 522
140 469
140 359
140 240
140 844
140 484
140 526
140 388
140 809
140 335
140 371
140 249
140 518
140 743
140 153
140 969
140 642
140 215
140 682
140 444
140 831
140 289
140 943
140 613
140 898
140 825
140 620
140 679
140 566
140 788
140 626
140 977
140 779
140 173
140 515
140 298
140 724
140 909
140 297
140 148
140 846
140 373
140 768
140 628
140 631
140 961
140 508
140 871
140 472
140 345
140 221
140 949
140 730
140 847
140 813
141 703
141 162
141 396
141 979
141 381
141 814
141 797
141 448
141 995
141 531
141 562
141 801
141 318
141 882
141 417
141 989
142 348
142 299
142 868
142 219
142 595
142 599
142 613
142 228
142 942
142 156
142 590
142 940
142 185
142 710
142 733
142 842
142 393
142 811
142 222
142 476
142 213
142 371
142 441
142 298
143 683
143 939
143 628
143 611
143 262
143 464
143 721
143 230
143 999
143 995
143 402
143 512
143 166
143 516
143 596
143 990
143 799
143 987
143 910
143 860
143 722
143 330
143 381
143 212
143 279
143 859
143 711
143 862
143 888
143 250
143 629
143 463
143 704
143 955
143 642
143 388
143 536
143 178
143 678
143 278
143 501
143 269
143 180
143 378
143 834
143 441
143 634
143 920
143 877
143 526
143 759
143 794
143 747
143 954
143 810
143 952
143 623
143 793
143 265
143 941
143 317
143 744
143 496
143 696
143 613
143 710
143 716
143 790
143 343
143 222
143 826
143 847
143 436
144 703
144 969
144 455
144 661
144 390
144 299
144 458
144 961
144 208
144 582
144 713
144 396
144 366
144 972
144 433
144 928
144 545
144 165
144 700
144 453
144 868
144 351
144 400
144 209
144 740
144 857
144 642
144 784
144 214
144 377
144 816
144 511
144 440
144 714
144 754
144 336
144 199
144 647
144 201
144 641
144 328
144 502
144 365
144 780
144 538
144 416
144 262
144 902
144 565
144 399
144 925
144 298
144 826
144 663
144 197
144 569
144 613
144 264
144 310
144 906
144 930
144 364
144 603
144 945
144 577
144 615
144 612
144 729
144 480
144 147
144 203
144 658
144 595
144 724
144 284
144 811
144 485
144 655
144 682
144 230
144 581
144 629
144 927
144 791
144 975
144 621
144 593
144 723
144 255
144 337
144 494
144 619
144 687
144 287
144 334
144 782
144 924
144 631
145 263
145 740
145 857
145 990
145 610
145 623
145 710
145 592
145 660
145 753
145 892
145 522
145 690
145 248
146 700
146 780
146 502
146 955
146 854
146 424
146 715
146 567
146 427
146 606
146 295
146 270
146 827
146 484
146 875
146 946
146 648
147 475
147 517
147 642
147 857
147 596
147 343
147 319
147 448
147 629
147 525
147 254
147 458
147 232
147 760
147 831
147 868
147 762
147 623
147 507
147 812
147 315
147 326
147 591
147 603
147 884
147 825
147 821
147 324
148 586
148 787
148 738
148 475
148 795
148 734
148 991
148 231
148 656
148 479
148 783
148 668
148 681
148 683
148 726
148 289
148 835
148 657
148 723
148 341
148 786
148 306
148 421
148 980
148 555
148 901
148 324
148 997
149 572
149 683
149 708
149 930
149 234
149 667
149 772
149 387
149 569
149 318
149 519
149 692
149 473
149 286
149 806
149 392
149 153
150 888
150 200
150 503
150 850
150 788
150 998
150 994
150 326
150 180
150 765
150 270
150 419
150 809
150 671
150 159
150 755
150 782
151 752
151 857
151 535
151 763
151 548
151 994
151 619
151 882
151 826
151 633
151 321
151 425
151 690
151 935
151 498
151 562
151 298
152 329
152 888
152 178
152 362
152 610
152 260
152 413
152 891
152 479
152 523
152 648
152 730
152 556
152 287
152 376
152 253
152 653
152 867
152 481
152 874
152 614
152 232
152 878
152 772
152 192
152 341
152 524
152 949
152 964
152 286
152 756
153 887
153 663
153 930
153 880
153 307
153 444
153 753
153 605
153 825
153 460
153 524
153 188
153 698
153 777
153 302
153 551
153 224
153 465
153 895
153 983
153 471
153 297
153 737
153 884
153 569
153 487
153 847
153 419
153 443
153 336
153 924
153 281
153 478
153 980
153 762
154 767
154 816
154 656
154 659
154 776
154 993
154 490
154 977
154 631
154 698
154 257
154 314
154 748
154 621
154 757
154 500
154 547
154 546
154 591
154 177
154 762
155 538
155 714
155 790
155 548
155 468
155 313
155 465
155 168
155 734
155 733
155 629
155 700
155 635
155 896
155 710
155 948
155 879
155 480
155 546
155 297
155 195
155 844
155 228
156 584
156 586
156 289
156 428
156 475
156 701
156 682
156 263
156 805
156 159
156 783
156 504
156 568
156 591
156 392
156 500
156 198
156 318
156 287
156 681
156 708
156 734
156 766
156 795
156 329
156 858
156 368
156 457
156 700
156 868
156 366
156 667
156 729
156 763
156 863
156 678
156 735
156 753
156 327
156 899
156 419
156 533
156 560
156 332
157 682
157 837
157 502
157 531
157 535
157 595
157 613
157 624
157 782
157 158
157 571
157 710
157 723
157 830
157 620
157 525
157 826
157 612
157 564
157 575
158 682
158 325
158 490
158 925
158 432
158 748
158 541
158 691
158 882
158 460
158 497
158 622
158 968
158 553
158 949
158 645
158 501
158 442
158 353
158 621
158 186
158 742
158 983
158 840
158 413
158 979
158 618
158 712
158 476
158 192
158 540
158 836
158 575
158 810
158 806
158 935
158 178
158 817
158 498
158 782
159 482
159 784
159 262
159 843
159 640
159 761
159 655
159 937
159 694
159 339
159 205
159 690
159 399
159 967
159 646
160 718
160 902
160 751
160 338
160 827
160 399
160 286
160 392
160 980
160 762
160 602
160 631
161 886
161 435
161 987
161 707
161 595
161 255
161 427
161 180
161 270
161 636
161 637
161 496
161 476
161 334
161 919
161 441
161 649
161 653
161 768
161 305
161 498
161 813
162 681
162 835
162 582
162 458
162 759
162 396
162 208
162 299
162 194
162 521
162 365
162 431
162 201
162 641
162 425
162 770
162 433
162 315
162 658
162 249
162 618
162 456
162 855
162 576
162 728
162 397
162 444
162 986
162 206
162 408
162 911
162 675
162 754
162 816
162 857
162 351
162 511
162 711
162 652
162 720
162 277
162 429
162 465
162 373
162 786
162 946
162 639
162 762
162 257
163 641
163 199
163 961
163 325
163 887
163 784
163 214
163 440
163 339
163 538
163 365
163 754
163 431
163 425
163 433
163 377
163 868
163 518
163 177
163 289
163 264
163 524
163 488
163 422
163 437
163 364
163 847
163 228
163 793
163 376
163 992
163 307
163 194
163 740
163 323
163 511
163 710
163 569
164 774
164 402
164 260
164 172
164 362
164 881
164 943
164 669
164 801
164 961
164 720
164 279
164 610
164 635
164 623
164 337
164 338
164 373
164 240
164 177
164 793
164 967
164 498
165 766
165 675
165 538
165 455
165 896
165 872
165 555
165 912
165 516
165 700
165 713
165 208
165 740
165 780
165 291
165 857
165 396
165 959
165 975
165 211
165 230
165 531
165 539
165 491
165 418
165 801
165 524
165 309
165 296
165 853
165 935
165 557
165 257
166 662
166 766
166 351
166 930
166 781
166 285
166 590
166 692
166 837
166 568
166 322
166 855
166 711
166 995
166 888
166 381
166 874
166 547
166 790
166 715
166 270
166 817
166 649
166 392
166 719
166 557
167 641
167 323
167 556
167 320
167 537
167 657
167 710
167 790
167 807
167 843
167 603
167 228
167 204
167 257
167 901
167 654
167 400
167 798
167 278
167 466
167 463
167 394
167 575
167 706
168 289
168 961
168 902
168 941
168 638
168 548
168 298
168 460
168 191
168 557
168 430
168 182
168 195
168 592
168 503
168 183
168 270
168 829
168 296
168 243
169 294
169 661
169 868
169 893
169 184
169 505
169 995
169 621
169 623
169 840
169 598
169 479
169 301
169 356
169 636
169 406
170 837
170 921
170 711
170 859
170 381
170 751
170 842
170 313
170 544
170 782
170 298
170 830
170 317
170 319
170 618
170 895
170 181
170 753
170 811
170 892
170 412
170 418
170 994
170 785
170 919
170 488
170 851
170 248
171 438
171 425
171 511
171 656
171 337
171 419
171 319
171 364
171 852
171 211
171 528
171 708
171 270
171 985
171 826
171 334
171 441
172 725
172 451
172 914
172 537
172 413
172 481
172 874
172 477
172 543
172 866
172 628
172 431
172 447
172 610
172 614
172 232
172 749
172 830
172 863
172 378
172 942
172 240
172 627
172 649
172 655
172 745
172 654
173 415
173 546
173 585
173 753
173 544
173 963
173 237
173 599
173 431
173 812
173 445
173 691
173 786
173 315
173 724
173 673
173 595
173 378
173 892
173 412
173 280
173 884
173 632
173 827
173 460
173 762
174 275
174 413
174 503
174 371
174 188
174 817
174 334
174 179
174 901
174 654
174 577
174 183
174 185
174 322
174 218
174 197
174 267
174 580
174 388
174 229
174 642
174 643
174 706
175 278
175 459
175 713
175 857
175 390
175 925
175 447
175 542
175 547
175 236
175 317
175 723
175 950
175 585
175 372
175 237
175 655
175 967
175 243
176 992
176 981
176 476
176 676
176 712
176 721
176 640
176 871
176 343
176 201
176 180
176 882
176 926
176 417
176 965
176 460
176 685
176 441
176 436
176 719
177 572
177 810
177 435
177 451
177 816
177 528
177 337
177 525
177 622
177 636
177 565
177 826
177 773
177 923
177 949
177 394
177 918
177 257
177 751
177 858
177 469
177 253
177 386
177 228
177 871
177 303
177 283
177 716
177 880
177 312
177 660
177 188
177 404
177 919
177 442
177 472
178 668
178 734
178 675
178 975
178 995
178 941
178 241
178 613
178 297
178 892
178 551
178 561
178 881
178 822
178 361
178 689
178 427
178 525
178 676
178 559
178 648
178 851
178 284
179 586
179 681
179 457
179 328
179 330
179 772
179 753
179 850
179 550
179 687
179 882
179 529
179 389
179 678
179 759
179 477
179 996
179 286
179 349
179 934
180 675
180 784
180 975
180 343
180 992
180 676
180 367
180 183
180 410
180 913
180 786
180 203
180 220
180 993
180 958
180 389
180 825
180 445
180 942
180 969
180 719
180 957
180 915
180 514
180 444
180 752
180 743
180 680
180 453
180 315
180 530
180 581
180 654
180 402
180 725
180 297
180 877
180 412
180 764
180 300
180 364
180 801
180 882
180 419
180 404
180 655
180 996
180 483
181 886
181 184
181 429
181 544
181 689
181 865
181 476
181 736
181 440
181 999
181 306
181 197
181 807
181 378
181 412
181 427
181 949
181 602
181 607
182 374
182 599
182 375
182 927
182 423
182 852
182 548
182 546
182 466
182 550
182 821
182 226
182 514
182 746
182 257
182 254
182 183
182 367
182 984
182 583
182 200
182 412
182 817
182 498
182 562
183 543
183 878
183 466
183 927
183 256
183 448
183 290
183 313
183 828
183 330
183 538
183 400
183 437
183 242
183 315
183 270
183 287
183 801
183 318
183 885
183 912
183 926
183 965
183 334
183 639
183 745
183 284
183 392
183 937
184 239
184 433
184 536
184 930
184 432
184 979
184 848
184 253
184 426
184 556
184 747
184 258
184 720
184 435
184 961
184 862
184 882
184 841
184 684
184 937
184 348
184 317
184 209
184 424
184 421
184 454
184 211
184 552
184 691
184 343
184 418
184 202
184 890
184 926
184 606
184 655
184 697
185 795
185 868
185 211
185 999
185 595
185 599
185 601
185 691
185 375
185 229
185 444
185 549
185 255
185 634
185 593
185 312
185 493
185 190
185 214
185 797
185 373
185 969
185 901
185 827
185 890
185 784
185 704
185 244
185 381
185 661
185 723
185 790
185 950
185 360
185 524
185 919
186 810
186 538
186 675
186 975
186 594
186 759
186 972
186 705
186 612
186 540
186 617
186 646
186 546
186 473
186 190
186 740
186 780
186 351
186 511
186 599
186 238
186 879
186 927
186 735
186 441
186 559
186 847
186 248
186 706
187 726
187 868
187 400
187 542
187 583
187 544
187 976
187 528
187 519
187 347
187 753
187 807
187 372
187 412
187 418
187 427
187 992
187 884
187 692
187 306
187 334
187 639
187 690
187 228
187 646
187 631
188 668
188 475
188 740
188 351
188 867
188 454
188 481
188 344
188 789
188 753
188 688
188 882
188 589
188 622
188 519
188 821
188 404
188 966
188 488
188 421
188 761
188 793
188 695
188 672
188 640
188 566
188 414
188 334
188 210
188 717
188 299
188 700
188 598
188 498
188 734
188 916
188 661
188 600
188 871
188 883
188 230
188 664
188 614
188 774
188 570
188 486
188 551
188 778
188 362
188 440
188 804
188 207
188 603
188 444
188 817
188 309
188 919
188 755
188 646
188 980
189 886
189 754
189 396
189 490
189 859
189 496
189 260
189 599
189 600
189 624
189 236
189 560
189 738
189 751
189 818
189 842
189 306
189 334
189 653
189 690
189 298
190 734
190 263
190 835
190 451
190 517
190 425
190 341
190 884
190 441
190 559
190 269
190 392
190 248
190 562
190 602
190 243
190 901
191 278
191 300
191 368
191 325
191 505
191 781
191 212
191 635
191 811
191 318
191 417
191 404
191 559
191 639
191 853
191 758
192 642
192 351
192 491
192 621
192 863
192 548
192 525
192 677
192 363
192 767
192 448
192 630
192 632
192 342
192 520
192 997
193 681
193 701
193 886
193 969
193 613
193 723
193 292
193 950
193 922
193 466
193 307
193 375
193 691
193 224
193 450
193 347
193 729
193 405
193 590
193 594
193 236
193 688
193 731
193 348
193 903
193 785
193 929
193 572
193 718
193 556
193 948
193 782
193 641
193 844
193 751
193 255
193 863
193 789
193 823
193 850
193 360
193 427
193 430
193 524
193 648
193 408
194 435
194 517
194 433
194 440
194 535
194 539
194 261
194 281
194 489
194 908
194 279
194 714
194 299
194 323
194 328
194 857
194 396
194 415
194 425
194 959
194 511
194 595
194 818
194 885
194 233
194 847
194 310
194 607
194 706
195 299
195 903
195 927
195 852
195 583
195 297
195 468
195 951
195 805
195 573
195 213
195 414
195 270
195 629
195 650
195 343
195 894
195 715
195 202
195 603
195 203
195 778
195 417
195 645
195 877
195 404
195 559
195 349
195 997
196 586
196 936
196 325
196 848
196 595
196 892
196 688
196 245
196 220
196 827
196 687
196 942
196 400
196 307
196 650
196 751
196 634
196 254
196 925
196 734
196 881
196 203
196 318
196 926
196 419
196 460
196 645
196 472
196 483
196 873
197 262
197 537
197 880
197 424
197 689
197 341
197 479
197 765
197 821
197 334
197 342
197 404
197 919
197 980
197 557
197 562
198 805
198 538
198 754
198 535
198 914
198 595
198 429
198 583
198 687
198 210
198 257
198 260
198 801
198 825
198 318
198 563
198 636
199 289
199 329
199 517
199 594
199 752
199 377
199 325
199 399
199 278
199 674
199 777
199 509
199 603
199 645
199 995
199 992
199 694
199 659
199 713
199 714
199 780
199 323
199 351
199 868
199 396
199 975
199 363
199 781
199 874
199 822
199 337
199 372
199 287
199 533
199 919
199 514
199 782
200 455
200 600
200 830
200 927
200 592
200 852
200 509
200 248
200 855
200 517
200 267
200 850
200 243
200 490
200 875
200 318
200 622
200 639
201 641
201 675
201 390
201 700
201 478
201 357
201 489
201 598
201 493
201 617
201 469
201 299
201 857
201 366
201 455
201 511
201 454
201 444
201 254
201 318
201 404
201 648
201 847
201 498
202 795
202 475
202 705
202 973
202 525
202 449
202 327
202 352
202 630
202 643
202 369
202 312
202 813
202 237
202 672
202 766
202 223
202 991
202 235
202 341
202 884
202 333
202 286
202 602
203 734
203 766
203 810
203 740
203 848
203 790
203 689
203 865
203 846
203 976
203 913
203 497
203 890
203 245
203 222
203 318
203 728
203 825
203 314
203 460
203 568
203 462
203 769
203 419
203 676
203 439
203 489
203 301
203 471
203 637
203 784
203 870
203 748
203 579
203 841
203 248
203 935
203 945
203 783
203 677
203 218
203 907
203 834
203 233
203 436
203 872
203 569
203 868
203 481
203 312
203 789
203 690
203 320
203 926
203 942
203 944
203 241
204 250
204 323
204 939
204 788
204 547
204 255
204 487
204 427
204 820
204 809
204 636
204 269
204 305
204 399
204 996
204 257
204 639
204 409
204 248
204 310
205 579
205 681
205 718
205 368
205 521
205 594
205 675
205 748
205 815
205 445
205 586
205 916
205 968
205 556
205 562
205 898
205 985
205 349
205 659
205 616
205 723
205 416
205 213
205 221
205 529
205 636
205 717
205 296
205 762
205 575
205 324
206 787
206 230
206 260
206 465
206 842
206 403
206 348
206 447
206 248
206 716
206 709
206 949
207 726
207 599
207 710
207 689
207 994
207 441
207 559
207 605
207 346
207 573
207 317
207 305
207 900
207 996
208 609
208 770
208 642
208 431
208 511
208 453
208 299
208 887
208 759
208 752
208 816
208 377
208 740
208 400
208 791
208 538
208 347
208 513
208 571
208 907
208 968
208 227
208 808
208 257
208 625
208 344
208 464
208 492
208 943
208 660
208 743
208 388
208 435
208 258
208 850
208 754
208 291
208 339
208 396
208 975
208 894
208 539
208 914
208 998
208 688
208 665
208 332
209 734
209 263
209 675
209 455
209 390
209 433
209 903
209 557
209 235
209 551
209 574
209 977
209 787
209 778
209 740
209 291
209 867
209 396
209 425
209 961
209 975
209 987
209 815
209 832
209 879
209 797
209 228
209 602
209 607
209 349
210 708
210 368
210 910
210 998
210 729
210 815
210 420
210 378
210 884
210 676
210 589
210 962
210 315
210 793
210 296
210 847
210 562
211 954
211 475
211 425
211 774
211 894
211 930
211 454
211 663
211 461
211 505
211 432
211 902
211 876
211 925
211 293
211 223
211 506
211 893
211 363
211 219
211 848
211 426
211 955
211 883
211 939
211 515
211 724
211 862
211 389
211 239
211 969
211 462
211 700
211 574
211 455
211 516
211 440
211 661
211 980
211 813
211 889
211 863
211 714
211 881
211 481
211 846
211 678
211 838
211 765
211 926
211 897
211 994
211 531
211 286
211 672
211 508
211 659
211 794
211 614
211 710
211 786
211 419
211 821
211 342
211 900
212 886
212 780
212 279
212 711
212 330
212 987
212 986
212 814
212 429
212 390
212 962
212 971
212 859
212 995
212 888
212 252
212 790
212 319
212 761
212 559
212 650
212 244
212 758
213 681
213 459
213 415
213 987
213 878
213 818
213 879
213 375
213 839
213 931
213 884
213 389
213 913
213 522
213 526
213 242
213 639
213 922
213 268
213 418
213 513
213 233
213 870
213 784
213 517
213 845
213 324
213 466
213 899
213 662
213 684
213 489
213 334
213 346
213 648
213 221
213 636
214 699
214 725
214 766
214 482
214 609
214 675
214 700
214 562
214 610
214 754
214 857
214 867
214 975
214 478
214 511
214 888
214 941
214 749
214 326
214 591
214 884
214 775
214 270
214 417
214 264
214 334
214 847
215 517
215 675
215 770
215 325
215 594
215 609
215 336
215 965
215 832
215 457
215 778
215 461
215 733
215 857
215 868
215 396
215 416
215 523
215 610
215 600
215 674
215 429
215 592
215 833
215 378
215 882
215 334
215 847
216 668
216 475
216 547
216 689
216 839
216 571
216 474
216 973
216 321
216 446
216 963
216 843
216 653
216 952
216 770
216 551
216 314
216 698
216 791
216 833
216 896
216 670
216 756
216 348
216 419
216 708
216 904
216 853
216 673
216 283
216 753
216 807
216 823
216 865
216 378
216 427
216 525
216 334
217 681
217 754
217 511
217 680
217 375
217 423
217 337
217 585
217 946
217 690
217 896
217 719
217 779
217 349
217 243
218 626
218 718
218 855
218 661
218 339
218 857
218 425
218 975
218 426
218 939
218 512
218 710
218 863
218 753
218 807
218 221
218 655
218 747
218 646
218 392
218 719
219 299
219 959
219 774
219 536
219 930
219 454
219 863
219 414
219 855
219 977
219 415
219 843
219 879
219 599
219 842
219 563
219 685
219 821
219 649
219 747
219 706
219 997
220 368
220 536
220 567
220 419
220 758
220 451
220 887
220 953
220 948
220 353
220 351
220 312
220 235
220 270
220 801
220 912
220 565
220 821
220 473
220 602
221 579
221 681
221 263
221 516
221 796
221 251
221 863
221 899
221 522
221 345
221 627
221 249
221 240
221 388
221 939
221 559
221 688
221 613
221 600
221 910
221 454
221 311
221 226
221 856
221 468
221 864
221 828
221 446
221 492
221 670
221 870
221 879
221 758
221 793
221 398
221 498
221 248
222 802
222 823
222 382
222 676
222 397
222 829
222 687
222 985
222 958
222 245
222 944
222 638
222 313
222 706
222 449
222 780
222 302
222 574
222 318
222 882
222 417
222 533
222 411
222 488
222 269
222 286
222 392
223 515
223 556
223 930
223 293
223 506
223 925
223 523
223 774
223 275
223 591
223 856
223 436
223 665
223 831
223 235
223 320
223 373
223 934
223 794
223 624
223 807
223 497
223 519
223 306
223 520
223 284
223 873
224 339
224 506
224 258
224 541
224 595
224 599
224 710
224 804
224 966
224 943
224 384
224 763
224 790
224 863
224 479
224 607
224 243
224 257
225 668
225 263
225 312
225 323
225 930
225 939
225 995
225 667
225 603
225 371
225 606
225 809
225 345
225 240
225 359
225 844
225 242
225 272
225 664
225 651
225 285
225 352
225 735
225 624
225 670
225 464
225 245
225 277
225 229
225 897
225 803
225 662
225 823
225 716
225 987
225 381
225 643
225 547
225 753
225 309
225 690
225 782
225 244
226 447
226 614
226 624
226 281
226 789
226 833
226 452
226 875
226 734
226 988
226 321
226 992
226 319
226 801
226 654
227 475
227 791
227 299
227 857
227 351
227 396
227 499
227 260
227 541
227 277
227 375
227 620
227 753
227 850
227 343
227 892
227 412
227 427
227 992
227 994
227 510
227 448
227 632
227 497
227 935
227 602
228 586
228 263
228 835
228 861
228 969
228 426
228 696
228 757
228 749
228 412
228 919
228 442
228 649
228 985
228 763
228 539
228 351
228 279
228 310
228 765
228 737
228 361
228 903
228 587
228 755
228 957
228 248
229 795
229 365
229 975
229 624
229 691
229 733
229 994
229 662
229 675
229 352
229 887
229 509
229 746
229 827
229 354
229 875
229 427
229 254
229 559
229 648
229 286
230 475
230 538
230 711
230 859
230 862
230 995
230 788
230 562
230 930
230 704
230 922
230 493
230 780
230 898
230 359
230 915
230 520
230 496
230 610
230 595
230 477
230 992
230 648
230 779
231 835
231 609
231 425
231 716
231 723
231 789
231 337
231 405
231 836
231 494
231 833
231 328
231 433
231 468
231 848
231 725
231 904
231 903
231 276
231 918
231 852
231 492
231 630
231 522
231 404
231 305
232 496
232 491
232 252
232 537
232 561
232 732
232 616
232 614
232 742
232 655
232 684
232 287
232 861
232 753
232 690
232 949
232 934
232 902
232 557
232 749
232 624
232 255
232 994
232 882
232 410
232 942
232 920
232 520
232 602
232 243
232 631
233 752
233 857
233 975
233 499
233 536
233 279
233 618
233 544
233 510
233 525
233 270
233 559
233 899
233 497
233 589
233 399
233 498
233 803
233 243
234 766
234 774
234 930
234 454
234 663
234 955
234 523
234 464
234 923
234 681
234 972
234 949
234 496
234 297
234 532
234 753
234 341
234 632
234 612
235 718
235 299
235 251
235 694
235 845
235 525
235 568
235 460
235 436
235 813
235 557
235 562
235 602
235 607
235 243
236 675
236 323
236 925
236 621
236 751
236 326
236 341
236 270
236 410
236 529
236 557
236 602
236 607
236 372
236 969
236 307
236 311
236 362
236 781
237 725
237 440
237 975
237 774
237 876
237 781
237 971
237 583
237 636
237 282
237 773
237 821
237 334
237 404
237 441
237 296
237 520
237 762
237 602
238 734
238 867
238 426
238 252
238 998
238 542
238 595
238 599
238 710
238 419
238 679
238 448
238 438
238 255
238 842
238 845
238 863
238 548
238 360
238 427
238 632
238 676
238 261
238 639
238 527
239 584
239 668
239 681
239 718
239 546
239 455
239 377
239 655
239 353
239 931
239 294
239 835
239 435
239 475
239 402
239 749
239 869
239 950
239 318
239 518
239 533
239 648
239 935
240 787
240 759
240 358
240 454
240 449
240 382
240 765
240 526
240 469
240 242
240 356
240 411
240 749
240 508
240 725
240 251
240 346
240 943
240 564
240 985
240 868
240 252
240 965
240 941
240 814
240 898
240 946
240 698
241 572
241 662
241 936
241 351
241 415
241 320
241 749
241 452
241 636
241 685
241 401
241 261
241 821
241 441
241 779
241 813
242 936
242 475
242 675
242 705
242 987
242 496
242 530
242 992
242 510
242 630
242 522
242 345
242 472
242 935
243 740
243 754
243 400
243 601
243 624
243 983
243 378
243 844
243 345
243 553
243 562
243 607
243 658
243 527
243 557
243 346
243 803
243 988
243 808
243 445
243 559
243 522
243 982
243 792
243 565
243 915
243 647
243 950
243 421
243 723
243 939
243 587
243 484
243 318
243 991
243 865
243 284
243 981
243 954
243 700
243 324
244 294
244 455
244 696
244 608
244 255
244 660
244 676
244 958
244 480
244 520
244 644
244 392
244 645
244 725
244 804
244 323
244 712
244 938
244 713
244 917
244 727
244 977
244 428
244 368
244 530
244 762
245 711
245 547
245 599
245 815
245 833
245 448
245 270
245 825
245 882
245 965
245 460
245 982
245 685
246 696
246 260
246 537
246 998
246 616
246 874
246 412
246 954
246 302
246 662
246 627
246 556
246 761
246 751
246 281
246 463
246 446
246 265
246 706
247 278
247 995
247 252
247 620
247 321
247 892
247 427
247 820
247 326
247 488
247 429
247 628
247 603
247 884
247 630
247 899
247 524
247 562
248 726
248 250
248 835
248 780
248 867
248 979
248 613
248 884
248 996
248 719
248 284
248 651
248 952
248 684
248 947
248 422
248 467
248 514
248 286
248 762
248 551
248 646
248 666
248 266
248 904
248 978
248 699
248 839
248 661
248 417
248 732
248 331
248 362
248 793
248 760
248 891
248 525
248 737
248 607
248 744
248 464
248 358
248 925
248 585
248 743
248 741
248 575
248 454
249 428
249 435
249 339
249 455
249 255
249 790
249 811
249 280
249 942
249 522
249 411
249 685
249 399
249 386
249 349
250 579
250 586
250 668
250 699
250 718
250 734
250 485
250 368
250 906
250 304
250 759
250 560
250 895
250 766
250 289
250 294
250 835
250 435
250 475
250 921
250 624
250 950
250 418
250 820
250 345
250 920
250 392
250 349
251 289
251 883
251 537
251 561
251 481
251 741
251 256
251 590
251 373
251 674
251 378
251 254
251 318
251 335
251 709
251 900
251 935
251 514
252 754
252 366
252 454
252 275
252 530
252 941
252 696
252 621
252 532
252 257
252 762
252 393
252 394
252 264
252 327
252 736
252 295
252 378
252 892
252 510
252 448
252 844
252 627
252 935
252 498
253 586
253 368
253 428
253 713
253 455
253 363
253 930
253 506
253 920
253 554
253 547
253 424
253 992
253 319
253 844
253 498
253 607
254 538
254 705
254 767
254 415
254 796
254 872
254 772
254 790
254 865
254 525
254 448
254 598
254 603
254 884
254 382
254 319
254 280
254 856
254 580
254 256
254 820
254 259
254 474
254 374
254 339
254 370
254 727
254 568
254 904
254 649
254 314
254 733
254 910
254 851
254 523
254 985
254 652
254 643
254 459
254 510
254 460
254 296
254 847
255 263
255 435
255 951
255 502
255 621
255 541
255 599
255 549
255 558
255 613
255 694
255 292
255 347
255 815
255 863
255 268
255 340
255 854
255 674
255 691
255 322
255 686
255 710
255 822
255 542
255 507
255 808
255 651
255 658
255 509
255 799
255 905
255 574
255 554
255 903
255 439
255 289
255 615
255 960
255 338
255 977
255 536
255 829
255 257
255 518
255 299
255 978
255 889
255 324
255 790
255 821
255 334
255 919
255 996
256 278
256 936
256 749
256 657
256 729
256 653
256 418
256 344
256 719
256 766
256 525
256 326
256 341
256 603
256 884
256 630
256 825
256 923
257 766
257 835
257 641
257 596
257 914
257 815
257 412
257 945
257 311
257 783
257 577
257 831
257 631
257 324
257 934
257 960
257 317
257 570
257 409
257 272
257 898
257 879
257 759
257 506
257 810
257 589
257 772
257 621
257 752
257 384
257 264
257 578
257 912
257 537
257 371
257 973
257 743
257 645
257 588
257 304
257 293
257 683
257 685
257 301
258 868
258 707
258 874
258 889
258 646
258 529
258 389
258 435
258 914
258 915
258 481
258 749
258 710
258 863
258 926
258 492
258 534
258 923
259 738
259 300
259 368
259 713
259 400
259 961
259 455
259 914
259 537
259 830
259 753
259 427
259 801
259 514
259 716
259 606
259 861
259 387
259 563
259 946
259 670
259 286
259 806
259 646
259 980
259 654
260 677
260 703
260 837
260 428
260 711
260 614
260 667
260 915
260 481
260 907
260 874
260 741
260 413
260 447
260 304
260 991
260 891
260 496
260 737
260 689
260 721
260 349
260 574
260 942
260 384
260 887
260 783
260 596
260 897
260 927
260 643
260 606
260 561
260 749
260 899
260 334
260 602
260 901
261 459
261 675
261 975
261 818
261 424
261 318
261 356
261 524
261 636
261 693
261 407
261 309
261 385
261 824
261 562
261 834
261 745
261 843
261 588
261 912
261 935
261 981
261 774
261 673
261 410
261 577
261 583
261 648
261 837
261 313
261 442
261 895
261 779
262 677
262 681
262 867
262 975
262 556
262 596
262 330
262 445
262 723
262 808
262 736
262 577
262 544
262 987
262 859
262 862
262 496
262 888
262 381
262 608
262 907
262 749
262 772
262 842
262 645
263 681
263 718
263 734
263 766
263 787
263 312
263 954
263 495
263 294
263 855
263 668
263 572
263 348
263 682
263 485
263 795
263 549
263 656
263 634
263 378
263 875
263 948
263 727
263 792
263 504
263 289
263 835
263 481
263 874
263 927
263 337
263 326
263 382
263 676
263 885
263 919
263 421
263 559
263 847
264 718
264 425
264 511
264 794
264 601
264 623
264 974
264 318
264 524
264 467
264 815
264 369
264 573
264 642
264 652
264 520
264 592
264 436
264 420
264 334
264 919
264 305
265 734
265 886
265 283
265 351
265 776
265 772
265 842
265 424
265 945
265 851
265 483
265 901
265 981
265 325
265 690
265 619
265 887
265 754
265 606
265 654
265 298
265 706
265 324
265 997
266 294
266 454
266 595
266 842
266 869
266 487
266 771
266 801
266 617
266 472
266 957
266 286
266 646
266 392
266 980
266 562
266 324
267 735
267 712
267 833
267 678
267 576
267 405
267 840
267 789
267 494
267 403
267 972
267 607
267 665
267 737
267 463
267 722
267 915
267 968
267 728
267 421
267 974
267 892
267 326
267 419
267 524
267 821
267 980
267 602
268 368
268 451
268 816
268 415
268 975
268 894
268 595
268 623
268 710
268 733
268 809
268 842
268 424
268 418
268 525
268 632
268 483
268 575
269 726
269 502
269 608
269 362
269 927
269 270
269 639
269 690
269 838
269 851
269 470
269 273
269 643
269 676
269 750
269 546
269 388
269 469
269 443
269 704
269 568
269 551
269 512
269 330
269 827
269 935
269 957
269 967
270 299
270 857
270 888
270 618
270 412
270 687
270 619
270 827
270 913
270 504
270 287
270 785
270 976
270 489
270 958
270 898
270 445
270 965
270 301
270 497
270 885
270 912
270 899
270 370
270 476
270 430
270 419
270 318
270 331
270 786
270 766
270 956
270 345
270 355
270 393
270 572
270 306
270 302
270 623
270 983
270 617
270 938
270 597
270 615
270 608
270 364
270 338
270 863
270 361
270 291
270 339
270 607
270 644
270 931
270 791
270 789
270 693
270 811
270 845
270 829
270 926
270 417
270 589
270 636
270 654
271 586
271 681
271 766
271 718
271 294
271 626
271 795
271 805
271 743
271 960
271 814
271 884
271 716
271 853
271 286
271 375
271 810
271 835
271 609
271 515
271 995
271 794
271 537
271 541
271 599
271 927
271 297
271 372
271 994
271 519
271 649
272 642
272 995
272 427
272 882
272 519
272 655
272 901
272 654
272 487
272 298
272 575
272 706
273 858
273 661
273 396
273 455
273 711
273 815
273 375
273 687
273 488
273 559
273 648
273 755
273 305
273 900
273 498
274 457
274 433
274 822
274 597
274 753
274 446
274 685
274 514
274 654
274 640
274 935
274 691
274 298
274 706
274 997
275 681
275 718
275 857
275 511
275 496
275 656
275 621
275 308
275 618
275 604
275 625
275 509
275 910
275 811
275 876
275 519
275 323
275 318
275 531
275 696
275 689
275 949
275 762
276 961
276 621
276 741
276 710
276 869
276 466
276 992
276 598
276 460
276 342
276 920
276 901
276 654
276 298
276 997
277 366
277 464
277 595
277 599
277 600
277 723
277 347
277 371
277 918
277 448
277 414
277 709
277 423
277 337
277 412
277 648
278 584
278 668
278 681
278 718
278 734
278 766
278 443
278 805
278 626
278 368
278 936
278 572
278 948
278 484
278 950
278 937
278 637
278 338
278 565
278 560
278 886
278 435
278 475
278 723
278 288
278 765
278 942
278 439
278 526
278 821
278 385
278 391
278 808
279 538
279 951
279 781
279 402
279 512
279 999
279 906
279 976
279 311
279 336
279 518
279 404
279 836
279 711
279 330
279 987
279 862
279 995
279 888
279 874
279 592
279 471
279 919
280 683
280 457
280 323
280 774
280 556
280 914
280 863
280 528
280 583
280 735
280 525
280 781
280 470
280 448
280 603
280 884
280 993
280 773
280 920
280 436
281 435
281 881
281 541
281 595
281 599
281 623
281 790
281 751
281 294
281 537
281 883
281 492
281 339
281 780
281 719
281 409
281 976
281 856
281 842
281 879
281 424
281 487
281 567
281 598
281 884
281 993
281 286
281 756
281 924
281 298
282 584
282 936
282 351
282 478
282 536
282 733
282 983
282 885
282 622
282 821
282 989
282 559
282 690
282 296
282 305
283 538
283 641
283 675
283 740
283 366
283 479
283 736
283 475
283 393
283 591
283 867
283 425
283 975
283 799
283 496
283 800
283 907
283 340
283 401
283 468
283 337
283 589
283 334
283 758
284 918
284 291
284 293
284 505
284 618
284 541
284 326
284 648
284 900
284 520
284 551
284 540
284 952
284 681
284 445
284 945
284 865
284 985
284 548
284 636
284 870
284 498
284 564
284 644
285 512
285 611
285 888
285 596
285 987
285 788
285 721
285 860
285 477
285 852
285 357
285 933
285 461
285 476
285 387
285 318
285 759
285 916
285 582
285 711
285 995
285 542
285 829
285 384
285 919
285 574
285 298
286 855
286 868
286 536
286 608
286 614
286 588
286 397
286 404
286 989
286 655
286 755
286 498
286 386
286 302
286 762
286 952
286 806
286 756
286 422
286 782
286 644
286 392
286 467
286 980
286 834
286 859
286 751
286 345
286 722
286 438
286 928
286 871
286 580
286 652
286 581
286 895
286 728
286 507
286 940
286 832
286 656
286 939
286 822
286 344
286 405
287 339
287 867
287 917
287 555
287 290
287 564
287 932
287 995
287 318
287 636
287 957
288 348
288 475
288 482
288 959
288 930
288 506
288 927
288 807
288 300
288 750
288 550
288 745
288 399
288 957
288 646
288 756
289 586
289 668
289 718
289 734
289 329
289 443
289 368
289 804
289 677
289 766
289 699
289 482
289 929
289 294
289 300
289 725
289 837
289 738
289 835
289 348
289 315
289 810
289 805
289 916
289 795
289 384
289 988
289 985
289 372
289 887
289 943
289 631
289 314
289 628
289 750
289 569
289 612
289 388
289 882
289 581
289 818
289 446
289 620
289 379
289 922
289 311
289 849
289 957
289 937
289 475
289 675
289 390
289 432
289 987
289 940
289 591
289 430
289 695
289 841
289 441
289 690
289 755
289 514
289 779
290 428
290 675
290 542
290 446
290 994
290 926
290 441
290 559
290 305
290 851
290 498
290 901
291 681
291 754
291 867
291 511
291 759
291 390
291 538
291 339
291 746
291 385
291 739
291 330
291 736
291 828
291 789
291 301
291 904
291 848
291 513
291 857
291 351
291 975
291 909
291 620
291 689
291 603
291 827
291 441
291 305
292 538
292 656
292 531
292 595
292 624
292 710
292 723
292 496
292 609
292 697
292 991
292 556
292 546
292 348
292 332
292 520
292 818
292 863
292 592
292 318
292 331
292 524
292 851
292 298
293 718
293 294
293 883
293 848
293 556
293 454
293 774
293 548
293 993
293 901
293 318
293 741
293 910
293 312
293 363
293 663
293 930
293 505
293 711
293 995
293 542
293 950
293 992
293 417
293 388
293 562
294 584
294 626
294 681
294 708
294 718
294 726
294 734
294 766
294 738
294 485
294 805
294 428
294 936
294 475
294 662
294 804
294 303
294 668
294 443
294 699
294 701
294 823
294 817
294 452
294 453
294 806
294 603
294 826
294 948
294 464
294 828
294 578
294 341
294 985
294 976
294 827
294 507
294 729
294 835
294 368
294 754
294 979
294 862
294 789
294 753
294 510
294 619
294 565
294 764
294 690
294 296
294 514
294 392
294 997
295 586
295 454
295 401
295 412
295 474
295 846
295 827
295 885
295 958
295 524
295 565
295 636
295 685
295 951
295 949
295 441
295 648
295 935
296 718
296 431
296 537
296 600
296 720
296 833
296 715
296 973
296 994
296 559
296 911
296 851
296 957
296 391
296 697
296 305
296 332
296 399
296 311
296 333
296 655
296 390
296 341
296 784
296 943
296 454
296 724
296 711
296 638
296 776
296 443
296 472
296 469
296 498
297 624
297 313
297 927
297 619
297 595
297 533
297 380
297 583
297 974
297 486
297 892
297 510
297 580
297 309
297 919
297 923
297 747
298 468
298 994
298 524
298 901
298 493
298 564
298 570
298 409
298 324
298 631
298 783
298 581
298 937
298 664
298 577
298 647
298 762
298 947
298 716
298 990
298 555
298 878
298 728
298 345
298 606
298 420
298 486
298 955
298 999
298 375
298 979
298 689
298 506
298 871
298 763
298 503
298 957
298 706
298 997
299 668
299 718
299 443
299 538
299 594
299 675
299 713
299 714
299 767
299 752
299 365
299 431
299 425
299 377
299 969
299 861
299 328
299 928
299 366
299 903
299 906
299 318
299 606
299 757
299 912
299 804
299 987
299 414
299 948
299 471
299 878
299 797
299 817
299 619
299 426
299 650
299 857
299 351
299 415
299 975
299 478
299 511
299 862
299 790
299 373
299 846
299 568
299 439
299 385
299 671
299 644
299 527
299 575
300 668
300 681
300 718
300 726
300 734
300 699
300 861
300 640
300 758
300 835
300 368
300 435
300 304
300 763
300 790
300 818
300 347
300 879
300 344
300 771
300 404
300 311
301 668
301 780
301 876
301 512
301 749
301 842
301 412
301 427
301 676
301 302
301 652
301 613
301 612
301 827
301 882
301 899
301 460
301 524
301 640
301 665
301 685
301 949
302 329
302 433
302 975
302 979
302 656
302 790
302 807
302 825
302 417
302 755
302 305
302 391
302 935
302 392
303 584
303 586
303 662
303 668
303 683
303 708
303 718
303 565
303 685
303 385
303 434
303 780
303 853
303 858
303 936
303 475
303 415
303 599
303 404
303 602
304 959
304 536
304 537
304 872
304 829
304 465
304 792
304 346
304 574
304 754
304 481
304 749
304 424
304 840
304 823
304 912
304 826
304 935
304 813
305 594
305 641
305 415
305 818
305 753
305 807
305 823
305 448
305 367
305 821
305 441
305 639
305 648
305 755
305 649
305 917
305 745
305 406
305 643
305 369
305 655
305 480
305 690
305 896
305 851
305 935
305 747
305 578
305 574
305 666
305 314
305 941
305 874
305 495
305 629
305 356
305 335
305 509
305 685
305 814
305 619
305 432
305 719
305 316
305 997
305 982
305 501
305 816
305 385
305 638
305 975
305 310
305 542
305 712
305 910
305 525
305 724
305 888
305 587
305 455
305 667
305 311
305 996
305 520
305 349
306 858
306 582
306 903
306 396
306 611
306 362
306 463
306 974
306 992
306 417
306 636
306 721
306 844
306 577
306 551
306 513
306 435
306 786
306 736
306 343
306 575
307 868
307 358
307 987
307 595
307 601
307 711
307 850
307 715
307 827
307 949
307 745
308 975
308 711
308 995
308 381
308 531
308 796
308 800
308 774
308 654
308 577
308 481
308 974
308 809
308 332
308 392
309 416
309 656
309 757
309 751
309 361
309 401
309 840
309 892
309 912
309 589
309 508
309 919
309 546
309 927
309 341
309 558
309 869
309 637
309 954
309 924
309 827
309 747
309 405
309 334
309 385
309 404
309 441
309 690
309 646
310 339
310 537
310 763
310 587
310 809
310 935
310 332
310 369
310 877
310 564
311 738
311 366
311 975
311 523
311 413
311 749
311 623
311 405
311 912
311 926
311 671
311 690
311 574
311 755
311 612
311 573
311 419
311 587
311 586
311 319
311 664
311 823
311 805
311 908
311 927
311 897
311 602
311 531
311 438
311 476
311 903
311 851
311 967
311 646
312 579
312 586
312 681
312 348
312 698
312 577
312 785
312 413
312 835
312 886
312 475
312 481
312 694
312 879
312 450
312 341
312 985
312 851
313 979
313 845
313 583
313 528
313 631
313 667
313 767
313 919
313 896
313 544
313 427
313 417
313 460
313 520
313 719
314 495
314 538
314 998
314 587
314 688
314 453
314 955
314 811
314 387
314 338
314 322
314 318
314 417
314 817
314 436
315 586
315 668
315 734
315 766
315 333
315 607
315 521
315 819
315 573
315 697
315 835
315 329
315 368
315 475
315 928
315 774
315 799
315 815
315 592
315 807
315 687
315 949
316 596
316 667
316 689
316 753
316 807
316 550
316 702
316 949
316 378
316 892
316 412
316 992
316 994
316 510
316 913
316 636
316 817
316 562
317 351
317 490
317 618
317 669
317 392
317 901
317 654
317 706
318 425
318 950
318 940
318 829
318 898
318 944
318 765
318 885
318 676
318 389
318 430
318 792
318 785
318 912
318 462
318 673
318 827
318 890
318 439
318 687
318 419
318 769
318 771
318 568
318 786
318 509
318 934
318 517
318 930
318 932
318 546
318 797
318 881
318 475
318 968
318 594
318 449
318 826
318 457
318 762
318 964
318 625
318 380
318 408
318 615
318 586
318 628
318 939
318 642
318 578
318 519
318 984
318 624
318 432
318 837
318 379
318 882
318 460
318 685
318 404
318 653
319 683
319 642
319 425
319 930
319 402
319 862
319 879
319 833
319 337
319 525
319 449
319 598
319 884
319 448
319 580
319 807
319 788
319 512
319 805
319 515
319 975
319 509
319 331
319 529
319 715
319 849
319 571
319 825
319 591
319 603
319 630
319 533
319 640
319 847
319 498
319 349
320 368
320 886
320 714
320 995
320 796
320 539
320 794
320 999
320 606
320 400
320 648
320 328
320 892
320 978
320 786
320 674
320 720
320 807
320 994
320 448
320 958
320 665
320 762
321 668
321 718
321 886
321 894
321 941
321 815
321 620
321 753
321 581
321 533
321 415
321 833
321 412
321 427
321 992
321 419
321 522
321 803
322 810
322 368
322 351
322 547
322 601
322 624
322 623
322 691
322 710
322 751
322 772
322 815
322 739
322 501
322 591
322 685
322 505
322 863
322 375
322 823
322 882
322 417
322 646
323 708
323 734
323 795
323 538
323 641
323 816
323 458
323 478
323 752
323 675
323 951
323 661
323 325
323 339
323 861
323 972
323 961
323 969
323 903
323 545
323 499
323 700
323 892
323 597
323 916
323 683
323 604
323 626
323 729
323 813
323 938
323 648
323 651
323 367
323 724
323 568
323 715
323 869
323 679
323 345
323 857
323 351
323 433
323 959
323 535
323 343
323 676
323 785
323 334
323 483
324 916
324 675
324 975
324 955
324 931
324 685
324 762
324 901
324 654
324 581
324 570
324 706
324 934
324 575
324 670
324 571
324 681
324 720
324 449
324 404
324 380
324 485
324 721
324 778
324 884
324 434
324 628
324 692
324 427
324 468
324 997
325 368
325 475
325 521
325 538
325 675
325 713
325 754
325 857
325 714
325 952
325 913
325 707
325 465
325 834
325 926
325 396
325 425
325 455
325 975
325 776
325 965
326 610
326 790
326 892
326 448
326 591
326 479
326 605
326 603
326 550
326 981
326 884
326 327
326 590
326 737
326 525
326 960
326 659
326 920
326 517
326 595
326 523
326 821
326 982
326 562
326 713
326 381
326 343
326 427
326 533
326 404
326 808
326 901
327 572
327 381
327 880
327 412
327 525
327 448
327 441
327 912
327 666
327 540
327 977
327 598
327 603
327 958
327 522
327 851
327 557
327 562
328 708
328 521
328 582
328 740
328 767
328 609
328 961
328 818
328 613
328 454
328 585
328 343
328 868
328 975
328 511
328 680
328 678
328 427
328 992
328 884
328 803
329 572
329 579
329 668
329 708
329 718
329 810
329 835
329 936
329 348
329 886
329 683
329 682
329 586
329 675
329 415
329 593
329 893
329 702
329 399
329 369
329 857
329 974
329 623
329 771
329 610
329 561
329 574
329 475
329 791
329 678
329 587
329 913
329 793
329 342
330 402
330 788
330 711
330 381
330 995
330 496
330 596
330 464
330 447
330 669
330 442
330 521
330 966
330 523
330 939
330 638
330 777
330 333
330 585
330 951
330 415
330 849
330 602
330 987
330 888
330 340
330 427
330 884
330 919
331 668
331 726
331 641
331 675
331 857
331 659
331 941
331 542
331 583
331 688
331 588
331 502
331 649
331 966
331 626
331 488
331 417
331 655
332 425
332 592
332 974
332 994
332 591
332 410
332 639
332 696
332 657
332 935
332 386
332 483
332 997
333 454
333 544
333 460
333 949
333 649
333 581
334 975
334 893
334 995
334 749
334 343
334 418
334 885
334 345
334 524
334 636
334 824
334 473
334 566
334 383
334 821
334 826
334 342
334 563
334 693
334 685
334 919
334 966
334 404
334 414
334 501
334 589
334 679
334 622
334 672
334 920
334 468
334 929
334 432
334 363
334 649
334 536
334 706
334 668
334 917
334 569
334 637
334 357
334 838
334 694
334 340
334 774
334 959
334 915
334 504
334 458
334 735
334 743
334 744
334 667
334 480
334 719
334 813
335 490
335 836
335 801
335 926
335 809
335 371
335 565
335 414
335 454
335 862
335 933
335 723
336 675
336 714
336 661
336 471
336 393
336 711
336 422
336 513
336 857
336 868
336 396
336 511
336 910
336 652
336 696
336 846
336 382
336 901
337 708
337 780
337 496
337 833
337 715
337 597
337 840
337 797
337 437
337 452
337 486
337 836
337 405
337 569
337 420
337 376
337 494
337 882
337 390
337 740
337 717
337 707
337 963
337 763
337 738
337 601
337 347
337 924
337 735
337 884
337 672
337 821
337 342
337 745
338 734
338 594
338 614
338 653
338 974
338 412
338 992
338 801
339 668
339 609
339 675
339 713
339 499
339 935
339 534
339 486
339 857
339 351
339 366
339 975
339 753
339 378
339 632
339 926
339 441
339 557
340 584
340 538
340 511
340 541
340 601
340 624
340 623
340 723
340 465
340 737
340 959
340 738
340 863
340 468
340 417
340 526
341 499
341 363
341 859
341 628
341 652
341 424
341 525
341 550
341 448
341 591
341 820
341 691
341 827
341 927
341 959
341 631
341 373
341 759
341 368
341 639
341 560
341 493
341 687
341 522
341 717
341 935
341 952
342 647
342 516
342 544
342 811
342 525
342 695
342 943
342 824
342 501
342 923
342 877
342 685
342 617
342 524
342 589
342 779
342 797
342 737
342 936
342 495
342 564
342 667
342 750
342 400
342 474
342 949
342 655
342 498
343 708
343 438
343 749
343 974
343 689
343 807
343 811
343 585
343 744
343 544
343 412
343 843
343 978
343 416
343 856
343 980
343 880
343 572
343 375
343 377
343 419
343 561
343 643
343 710
343 775
343 552
343 859
343 770
343 461
343 517
343 681
343 360
343 892
343 926
343 982
343 841
343 655
344 800
344 763
344 927
344 583
344 423
344 503
344 820
344 473
344 700
344 517
344 935
344 913
344 388
345 579
345 457
345 862
345 995
345 600
345 753
345 882
345 926
345 417
345 419
345 809
345 359
345 606
345 356
345 358
345 598
345 494
345 890
345 754
345 933
345 997
345 976
345 575
345 913
345 498
345 956
345 828
345 440
345 690
346 858
346 618
346 561
346 588
346 624
346 863
346 450
346 418
346 417
346 419
346 985
346 755
346 957
346 768
346 995
346 359
346 349
346 997
347 572
347 396
347 511
347 541
347 547
347 601
347 623
347 723
347 790
347 821
347 501
347 863
347 474
347 580
347 566
347 755
348 579
348 586
348 662
348 668
348 718
348 734
348 835
348 391
348 937
348 714
348 481
348 733
348 465
348 678
348 484
348 645
348 717
348 773
349 718
349 451
349 594
349 861
349 876
349 549
349 815
349 840
349 974
349 940
349 388
349 803
349 602
349 607
349 513
349 924
349 813
349 727
349 739
349 449
349 620
349 474
349 695
349 846
349 903
349 874
349 482
349 499
349 768
349 488
349 537
349 769
349 550
349 686
349 791
349 787
350 545
350 396
350 663
350 624
350 623
350 720
350 815
350 830
350 845
350 611
350 393
350 689
350 553
350 456
350 574
350 639
350 555
350 813
351 579
351 586
351 545
351 791
351 857
351 647
351 458
351 478
351 425
351 582
351 972
351 903
351 705
351 390
351 867
351 433
351 431
351 767
351 642
351 440
351 521
351 675
351 661
351 961
351 511
351 400
351 951
351 759
351 538
351 453
351 816
351 754
351 897
351 781
351 388
351 493
351 368
351 930
351 566
351 683
351 941
351 407
351 371
351 392
351 660
351 612
351 445
351 505
351 358
351 370
351 631
351 864
351 877
351 580
351 402
351 937
351 734
351 396
351 415
351 975
351 499
351 859
351 926
351 965
351 640
351 602
352 425
352 984
352 550
352 820
352 448
352 981
352 364
352 373
352 963
352 496
352 884
352 821
352 919
352 643
352 399
353 475
353 642
353 767
353 928
353 490
353 656
353 361
353 375
353 660
353 452
353 892
353 589
353 817
353 974
353 441
353 406
354 495
354 517
354 700
354 362
354 751
354 452
354 715
354 867
354 839
354 552
354 981
354 373
354 418
354 488
354 813
355 708
355 734
355 868
355 499
355 541
355 547
355 733
355 790
355 818
355 842
355 604
355 671
355 698
355 468
355 617
355 361
355 846
355 676
355 786
355 524
355 442
355 392
355 483
355 654
355 997
356 584
356 675
356 673
356 522
356 809
356 411
356 561
356 390
356 396
356 772
356 661
356 901
356 598
356 825
356 709
356 639
357 675
357 975
357 554
357 878
357 749
357 638
357 710
357 715
357 372
357 418
357 992
357 630
357 965
357 524
357 745
357 980
357 654
358 857
358 515
358 663
358 876
358 461
358 894
358 458
358 520
358 567
358 890
358 963
358 929
358 568
358 451
358 513
358 930
358 426
358 939
358 955
358 794
358 637
358 544
358 412
358 912
358 639
358 900
359 713
359 780
359 536
359 552
359 546
359 510
359 687
359 985
359 949
359 364
360 511
360 711
360 753
360 823
360 843
360 412
360 697
360 465
360 428
360 784
360 578
360 683
360 600
360 892
360 427
360 978
360 994
360 510
360 942
360 524
360 923
360 472
360 851
360 498
360 698
361 475
361 800
361 595
361 599
361 710
361 751
361 845
361 802
361 638
361 842
361 772
361 897
361 866
361 524
361 496
361 629
361 971
361 755
361 959
361 658
361 372
361 940
361 578
361 683
361 675
361 879
361 424
361 715
361 519
361 472
362 416
362 543
362 537
362 561
362 481
362 856
362 658
362 801
362 749
362 845
362 473
362 698
362 607
362 901
363 536
363 556
363 663
363 760
363 571
363 872
363 852
363 454
363 505
363 781
363 987
363 862
363 995
363 496
363 888
363 549
363 595
363 689
363 839
363 913
363 456
363 690
363 399
364 766
364 857
364 487
364 559
364 690
364 851
364 498
365 475
365 517
365 521
365 641
365 642
365 647
365 780
365 877
365 872
365 425
365 455
365 511
365 535
365 741
365 599
365 879
365 630
365 484
365 935
365 803
366 675
366 705
366 740
366 857
366 959
366 713
366 780
366 706
366 469
366 855
366 633
366 914
366 455
366 975
366 478
366 974
366 687
366 997
367 626
367 668
367 754
367 618
367 815
367 544
367 568
367 687
367 801
367 888
367 832
367 495
367 731
367 879
367 770
367 557
367 882
367 419
367 919
367 472
367 690
368 579
368 586
368 681
368 734
368 766
368 795
368 805
368 835
368 451
368 916
368 482
368 699
368 668
368 886
368 443
368 438
368 485
368 701
368 726
368 435
368 677
368 810
368 403
368 855
368 837
368 787
368 804
368 584
368 725
368 738
368 682
368 457
368 459
368 572
368 929
368 997
368 745
368 999
368 444
368 712
368 906
368 467
368 876
368 878
368 973
368 497
368 652
368 658
368 624
368 628
368 433
368 983
368 868
368 426
368 522
368 445
368 832
368 711
368 875
368 414
368 619
368 474
368 576
368 609
368 776
368 595
368 763
368 636
368 946
369 784
369 454
369 711
369 757
369 842
369 863
369 899
369 639
369 655
369 900
369 935
369 957
369 996
369 498
369 937
369 997
370 425
370 995
370 496
370 494
370 544
370 865
370 777
370 381
370 899
370 411
370 695
370 385
370 919
370 905
371 454
371 788
371 865
371 940
371 417
371 513
371 714
371 991
371 920
371 441
372 659
372 616
372 689
372 823
372 849
372 544
372 731
372 850
372 510
372 446
372 811
372 746
372 839
372 892
372 571
372 992
372 651
372 730
372 579
372 450
372 942
372 953
372 690
372 759
372 594
372 452
372 645
372 631
372 582
372 685
372 666
372 679
372 378
372 418
372 427
372 882
372 885
372 399
372 646
372 527
373 586
373 451
373 888
373 998
373 689
373 753
373 823
373 957
373 826
373 623
373 838
373 459
373 416
373 493
373 412
373 427
373 992
373 994
373 510
373 525
373 522
373 821
373 935
373 996
374 774
374 556
374 663
374 798
374 387
374 543
374 493
374 431
374 787
374 894
374 930
374 939
374 454
374 623
374 466
374 497
374 557
375 681
375 766
375 521
375 714
375 951
375 515
375 696
375 815
375 863
375 657
375 600
375 721
375 917
375 958
375 957
375 840
375 439
375 843
375 467
375 746
375 972
375 635
375 914
375 865
375 826
375 649
376 795
376 979
376 987
376 600
376 723
376 833
376 452
376 597
376 735
376 888
376 596
376 418
376 957
376 602
377 538
377 641
377 740
377 754
377 857
377 584
377 396
377 951
377 975
377 511
377 732
377 500
377 720
377 992
377 825
377 419
377 685
378 683
378 675
378 433
378 987
378 995
378 881
378 854
378 585
378 620
378 753
378 807
378 544
378 744
378 963
378 865
378 973
378 689
378 418
378 850
378 571
378 849
378 892
378 945
378 550
378 386
378 516
378 518
378 414
378 766
378 680
378 846
378 840
378 922
378 835
378 737
378 576
378 417
378 867
378 572
378 751
378 949
378 630
378 547
378 503
378 452
378 864
378 623
378 524
378 602
378 780
378 713
378 698
378 412
378 992
378 994
378 982
378 935
378 480
379 584
379 835
379 538
379 390
379 425
379 788
379 542
379 486
379 474
379 550
379 778
379 404
379 755
379 967
379 498
380 790
380 863
380 620
380 427
380 994
380 827
380 404
380 655
380 745
380 851
380 498
381 714
381 867
381 894
381 930
381 711
381 862
381 990
381 995
381 722
381 999
381 778
381 870
381 941
381 599
381 924
381 993
381 594
381 490
381 760
381 883
381 480
381 671
381 804
381 541
381 600
381 710
381 811
381 522
381 622
381 636
381 640
381 841
381 702
382 713
382 930
382 721
382 891
382 674
382 720
382 510
382 525
382 981
382 603
382 884
382 632
382 742
382 908
382 777
382 897
382 460
383 455
383 955
383 689
383 632
383 769
383 524
383 622
383 695
383 949
383 441
384 936
384 402
384 624
384 710
384 418
384 525
384 479
384 676
384 765
384 453
384 465
384 441
384 472
384 996
385 586
385 536
385 486
385 785
385 827
385 965
385 589
385 685
385 773
385 565
385 964
385 826
385 453
385 626
385 837
385 883
385 620
385 939
385 478
385 740
385 579
385 471
385 777
385 731
385 748
385 919
385 946
385 441
385 472
385 644
386 609
386 740
386 930
386 748
386 694
386 981
386 519
386 488
386 520
386 750
386 822
386 616
386 392
386 762
387 556
387 532
387 542
387 623
387 720
387 738
387 916
387 400
387 504
387 734
387 850
387 805
387 424
387 950
387 884
387 522
387 841
387 404
387 813
388 435
388 753
388 823
388 427
388 518
388 647
388 723
388 774
388 610
388 487
388 917
388 526
388 636
388 442
388 957
388 392
388 562
389 961
389 599
389 613
389 882
389 435
389 565
389 924
389 513
389 417
389 633
389 988
389 997
390 538
390 594
390 642
390 675
390 705
390 713
390 714
390 848
390 533
390 965
390 631
390 852
390 640
390 396
390 433
390 455
390 975
390 511
390 531
390 720
390 822
390 460
390 692
391 454
391 610
391 729
391 424
391 597
391 753
391 655
391 671
391 480
391 977
391 653
391 551
391 848
391 836
391 773
391 474
391 786
391 867
391 855
391 931
391 990
391 490
391 993
391 999
391 935
392 482
392 714
392 543
392 880
392 500
392 830
392 842
392 753
392 817
392 919
392 964
392 697
392 646
392 520
392 980
392 698
392 904
392 777
392 540
392 947
392 762
392 666
392 684
392 422
392 514
392 806
392 797
392 879
392 610
392 636
392 774
392 847
392 508
392 569
392 462
392 596
392 446
392 474
392 599
392 773
392 700
392 661
392 813
392 618
392 889
392 407
392 733
392 938
392 878
392 699
392 852
392 634
392 706
393 888
393 599
393 600
393 623
393 710
393 845
393 879
393 450
393 999
393 764
393 945
393 926
393 698
393 939
393 800
393 489
393 685
393 424
393 884
394 734
394 402
394 595
394 763
394 790
394 842
394 879
394 501
394 960
394 840
394 701
394 825
394 824
394 841
394 559
395 734
395 954
395 628
395 707
395 732
395 733
395 863
395 884
395 801
395 639
395 769
395 399
395 935
395 806
396 738
396 675
396 791
396 928
396 903
396 458
396 582
396 453
396 861
396 641
396 921
396 609
396 868
396 661
396 499
396 431
396 490
396 517
396 400
396 767
396 502
396 867
396 538
396 951
396 416
396 804
396 785
396 514
396 472
396 950
396 846
396 717
396 596
396 968
396 685
396 875
396 568
396 443
396 461
396 590
396 971
396 711
396 719
396 790
396 864
396 786
396 815
396 701
396 631
396 697
396 505
396 442
396 516
396 965
396 871
396 556
396 892
396 648
396 480
397 586
397 711
397 840
397 850
397 676
397 658
397 848
397 912
397 417
398 586
398 921
398 814
398 466
398 927
398 985
398 633
398 636
398 559
398 639
398 851
398 529
398 684
398 477
398 412
398 804
398 935
398 498
399 751
399 525
399 882
399 462
399 655
399 690
399 730
399 470
399 911
399 747
399 838
399 851
399 697
399 498
399 559
399 977
399 819
399 436
399 996
399 669
399 646
399 616
399 883
399 764
399 974
399 788
399 722
399 565
399 702
399 971
399 844
399 737
399 774
399 651
399 890
399 757
399 693
399 469
399 597
399 414
399 510
399 595
399 738
400 682
400 435
400 675
400 713
400 425
400 694
400 764
400 589
400 578
400 924
400 760
400 416
400 975
400 511
400 512
400 789
400 992
400 769
400 410
400 965
400 817
400 697
401 579
401 683
401 979
401 711
401 720
401 842
401 863
401 558
401 676
401 652
401 903
401 469
401 415
401 998
401 645
401 678
401 568
401 665
401 817
401 655
401 851
402 766
402 435
402 816
402 961
402 512
402 781
402 999
402 628
402 464
402 722
402 516
402 862
402 871
402 596
402 910
402 990
402 731
402 637
402 883
402 844
402 751
402 474
402 556
402 989
402 484
402 567
402 469
402 675
402 453
402 872
402 686
402 592
402 711
402 987
402 995
402 888
402 753
402 427
403 668
403 681
403 718
403 726
403 734
403 766
403 795
403 835
403 611
403 609
403 728
403 475
403 515
403 711
403 543
403 547
403 733
403 802
403 922
403 418
403 906
403 764
403 773
403 919
403 851
403 436
403 980
404 734
404 675
404 928
404 961
404 894
404 599
404 733
404 751
404 424
404 597
404 801
404 524
404 589
404 685
404 566
404 793
404 622
404 946
404 501
404 553
404 826
404 633
404 534
404 824
404 919
404 773
404 693
404 607
404 829
404 888
404 549
404 784
404 562
404 564
404 767
404 506
404 643
404 650
404 802
404 975
404 776
404 559
404 756
404 436
404 730
404 838
404 781
404 504
404 441
404 762
405 662
405 936
405 475
405 481
405 486
405 678
405 664
405 771
405 745
405 566
405 587
405 756
405 789
405 715
405 735
405 544
405 411
405 719
406 584
406 455
406 499
406 511
406 946
406 745
406 900
406 491
406 953
406 753
406 756
406 763
406 967
406 646
407 561
407 815
407 412
407 636
407 665
407 919
407 803
407 467
407 946
408 681
408 713
408 711
408 659
408 465
408 620
408 890
408 472
408 690
408 479
408 675
408 498
409 662
409 425
409 774
409 741
409 548
409 755
409 819
409 901
409 575
409 706
409 997
410 835
410 880
410 720
410 688
410 765
410 827
410 679
410 757
410 834
410 651
410 926
410 417
410 563
410 645
411 867
411 969
411 975
411 930
411 815
411 892
411 846
411 769
411 982
411 447
411 979
411 539
411 617
411 985
411 818
411 659
411 687
411 890
411 681
411 847
411 564
412 547
412 595
412 833
412 836
412 544
412 753
412 807
412 446
412 823
412 567
412 945
412 418
412 984
412 620
412 843
412 731
412 811
412 963
412 992
412 744
412 839
412 973
412 419
412 626
412 835
412 695
412 968
412 457
412 489
412 562
412 834
412 826
412 484
412 714
412 827
412 601
412 882
412 932
412 421
412 783
412 935
412 762
412 879
412 468
412 493
412 889
412 860
412 420
412 475
412 479
412 508
412 426
412 517
412 858
412 920
412 461
412 472
412 980
412 756
413 683
413 914
413 813
413 755
413 887
413 952
413 616
413 880
413 749
413 541
413 623
413 790
413 448
413 603
413 574
414 626
414 936
414 862
414 914
414 869
414 424
414 463
414 465
414 775
414 524
414 622
414 817
414 919
414 847
414 935
414 706
415 517
415 857
415 867
415 455
415 490
415 675
415 770
415 416
415 780
415 868
415 594
415 784
415 478
415 928
415 545
415 759
415 700
415 887
415 528
415 998
415 643
415 826
415 429
415 744
415 540
415 639
415 731
415 793
415 502
415 511
415 611
415 541
415 600
415 710
415 772
415 992
415 603
415 442
415 498
415 654
416 538
416 713
416 784
416 857
416 867
416 868
416 442
416 758
416 883
416 995
416 965
416 474
416 605
416 573
416 437
416 425
416 433
416 951
416 490
416 601
416 818
416 908
416 892
416 958
416 639
417 835
417 642
417 541
417 595
417 751
417 801
417 882
417 985
417 419
417 765
417 890
417 827
417 445
417 785
417 951
417 849
417 696
417 813
417 527
417 795
417 847
417 909
417 718
417 713
417 561
417 737
417 879
417 628
417 665
417 766
417 597
417 965
417 441
417 851
418 848
418 800
418 763
418 437
418 689
418 753
418 892
418 843
418 571
418 931
418 849
418 544
418 446
418 992
418 620
418 994
418 587
418 828
418 760
418 715
418 563
418 504
418 824
418 641
418 863
418 555
418 498
418 989
418 512
418 713
418 672
418 965
418 983
418 569
418 424
418 496
418 427
418 982
418 755
419 708
419 457
419 616
419 601
419 818
419 829
419 676
419 430
419 460
419 476
419 471
419 993
419 489
419 779
419 598
419 581
419 493
419 840
419 859
419 620
419 494
419 566
419 659
419 960
419 871
419 655
419 442
419 615
419 640
419 644
420 714
420 990
420 541
420 503
420 789
420 456
420 938
420 592
420 742
420 715
420 978
420 820
420 627
420 534
420 589
420 692
421 511
421 547
421 863
421 978
421 589
421 636
421 512
421 798
421 678
421 661
421 836
421 915
421 656
422 481
422 687
422 534
422 566
422 695
422 441
422 498
422 853
422 779
422 803
423 677
423 647
423 857
423 652
423 909
423 624
423 710
423 496
423 505
423 799
423 551
423 583
423 592
423 503
423 807
423 892
424 734
424 538
424 959
424 511
424 995
424 624
424 710
424 723
424 733
424 763
424 772
424 818
424 842
424 845
424 613
424 680
424 814
424 869
424 828
424 832
424 691
424 639
424 452
424 774
424 844
424 807
424 911
424 929
424 687
424 565
424 917
424 979
424 702
424 890
424 454
424 478
424 739
424 992
424 827
424 924
425 734
425 545
425 675
425 713
425 714
425 857
425 961
425 453
425 609
425 490
425 521
425 458
425 928
425 642
425 877
425 920
425 860
425 923
425 710
425 670
425 444
425 646
425 965
425 766
425 975
425 749
425 836
425 567
425 580
425 619
425 957
426 835
426 556
426 930
426 611
426 811
426 908
426 685
426 939
426 454
426 531
426 449
426 632
426 923
426 851
426 895
426 698
426 602
427 662
427 929
427 657
427 753
427 807
427 984
427 978
427 839
427 849
427 446
427 744
427 865
427 843
427 963
427 850
427 945
427 811
427 931
427 992
427 689
427 510
427 477
427 746
427 892
427 474
427 731
427 620
427 973
427 585
427 823
427 804
427 512
427 784
427 637
427 757
427 819
427 914
427 736
427 724
427 846
427 673
427 534
427 993
427 833
427 692
427 760
427 626
427 825
427 593
427 805
427 675
427 750
427 604
427 497
427 505
427 490
427 564
427 706
428 586
428 681
428 708
428 734
428 766
428 835
428 886
428 554
428 449
428 887
428 435
428 475
428 930
428 505
428 561
428 595
428 592
428 560
428 901
429 959
429 711
429 987
429 995
429 888
429 863
429 539
429 897
429 598
429 753
429 524
429 693
429 698
430 451
430 545
430 862
430 659
430 595
430 772
430 790
430 842
430 801
430 882
430 552
430 712
430 513
430 550
430 852
430 514
430 750
430 655
430 909
430 966
430 992
430 809
430 631
431 521
431 582
431 675
431 705
431 857
431 975
431 478
431 753
431 690
431 900
431 782
432 647
432 975
432 774
432 536
432 930
432 607
432 745
432 513
432 916
432 953
432 628
432 583
432 689
432 865
432 646
433 835
433 714
433 754
433 861
433 868
433 478
433 724
433 631
433 625
433 694
433 976
433 543
433 614
433 597
433 849
433 583
433 975
433 613
433 845
433 994
433 890
433 779
434 451
434 675
434 868
434 536
434 799
434 610
434 691
434 823
434 525
434 899
434 639
434 648
434 755
434 774
434 933
434 624
434 498
435 584
435 586
435 626
435 708
435 795
435 835
435 787
435 482
435 805
435 734
435 683
435 804
435 662
435 668
435 593
435 814
435 592
435 600
435 898
435 536
435 976
435 832
435 857
435 975
435 859
435 888
435 874
435 634
435 723
435 802
435 863
435 706
436 532
436 790
436 807
436 892
436 639
436 671
436 690
436 755
436 851
436 900
436 785
436 827
436 476
436 441
436 600
436 498
437 475
437 969
437 990
437 991
437 583
437 916
437 609
437 616
437 715
437 974
437 735
437 892
437 824
437 488
438 584
438 586
438 699
438 708
438 718
438 725
438 734
438 835
438 858
438 892
438 752
438 903
438 742
438 457
438 867
438 447
438 720
438 763
438 950
438 689
438 636
438 919
438 646
439 886
439 478
439 610
439 830
439 991
439 742
439 479
439 957
440 521
440 609
440 713
440 740
440 754
440 658
440 975
440 721
440 652
440 715
440 563
440 665
440 671
440 644
441 708
441 795
441 998
441 544
441 685
441 793
441 692
441 589
441 826
441 817
441 761
441 949
441 919
441 679
441 501
441 488
441 841
441 695
441 717
441 964
441 563
441 508
441 617
441 560
441 636
441 633
441 824
441 943
441 640
441 923
441 456
441 986
441 624
441 470
441 562
441 696
441 944
441 896
441 936
441 580
441 811
441 786
441 676
441 655
441 478
441 687
441 947
441 531
441 576
441 466
441 635
441 526
441 820
441 987
441 856
441 535
442 708
442 975
442 511
442 595
442 600
442 944
442 524
442 589
442 919
442 946
442 718
442 599
442 782
442 726
442 832
442 765
442 537
442 712
442 834
442 697
443 662
443 681
443 718
443 726
443 734
443 475
443 871
443 736
443 994
443 826
443 949
443 755
444 681
444 623
444 710
444 815
444 879
444 576
444 719
444 540
444 448
444 919
444 697
445 835
445 888
445 615
445 667
445 950
445 630
445 687
445 801
445 965
446 538
446 536
446 716
446 823
446 519
447 929
447 675
447 511
447 696
447 500
447 814
447 977
447 671
447 610
447 741
447 998
447 850
447 965
447 589
447 824
447 488
447 996
448 556
448 888
448 790
448 820
448 525
448 603
448 580
448 479
448 598
448 737
448 884
448 632
448 591
448 846
448 856
448 629
448 449
448 630
448 553
448 743
448 659
448 954
448 688
448 614
448 623
448 651
448 791
448 650
448 875
448 519
448 503
448 935
448 992
448 739
448 690
448 814
448 615
448 795
448 981
448 885
448 524
448 949
448 488
449 505
449 800
449 914
449 753
449 820
449 856
449 580
449 556
449 772
449 685
449 566
449 721
449 981
449 884
449 632
449 687
449 519
449 524
449 636
449 956
449 986
450 718
450 959
450 883
450 542
450 599
450 624
450 710
450 790
450 842
450 845
450 863
450 880
450 753
450 980
450 667
450 695
450 661
450 958
450 518
450 755
450 782
450 988
451 584
451 586
451 677
451 708
451 718
451 734
451 795
451 810
451 835
451 682
451 726
451 712
451 702
451 711
451 808
451 457
451 475
451 545
451 754
451 863
451 753
451 578
451 648
451 540
451 557
452 734
452 536
452 535
452 941
452 842
452 735
452 678
452 906
452 907
452 674
452 761
452 928
452 751
452 888
452 555
452 945
452 510
452 819
452 845
452 715
452 974
452 994
452 492
452 920
452 949
452 813
452 557
452 562
453 475
453 545
453 700
453 995
453 893
453 979
453 859
453 600
453 735
453 688
453 565
453 566
453 719
454 681
454 699
454 975
454 523
454 536
454 774
454 848
454 894
454 925
454 556
454 724
454 663
454 930
454 515
454 955
454 461
454 506
454 910
454 553
454 592
454 836
454 880
454 906
454 701
454 810
454 842
454 608
454 875
454 654
454 736
454 596
454 643
454 779
454 717
454 966
454 534
454 889
454 468
454 718
454 979
454 987
454 628
454 624
454 976
454 911
455 668
455 538
455 675
455 868
455 961
455 928
455 661
455 705
455 641
455 969
455 499
455 948
455 474
455 590
455 718
455 872
455 658
455 942
455 920
455 573
455 482
455 812
455 848
455 618
455 537
455 571
455 945
455 825
455 640
456 921
456 549
456 814
456 879
456 950
456 865
456 524
456 636
456 468
456 868
456 957
456 690
456 986
457 572
457 584
457 668
457 734
457 766
457 835
457 858
457 626
457 459
457 726
457 759
457 994
457 675
457 743
457 829
457 638
457 488
457 544
457 843
457 850
457 874
457 868
457 987
457 814
457 576
457 940
457 603
457 565
457 498
458 517
458 545
458 675
458 857
458 527
458 669
458 893
458 558
458 584
458 511
458 711
458 595
458 790
458 468
458 744
458 913
458 526
458 524
458 745
458 935
458 873
458 986
459 584
459 586
459 708
459 718
459 725
459 810
459 738
459 795
459 651
459 879
459 754
459 976
459 846
459 914
459 753
459 499
459 536
459 599
459 710
459 736
459 832
459 811
459 690
459 650
459 607
460 886
460 907
460 879
460 892
460 591
460 825
460 827
460 942
460 898
460 769
460 568
460 890
460 976
460 765
460 775
460 462
460 630
460 538
460 752
460 852
460 813
460 876
460 975
460 539
460 896
460 731
460 725
460 467
460 834
460 842
460 657
460 814
460 649
460 755
461 668
461 708
461 641
461 867
461 774
461 523
461 930
461 955
461 687
461 982
462 681
462 676
462 717
462 648
462 935
463 475
463 888
463 657
463 772
463 790
463 842
463 863
463 762
463 663
463 852
463 892
463 687
463 935
464 586
464 835
464 929
464 928
464 816
464 859
464 995
464 888
464 637
464 823
464 865
464 688
464 912
464 980
464 607
464 654
465 681
465 511
465 595
465 745
465 907
465 679
465 912
465 648
466 675
466 780
466 816
466 951
466 541
466 542
466 595
466 818
466 845
466 865
466 786
466 806
466 955
466 804
466 548
466 792
466 801
466 589
466 900
466 779
466 706
467 708
467 542
467 649
467 631
468 538
468 888
468 608
468 914
468 927
468 483
468 874
468 574
468 892
468 973
468 730
468 747
469 975
469 790
469 950
469 503
469 974
469 522
469 809
469 824
469 559
469 779
470 979
470 583
470 850
470 913
470 559
470 648
470 556
470 902
470 698
470 719
470 762
470 575
471 691
471 842
471 689
471 994
471 882
471 912
471 926
471 655
472 880
472 720
472 733
472 863
472 636
472 817
472 919
472 946
472 966
472 964
472 837
472 482
472 848
472 774
472 639
473 691
473 710
473 863
473 519
473 636
473 685
473 817
473 821
473 919
473 566
473 679
473 625
473 934
473 634
473 828
473 521
473 904
473 774
473 970
473 684
473 568
473 769
473 526
473 822
473 542
473 607
474 804
474 790
474 715
474 892
474 625
474 524
474 929
474 710
474 638
474 837
474 994
474 821
474 920
474 980
474 602
475 586
475 626
475 668
475 677
475 682
475 683
475 718
475 726
475 810
475 835
475 916
475 701
475 699
475 766
475 579
475 855
475 812
475 734
475 787
475 662
475 929
475 805
475 738
475 918
475 482
475 795
475 804
475 725
475 936
475 954
475 963
475 507
475 924
475 594
475 868
475 537
475 800
475 621
475 666
475 730
475 529
475 878
475 972
475 779
475 890
475 951
475 953
475 630
475 497
475 531
475 914
475 900
475 790
475 651
475 826
475 622
475 675
475 979
475 981
475 806
476 998
476 567
476 676
476 878
477 615
477 621
477 763
477 620
477 689
477 804
477 944
477 821
477 498
477 650
478 705
478 714
478 857
478 966
478 957
478 970
478 558
478 883
478 994
478 888
478 942
478 944
478 997
479 556
479 878
479 763
479 820
479 831
479 782
479 637
479 896
479 884
479 829
479 519
479 949
480 795
480 991
480 822
480 797
480 884
480 882
480 685
480 693
480 690
480 755
480 851
480 680
480 714
480 583
480 791
480 762
481 837
481 914
481 537
481 991
481 878
481 998
481 971
481 561
481 616
481 881
481 880
481 891
481 667
481 741
481 732
481 915
481 872
481 610
481 635
481 907
481 769
481 958
481 790
481 859
481 984
481 722
481 589
481 653
481 484
481 483
481 696
481 535
481 959
481 644
481 787
481 566
481 676
481 908
481 603
481 629
481 703
481 749
481 710
481 487
481 544
481 965
481 565
481 967
482 572
482 586
482 668
482 681
482 683
482 708
482 718
482 725
482 734
482 835
482 886
482 933
482 507
482 498
482 791
482 868
482 721
482 710
482 994
482 665
482 643
483 903
483 497
483 498
483 557
483 602
483 517
483 821
484 857
484 910
484 987
484 749
484 820
484 989
484 669
485 572
485 579
485 584
485 681
485 683
485 708
485 734
485 655
485 541
485 595
485 926
485 685
485 980
486 772
486 818
486 678
486 569
486 715
486 680
486 585
486 619
486 519
486 622
487 595
487 674
487 772
487 842
487 588
487 736
487 935
487 629
487 775
487 493
487 735
488 734
488 766
488 505
488 720
488 974
488 589
488 665
488 558
488 576
488 577
488 851
488 520
489 543
489 615
489 614
489 599
489 624
489 845
489 846
489 886
489 565
489 755
489 562
489 873
490 517
490 538
490 675
490 868
490 628
490 743
490 795
490 916
490 987
490 691
490 710
490 751
491 835
491 656
491 696
491 652
491 889
491 599
491 621
491 839
491 603
491 632
491 676
491 706
492 810
492 881
492 687
492 801
492 825
492 912
492 926
492 594
492 525
492 593
492 826
492 796
492 680
492 919
492 946
492 851
493 734
493 954
493 536
493 623
493 845
493 494
493 773
493 935
493 607
493 654
493 575
493 706
493 997
493 859
494 837
494 713
494 784
494 802
494 735
494 983
494 873
494 740
494 605
494 815
494 811
494 782
495 681
495 718
495 734
495 835
495 936
495 982
495 764
495 874
495 600
495 992
495 981
495 801
495 946
495 900
495 654
496 975
496 788
496 799
496 711
496 987
496 995
496 888
496 722
496 990
496 628
496 596
496 823
496 767
496 655
496 814
496 536
496 751
496 642
496 533
496 680
496 818
496 546
496 884
496 562
496 607
497 858
497 521
497 752
497 800
497 525
497 687
497 801
497 926
497 942
497 965
497 504
497 569
497 508
497 893
497 821
497 755
497 940
497 545
497 864
497 547
497 644
498 930
498 537
498 735
498 620
498 850
498 884
498 519
498 655
498 853
498 671
498 932
498 730
498 967
498 559
498 977
498 996
498 574
498 798
498 643
498 653
498 578
498 571
498 565
498 636
498 771
498 994
498 792
498 562
498 918
498 621
498 728
498 986
498 532
498 990
498 719
498 572
498 544
498 606
498 892
498 836
498 610
498 812
498 503
498 741
498 708
498 991
498 651
498 520
499 609
499 641
499 705
499 714
499 754
499 959
499 969
499 829
499 950
499 882
499 874
499 520
499 511
499 990
499 600
499 606
499 877
499 745
499 644
499 706
500 696
500 914
500 614
500 749
500 867
500 595
500 803
500 863
500 548
500 789
500 526
501 835
501 975
501 536
501 910
501 865
501 769
501 827
501 942
501 636
501 841
501 719
502 538
502 675
502 700
502 713
502 767
502 975
502 726
502 810
502 634
502 527
502 580
502 796
502 757
502 623
502 772
502 689
502 892
502 550
502 636
502 685
502 851
502 520
503 929
503 857
503 711
503 558
503 842
503 927
503 546
503 962
503 548
503 891
503 733
503 980
503 547
503 589
503 880
503 876
503 894
503 712
503 693
503 821
503 574
503 648
503 520
504 734
504 766
504 975
504 930
504 667
504 881
504 599
504 600
504 842
504 811
504 676
504 765
504 829
504 882
504 926
504 901
505 677
505 523
505 536
505 902
505 930
505 979
505 848
505 923
505 864
505 572
505 996
505 763
505 900
505 626
505 541
505 593
505 680
505 801
506 536
506 556
506 848
506 930
506 955
506 574
506 633
506 792
506 867
506 599
506 927
506 960
506 711
506 859
506 749
506 600
506 710
506 884
506 851
507 586
507 615
507 541
507 600
507 601
507 624
507 710
507 751
507 763
507 629
508 766
508 642
508 857
508 790
508 973
508 978
508 522
508 986
509 572
509 584
509 609
509 723
509 992
509 846
509 676
509 801
509 954
509 522
509 919
509 946
509 851
510 955
510 872
510 811
510 978
510 850
510 940
510 601
510 685
510 621
510 778
510 687
510 733
510 983
510 699
510 946
510 964
511 725
511 837
511 754
511 857
511 921
511 975
511 972
511 770
511 959
511 714
511 903
511 767
511 582
511 740
511 521
511 713
511 784
511 705
511 951
511 642
511 545
511 962
511 932
511 712
511 540
511 866
511 691
511 974
511 912
511 735
511 738
511 949
511 860
511 858
511 775
511 859
511 728
511 872
511 734
511 862
511 763
511 814
511 576
511 992
511 817
511 920
511 900
512 718
512 734
512 788
512 711
512 596
512 587
512 768
512 781
512 987
512 657
512 842
512 840
512 865
512 591
512 762
513 835
513 961
513 802
513 850
513 648
513 779
514 536
514 907
514 801
514 589
514 644
514 883
514 534
514 838
514 925
514 583
514 782
514 719
514 607
515 718
515 918
515 876
515 536
515 774
515 766
515 776
515 619
515 617
515 523
515 930
515 862
515 696
515 865
515 899
515 958
515 690
515 520
515 806
516 677
516 675
516 848
516 861
516 711
516 987
516 862
516 990
516 995
516 888
516 587
516 605
516 882
516 695
516 900
516 602
516 607
517 642
517 538
517 582
517 700
517 705
517 641
517 983
517 925
517 697
517 682
517 724
517 657
517 535
517 775
517 609
517 675
517 713
517 961
517 975
517 987
517 772
517 842
517 994
517 827
517 912
518 699
518 936
518 675
518 656
518 597
518 795
518 683
518 945
518 747
518 813
519 718
519 740
519 790
519 815
519 822
519 863
519 879
519 825
519 665
519 633
519 708
519 656
519 801
519 948
519 719
519 589
519 946
519 706
520 894
520 987
520 583
520 685
520 646
520 551
520 864
520 956
520 952
520 904
520 879
520 951
520 564
520 957
520 836
520 856
520 939
520 763
520 644
520 762
521 868
521 780
521 867
521 857
521 692
521 812
521 882
521 958
521 881
521 873
521 642
521 754
521 814
521 818
521 550
521 688
521 899
522 572
522 586
522 628
522 634
522 950
522 585
522 865
522 829
522 743
522 948
522 724
522 803
522 745
522 537
522 789
522 650
522 605
522 719
522 828
522 757
522 874
522 625
522 942
522 825
522 533
522 809
522 524
522 563
522 527
523 725
523 886
523 857
523 975
523 774
523 565
523 839
523 851
523 920
523 543
523 701
523 761
523 885
523 536
523 663
523 628
523 638
523 710
523 735
523 994
524 673
524 633
524 692
524 773
524 679
524 693
524 704
524 953
524 870
524 589
524 817
524 625
524 964
524 920
524 665
524 932
524 853
524 767
524 570
524 838
524 997
524 950
524 675
524 588
524 819
524 987
524 582
524 862
524 622
524 821
524 919
524 967
525 677
525 675
525 914
525 840
525 567
525 753
525 811
525 737
525 632
525 630
525 591
525 884
525 846
525 719
525 941
525 552
525 758
525 892
525 949
525 794
525 702
525 627
525 613
525 572
525 760
525 603
525 792
525 655
526 681
526 536
526 688
526 981
526 881
526 617
526 668
526 631
526 533
526 809
526 935
526 806
526 719
527 868
527 689
527 920
527 690
527 745
527 702
527 879
527 863
527 602
528 718
528 767
528 930
528 537
528 556
528 818
528 927
528 689
528 992
528 606
528 793
528 821
528 919
528 650
529 549
529 720
529 823
529 926
529 634
529 919
529 755
530 909
530 535
530 757
530 776
530 800
530 637
530 699
530 874
530 582
530 581
530 796
530 619
530 768
531 652
531 535
531 796
531 748
531 543
531 621
531 539
531 661
531 865
531 943
531 988
531 754
531 853
531 554
531 696
531 618
531 588
531 710
531 833
531 899
531 821
531 851
532 682
532 810
532 816
532 868
532 652
532 656
532 594
532 535
532 543
532 696
532 621
532 757
532 842
532 689
532 829
533 628
533 751
533 790
533 825
533 646
533 619
533 857
533 777
533 853
533 595
533 859
533 799
533 980
534 681
534 734
534 621
534 832
534 604
534 867
534 886
534 589
534 665
534 824
534 919
534 901
535 584
535 740
535 652
535 796
535 621
535 618
535 954
535 566
535 936
535 747
535 744
535 938
535 592
535 771
535 809
535 923
536 936
536 894
536 930
536 925
536 556
536 939
536 724
536 955
536 774
536 848
536 902
536 649
536 643
536 763
536 699
536 612
536 686
536 632
536 996
536 574
536 730
536 543
536 751
536 979
536 915
536 965
537 718
537 930
537 987
537 971
537 881
537 732
537 991
537 749
537 635
537 610
537 742
537 915
537 951
537 826
537 593
537 980
537 737
537 942
537 754
537 979
537 726
537 667
537 614
537 879
537 801
537 895
537 651
538 582
538 921
538 647
538 642
538 759
538 867
538 770
538 972
538 661
538 746
538 542
538 708
538 913
538 669
538 945
538 994
538 609
538 675
538 784
538 975
538 781
538 624
538 733
538 950
538 673
538 809
538 650
539 754
539 975
539 656
539 796
539 946
539 655
539 931
539 606
539 554
539 696
539 748
539 621
539 815
539 654
540 675
540 975
540 749
540 821
540 654
541 542
541 691
541 558
541 866
541 657
541 828
541 760
541 595
541 790
541 674
541 938
541 729
541 763
541 772
541 552
541 630
541 858
541 715
541 622
541 574
541 673
541 671
541 734
541 933
541 599
541 600
541 601
541 613
541 710
541 751
541 815
541 842
541 576
541 912
541 562
542 748
542 866
542 686
542 547
542 983
542 638
542 680
542 593
542 588
542 733
542 710
542 945
542 941
542 942
542 700
542 858
542 794
542 860
542 672
542 684
542 838
542 943
542 947
542 599
542 600
542 601
542 624
542 790
542 815
542 965
542 745
542 957
543 586
543 656
543 748
543 909
543 889
543 979
543 573
543 988
543 772
543 696
543 608
543 811
543 823
543 912
543 563
543 562
543 997
544 807
544 731
544 865
544 973
544 746
544 963
544 672
544 885
544 585
544 689
544 843
544 892
544 994
544 957
544 607
545 681
545 959
545 969
545 943
545 756
545 784
545 560
545 923
545 671
545 779
546 868
546 876
546 711
546 845
546 714
546 804
546 842
546 814
546 965
546 809
546 602
547 668
547 857
547 656
547 751
547 552
547 763
547 634
547 549
547 570
547 597
547 618
547 662
547 600
547 815
547 842
547 863
547 735
548 586
548 668
548 784
548 790
548 692
548 733
548 898
548 799
548 630
548 912
549 682
549 795
549 642
549 711
549 652
549 914
549 915
549 630
549 770
549 862
549 903
549 608
549 600
549 601
549 623
549 691
549 733
549 815
549 620
549 811
549 646
549 980
550 681
550 846
550 981
550 733
550 939
550 591
550 632
550 685
551 804
551 975
551 883
551 995
551 723
551 815
551 833
551 945
551 923
551 946
551 574
551 639
551 980
552 835
552 635
552 624
552 623
552 674
552 691
552 763
552 944
553 766
553 862
553 915
553 733
553 646
553 892
553 976
553 684
553 847
553 636
553 821
553 919
553 946
553 949
553 997
554 722
554 659
554 604
554 588
554 621
554 600
554 842
554 689
554 984
554 994
554 946
554 762
554 602
554 654
555 981
555 884
555 685
555 851
555 779
555 693
555 557
556 708
556 857
556 876
556 724
556 979
556 848
556 939
556 883
556 925
556 649
556 835
556 892
556 850
556 859
556 823
556 948
556 712
556 739
556 955
556 646
557 886
557 674
557 842
557 992
557 640
557 873
557 680
557 885
557 771
557 639
557 811
557 777
557 791
557 912
557 592
557 562
557 602
557 607
557 997
558 681
558 635
558 807
558 587
558 874
558 763
558 842
558 869
558 927
558 833
558 687
559 832
559 850
559 853
559 612
559 932
559 697
559 851
559 747
559 668
559 958
559 963
559 988
559 756
559 839
559 686
559 715
559 861
559 589
559 721
559 649
559 655
559 745
559 806
560 584
560 857
560 815
560 927
560 672
560 966
560 920
560 844
560 615
560 771
560 638
560 710
560 663
560 872
560 990
560 946
560 574
560 671
560 996
561 635
561 735
561 636
561 720
561 752
561 739
561 610
561 878
562 734
562 714
562 663
562 588
562 775
562 982
562 727
562 602
562 750
562 573
562 988
562 658
562 603
562 966
562 996
562 746
562 796
562 918
562 885
562 800
562 568
562 773
562 607
562 706
563 579
563 662
563 859
563 888
563 872
563 732
563 829
563 946
563 717
563 624
563 836
563 910
563 646
563 934
563 997
563 817
563 821
563 919
564 642
564 774
564 781
564 589
564 709
564 853
564 654
564 854
564 711
564 597
564 594
564 876
564 965
564 674
564 830
564 641
564 701
564 721
564 706
564 997
565 668
565 696
565 600
565 674
565 665
565 870
565 667
565 738
565 746
565 730
565 853
566 703
566 858
566 749
566 595
566 974
566 598
566 660
566 854
566 589
566 636
566 817
566 949
566 574
566 643
566 690
567 661
567 868
567 975
567 994
567 662
567 876
567 935
567 629
567 892
567 992
567 632
568 662
568 711
568 862
568 732
568 573
568 866
568 615
568 849
568 585
568 809
568 747
568 798
568 872
568 801
568 825
568 882
568 926
568 851
569 641
569 995
569 595
569 763
569 956
569 931
569 820
569 833
569 589
569 622
570 835
570 675
570 630
570 885
570 589
570 923
570 649
570 911
570 706
571 718
571 726
571 714
571 995
571 872
571 625
571 811
571 829
571 890
571 926
571 982
571 985
571 695
571 670
572 766
572 805
572 708
572 747
572 577
572 586
572 626
572 681
572 725
572 726
572 835
572 936
572 749
572 992
573 754
573 893
573 874
573 710
573 811
573 865
573 892
573 676
573 890
573 896
573 779
573 602
574 747
574 774
574 594
574 678
574 881
574 655
574 690
574 851
575 700
575 595
575 631
575 831
575 654
575 858
575 914
575 596
575 806
575 991
575 754
575 952
575 706
576 582
576 754
576 979
576 616
576 834
576 783
576 715
576 974
576 603
576 964
576 655
576 967
577 902
577 599
577 892
577 806
577 779
577 706
577 997
578 642
578 656
578 879
578 927
578 892
578 801
578 646
578 847
578 935
578 813
578 901
579 804
579 886
579 725
579 916
579 699
579 805
579 936
579 708
579 726
579 580
579 672
579 910
579 754
579 970
579 692
579 662
579 668
579 681
579 701
579 718
579 734
579 720
579 863
579 807
579 607
580 936
580 675
580 987
580 878
580 842
580 974
580 792
580 894
580 620
580 929
580 603
580 980
580 631
581 886
581 921
581 710
581 678
581 620
581 673
581 901
582 857
582 666
582 804
582 740
582 867
582 921
582 975
582 615
583 610
583 927
583 877
583 755
583 782
583 884
583 895
584 837
584 795
584 677
584 766
584 804
584 718
584 714
584 761
584 962
584 698
584 731
584 685
584 619
584 852
584 906
584 604
584 871
584 890
584 662
584 668
584 681
584 726
584 734
584 835
584 859
584 888
584 696
584 591
584 926
585 718
585 835
585 661
585 740
585 939
585 955
585 720
585 802
585 620
585 945
585 731
585 724
585 630
585 777
585 598
585 867
585 683
585 902
585 941
585 930
585 767
585 901
585 676
585 757
585 865
585 992
585 778
585 672
585 946
585 631
586 918
586 837
586 699
586 725
586 855
586 929
586 682
586 681
586 812
586 738
586 954
586 916
586 683
586 668
586 726
586 701
586 626
586 677
586 936
586 708
586 804
586 835
586 847
586 844
586 808
586 689
586 910
586 714
586 640
586 756
586 934
586 789
586 941
586 622
586 637
586 851
586 961
586 625
586 838
586 680
586 770
586 757
586 755
586 870
586 940
586 718
586 766
586 795
586 805
586 886
586 995
586 814
586 992
586 589
586 803
587 668
587 714
587 885
587 887
587 888
587 689
587 811
587 892
587 992
587 994
587 591
587 801
587 589
588 675
588 736
588 815
588 863
588 828
588 790
588 950
588 645
588 731
588 595
588 599
588 600
588 733
588 751
588 842
588 924
589 742
589 827
589 633
589 964
589 933
589 617
589 679
589 640
589 923
589 764
589 793
589 685
589 625
589 895
589 880
589 727
589 686
589 988
589 595
589 815
589 726
589 787
589 961
589 809
589 655
589 956
589 942
589 945
589 841
589 946
590 799
590 907
590 710
590 763
590 842
590 753
590 820
590 591
590 603
590 884
590 817
591 910
591 707
591 629
591 603
591 630
591 927
591 934
591 916
591 923
591 788
591 811
591 598
591 619
591 644
591 719
592 857
592 930
592 616
592 815
592 845
592 927
592 852
592 749
592 855
592 666
592 967
592 787
592 853
592 882
593 705
593 783
593 875
593 671
593 600
593 716
593 790
593 845
593 827
593 967
593 905
594 708
594 835
594 817
594 814
594 675
594 857
594 601
594 815
594 842
594 965
594 764
595 835
595 930
595 601
595 790
595 828
595 624
595 922
595 751
595 863
595 710
595 842
595 760
595 634
595 600
595 950
595 638
595 733
595 822
595 814
595 691
595 716
595 772
595 882
595 769
595 739
595 620
595 813
595 960
595 890
595 928
595 886
595 721
595 984
595 954
595 916
595 689
595 676
595 795
595 627
595 712
595 811
595 913
595 817
596 711
596 987
596 862
596 995
596 888
596 842
596 745
597 626
597 835
597 863
597 974
597 660
597 669
597 697
597 960
597 994
597 775
598 981
598 629
598 790
598 980
598 756
598 603
598 884
599 610
599 686
599 790
599 863
599 822
599 989
599 704
599 852
599 769
599 653
599 734
599 838
599 873
599 763
599 818
599 829
599 745
600 760
600 729
600 694
600 720
600 723
600 897
600 815
600 613
600 866
600 908
600 802
600 772
600 601
600 967
600 778
600 650
600 892
600 861
600 970
600 954
600 971
600 889
600 742
600 961
600 671
600 627
600 674
600 710
600 790
600 950
600 620
600 821
600 875
600 935
601 812
601 861
601 800
601 874
601 802
601 720
601 716
601 666
601 619
601 778
601 806
601 739
601 991
601 962
601 753
601 794
601 788
601 871
601 670
601 627
601 885
601 638
601 790
601 842
601 863
601 950
601 735
601 882
602 642
602 711
602 909
602 729
602 820
602 779
602 808
602 803
602 604
602 988
602 607
602 650
602 796
602 970
602 686
602 617
602 907
602 766
602 997
602 631
603 888
603 720
603 833
603 992
603 820
603 630
603 856
603 737
603 632
603 605
603 613
603 915
603 791
603 947
603 703
603 651
603 728
603 654
603 953
603 627
603 980
603 625
603 862
603 879
603 705
603 733
603 664
603 884
603 801
603 926
603 965
603 985
604 823
604 892
604 976
604 841
604 607
605 955
605 872
605 720
605 790
605 631
605 884
605 630
605 632
605 687
605 793
606 995
606 809
606 642
606 988
606 646
607 835
607 647
607 910
607 994
607 981
607 629
607 965
607 665
607 768
607 803
607 873
607 779
607 727
607 739
607 750
607 924
607 960
607 795
607 958
607 836
607 681
607 732
607 848
607 925
607 852
607 933
607 857
607 922
607 901
607 829
608 791
608 776
608 909
608 696
608 941
608 800
608 707
608 761
608 671
608 668
608 733
608 616
608 710
608 828
608 689
608 629
609 675
609 705
609 661
609 770
609 928
609 902
609 925
609 957
609 668
609 943
609 611
609 738
609 641
609 740
609 754
609 857
609 961
609 711
609 623
609 765
609 685
610 835
610 921
610 618
610 914
610 881
610 874
610 915
610 784
610 642
610 772
610 950
610 652
610 842
610 844
610 616
610 749
610 624
610 790
610 832
610 964
610 803
611 701
611 726
611 857
611 987
611 995
611 840
611 618
611 748
611 691
611 828
611 963
612 835
612 857
612 965
612 705
612 829
612 827
612 769
612 948
612 690
612 851
612 996
612 779
612 706
612 986
613 995
613 832
613 720
613 920
613 884
613 787
613 632
613 963
613 710
613 733
613 790
613 842
613 945
613 636
613 817
614 914
614 732
614 880
614 971
614 741
614 907
614 940
614 642
614 813
614 856
614 892
614 733
614 894
614 765
614 881
614 749
614 897
614 945
614 670
614 706
615 668
615 628
615 656
615 794
615 796
615 652
615 667
615 631
615 745
615 618
615 757
615 978
615 685
615 996
616 971
616 720
616 759
616 887
616 853
616 874
616 749
616 814
617 705
617 796
617 815
617 986
617 636
617 821
617 946
618 718
618 707
618 637
618 909
618 800
618 757
618 696
618 904
618 930
618 863
618 937
618 632
619 734
619 723
619 736
619 620
619 811
619 911
619 623
619 805
619 873
619 743
619 820
619 882
619 985
619 622
619 755
619 646
620 662
620 886
620 713
620 868
620 807
620 978
620 850
620 839
620 984
620 786
620 737
620 918
620 784
620 826
620 769
620 656
620 758
620 995
620 689
620 823
620 994
620 801
620 809
620 919
620 935
621 862
621 888
621 776
621 659
621 748
621 637
621 800
621 941
621 794
621 796
621 996
621 642
621 635
621 965
621 885
621 740
621 834
621 817
621 742
621 832
621 773
621 967
622 969
622 659
622 715
622 731
622 984
622 636
622 873
622 815
622 955
622 740
622 628
622 834
622 631
622 916
622 960
622 753
622 817
623 854
623 869
623 842
623 733
623 674
623 720
623 834
623 827
623 972
623 799
623 738
623 747
623 817
623 971
623 711
623 779
623 962
623 870
623 988
623 675
623 702
623 716
623 763
623 649
623 819
624 788
624 832
624 834
624 815
624 908
624 763
624 723
624 922
624 869
624 802
624 854
624 657
624 772
624 983
624 938
624 674
624 764
624 841
624 728
624 921
624 821
624 903
624 857
624 924
624 744
624 880
624 708
624 721
624 999
624 633
624 629
624 956
624 932
624 790
624 830
624 842
624 863
624 689
624 817
625 626
625 971
625 854
625 825
625 925
625 728
625 860
625 900
625 636
625 685
625 919
626 708
626 632
626 847
626 718
626 795
626 886
626 825
627 754
627 689
627 809
627 762
628 781
628 711
628 987
628 859
628 995
628 761
628 664
628 982
628 689
628 820
629 857
629 959
629 874
629 863
629 884
629 760
629 790
629 879
629 756
629 797
629 975
629 689
629 798
630 981
630 884
630 646
630 802
630 863
630 915
630 778
630 730
630 783
630 891
630 906
630 955
630 918
631 954
631 774
631 979
631 796
631 696
631 915
631 790
631 821
631 920
631 851
631 654
631 683
631 642
631 805
631 711
631 777
632 700
632 754
632 910
632 823
632 981
632 884
632 846
632 758
632 953
632 990
632 947
632 847
632 964
632 938
633 726
633 995
633 741
633 869
633 804
633 858
633 636
633 685
633 946
633 702
634 668
634 804
634 874
634 742
634 652
634 638
634 657
634 723
634 763
634 790
634 845
634 863
634 978
634 986
635 914
635 667
635 866
635 875
635 873
635 880
635 881
635 749
636 763
636 879
636 689
636 877
636 704
636 920
636 923
636 665
636 841
636 964
636 966
636 824
636 953
636 761
636 919
636 685
636 755
636 992
636 961
636 751
636 770
636 683
636 660
636 844
636 937
636 720
636 782
636 662
636 744
636 921
636 866
636 907
636 821
636 949
637 718
637 652
637 796
637 794
637 696
637 847
638 790
638 729
638 720
638 833
638 737
638 808
638 700
638 799
638 685
638 815
638 863
638 879
638 649
638 670
639 815
639 892
639 978
639 771
639 730
639 853
639 935
639 697
639 671
639 745
639 819
639 967
639 838
639 798
639 648
639 768
639 955
639 800
639 931
639 777
639 685
639 707
639 966
639 765
639 783
639 914
639 656
639 679
639 792
639 907
639 811
639 705
639 904
639 775
640 734
640 696
640 707
640 763
640 956
641 972
641 752
641 647
641 642
641 816
641 741
641 855
641 885
641 737
641 945
641 690
641 675
641 713
641 884
641 882
641 919
642 921
642 661
642 961
642 959
642 770
642 752
642 675
642 733
642 981
642 778
642 827
643 767
643 710
643 763
643 775
643 942
643 963
643 787
643 679
643 967
644 914
644 815
644 875
644 952
644 814
644 673
644 871
645 681
645 969
645 711
645 755
645 978
645 739
645 799
645 919
645 946
646 668
646 696
646 878
646 863
646 765
646 827
646 965
646 756
646 698
646 762
646 684
646 651
646 683
646 928
646 673
646 732
646 776
646 828
646 919
646 846
646 812
646 745
646 656
646 772
646 792
646 662
647 681
647 791
647 831
647 851
647 713
647 857
647 656
647 863
647 892
647 912
648 835
648 910
648 796
648 971
648 863
648 817
648 949
648 989
648 900
648 895
648 996
648 655
648 707
648 720
648 850
648 918
648 919
648 847
648 967
649 876
649 741
649 790
649 926
649 962
650 713
650 780
650 854
650 811
650 682
650 654
650 980
651 713
651 818
651 746
651 753
651 801
651 926
651 752
651 997
652 748
652 776
652 941
652 909
652 766
652 760
652 961
652 897
652 685
652 707
652 757
652 880
652 926
652 821
652 690
652 762
652 670
653 711
653 815
653 793
653 657
653 842
653 679
653 851
653 935
653 967
653 901
654 901
654 831
654 997
654 934
654 664
654 942
654 837
654 763
654 832
654 943
654 689
654 857
654 945
654 733
654 695
654 698
654 953
654 696
654 825
654 714
654 835
654 699
655 930
655 736
655 944
655 967
655 924
655 744
655 880
655 739
655 727
655 842
655 733
655 851
655 935
656 951
656 757
656 707
656 748
656 754
656 728
656 735
656 663
656 685
656 800
656 807
656 827
656 717
657 857
657 983
657 830
657 814
657 720
657 832
657 904
657 747
657 844
657 734
657 674
657 716
657 735
657 817
658 868
658 979
658 874
658 927
658 753
658 981
658 687
658 809
658 946
658 698
658 706
659 888
659 796
659 757
659 821
659 696
659 723
659 978
659 958
659 685
660 784
660 914
660 791
660 833
660 993
660 773
660 669
661 703
661 669
661 675
661 975
661 987
661 820
661 924
662 855
662 936
662 918
662 916
662 775
662 707
662 694
662 668
662 734
662 835
662 886
662 713
662 903
662 807
662 946
663 848
663 982
663 993
663 694
663 930
663 979
663 721
663 736
663 676
663 829
663 912
664 699
664 805
664 700
664 676
664 844
664 793
664 851
664 706
665 795
665 710
665 790
665 992
665 692
665 888
665 859
665 760
665 734
665 684
665 841
666 708
666 805
666 700
666 955
666 742
666 950
666 744
666 806
666 698
667 668
667 708
667 880
667 914
667 971
667 690
667 969
667 710
667 803
667 874
667 686
667 850
667 676
667 919
668 734
668 810
668 683
668 805
668 701
668 835
668 682
668 918
668 795
668 725
668 812
668 726
668 703
668 837
668 915
668 745
668 782
668 799
668 732
668 735
668 977
668 947
668 979
668 817
668 838
668 681
668 718
668 886
668 729
668 919
668 698
668 803
669 887
669 757
669 733
669 950
669 809
669 946
669 990
669 725
669 741
669 924
669 690
670 718
670 921
670 955
670 860
670 691
670 845
670 789
670 671
670 901
670 817
670 947
670 684
670 706
671 848
671 892
671 675
671 792
671 764
671 852
671 690
671 851
671 967
671 996
672 795
672 705
672 930
672 796
672 753
672 899
672 919
672 967
673 708
673 950
673 906
673 722
673 846
673 744
673 698
673 926
673 985
673 730
674 795
674 799
674 772
674 832
674 720
674 751
674 822
674 959
674 683
674 972
674 753
674 724
674 954
674 850
674 885
674 790
674 985
674 946
675 835
675 867
675 759
675 857
675 921
675 969
675 713
675 705
675 928
675 714
675 861
675 868
675 767
675 791
675 972
675 770
675 784
675 727
675 803
675 886
675 761
675 800
675 880
675 884
675 895
675 686
675 889
675 863
675 771
675 960
675 999
675 753
675 754
675 741
675 723
675 762
676 887
676 863
676 985
676 785
676 765
676 885
676 882
676 906
676 898
676 747
676 905
676 880
676 740
676 992
676 970
676 697
676 696
676 799
676 881
676 814
676 687
676 688
676 919
676 901
677 686
677 683
677 718
677 766
677 835
677 886
677 857
677 689
677 994
677 745
677 847
678 715
678 831
678 942
678 965
678 851
679 863
679 950
679 840
679 821
679 919
680 718
680 783
680 748
680 731
680 710
680 763
681 812
681 954
681 804
681 708
681 837
681 699
681 738
681 726
681 718
681 703
681 916
681 683
681 918
681 744
681 827
681 702
681 784
681 850
681 926
681 783
681 962
681 938
681 682
681 713
681 754
681 751
681 772
681 919
682 835
682 936
682 706
682 864
682 708
682 734
682 766
682 816
682 749
682 710
682 829
683 804
683 855
683 738
683 858
683 949
683 903
683 943
683 909
683 795
683 805
683 810
683 835
683 930
683 880
683 710
683 821
684 975
684 859
684 899
684 826
684 949
684 719
685 787
685 966
685 821
685 933
685 949
685 844
685 979
685 916
685 951
685 839
685 713
685 891
685 716
685 919
685 935
686 858
686 788
686 711
686 914
686 808
686 951
686 741
686 974
686 716
686 790
686 818
686 879
686 735
686 689
686 758
687 868
687 894
687 942
687 728
687 985
687 926
687 898
687 756
687 819
687 746
688 894
688 995
688 926
688 985
688 912
688 983
688 901
688 848
688 810
688 873
688 909
688 882
688 982
688 967
689 961
689 823
689 973
689 865
689 994
689 940
689 931
689 992
689 850
689 731
689 744
689 978
689 832
689 902
689 722
689 757
689 694
689 751
689 726
689 959
689 939
689 999
689 951
689 753
689 949
690 768
690 853
690 851
690 838
690 911
690 747
690 871
690 812
690 963
690 908
690 939
690 997
690 885
690 935
690 803
691 710
691 822
691 736
691 842
691 768
691 737
691 934
691 873
691 807
691 763
691 950
691 755
692 954
692 987
692 891
692 929
692 696
692 846
692 997
693 735
693 885
693 755
693 743
693 919
693 768
693 900
694 835
694 888
694 700
694 904
694 753
694 723
694 842
695 705
695 763
695 863
695 885
695 946
695 704
695 871
695 878
695 758
695 810
695 955
695 798
695 805
695 821
695 949
696 718
696 810
696 903
696 969
696 707
696 794
696 889
696 796
696 782
696 809
696 774
696 927
696 984
696 779
697 833
697 978
697 786
697 882
697 949
697 745
697 755
697 813
697 873
698 843
698 947
698 827
698 727
698 836
698 923
698 926
698 965
698 807
698 809
698 980
699 718
699 734
699 835
699 790
699 846
700 725
700 740
700 972
700 903
700 857
700 706
700 993
700 771
700 714
700 710
701 929
701 810
701 918
701 787
701 804
701 877
701 712
701 960
701 747
701 718
701 795
701 765
701 901
702 865
702 935
702 931
703 837
703 726
703 738
703 886
703 999
703 734
703 795
703 835
703 936
703 815
703 974
703 843
703 758
704 766
704 740
704 715
704 827
704 944
704 866
705 845
705 913
705 878
705 713
705 961
705 975
705 748
705 822
705 927
705 978
705 942
705 919
706 725
706 979
706 715
706 882
706 783
706 831
706 937
706 861
706 772
706 871
706 791
706 848
706 777
706 840
706 902
706 870
706 961
706 708
706 830
706 780
706 789
706 992
706 714
706 872
707 848
707 763
707 730
707 989
707 914
707 755
707 957
708 718
708 858
708 837
708 812
708 954
708 906
708 908
708 970
708 849
708 835
708 987
709 915
709 865
709 994
709 890
709 965
709 817
710 878
710 751
710 845
710 763
710 834
710 983
710 822
710 716
710 938
710 854
710 830
710 814
710 922
710 790
710 879
710 897
710 933
710 753
710 937
710 855
710 870
710 986
710 910
710 864
710 915
710 865
710 794
710 863
710 843
710 942
710 985
711 799
711 721
711 781
711 990
711 910
711 862
711 788
711 871
711 999
711 987
711 860
711 888
711 952
711 867
711 879
711 761
711 934
711 972
711 945
711 859
711 995
711 971
711 809
711 980
712 805
712 715
713 972
713 770
713 784
713 903
713 928
713 951
713 877
713 840
713 832
713 721
713 890
713 795
713 731
713 775
713 873
713 975
713 971
713 881
713 736
713 978
714 972
714 759
714 740
714 867
714 921
714 835
714 818
714 962
714 982
714 829
714 782
714 731
714 880
714 833
714 865
714 755
714 967
715 789
715 836
715 840
715 797
715 737
715 857
715 799
715 933
715 760
715 813
715 968
715 914
715 982
715 974
715 844
715 826
716 881
716 733
716 772
716 756
716 738
716 820
716 789
716 884
717 734
717 766
717 965
717 813
717 991
717 821
717 997
718 726
718 936
718 787
718 810
718 812
718 954
718 837
718 804
718 929
718 795
718 886
718 725
718 766
718 855
718 946
718 832
718 900
718 820
718 949
718 963
718 909
718 776
718 849
718 942
718 989
718 858
718 749
718 891
719 723
719 753
719 992
719 994
719 952
719 981
719 733
719 835
719 789
719 869
719 960
719 999
720 857
720 969
720 729
720 983
720 950
720 763
720 822
720 854
720 970
720 723
720 892
720 885
720 985
721 780
721 899
721 987
721 859
721 862
721 995
721 888
721 845
722 740
722 799
722 860
722 902
722 794
722 987
722 862
722 888
722 973
722 882
723 754
723 888
723 991
723 938
723 897
723 733
723 881
723 750
723 924
723 874
723 870
723 899
723 843
723 730
723 981
723 842
723 885
723 806
724 740
724 857
724 921
724 930
724 862
724 892
724 945
724 899
724 756
725 738
725 787
725 804
725 855
725 858
725 826
725 761
725 995
725 964
725 889
725 734
725 835
725 886
725 857
725 975
725 757
725 872
725 865
725 882
725 920
726 766
726 916
726 855
726 904
726 875
726 841
726 853
726 755
726 772
726 798
726 810
726 857
726 880
726 818
726 832
726 927
727 975
727 748
727 749
727 815
727 809
727 901
728 740
728 754
728 763
728 807
728 801
728 926
728 967
729 886
729 880
729 881
729 893
729 992
729 751
729 763
729 790
729 863
729 801
729 900
730 751
730 790
730 800
730 755
730 935
731 754
731 753
731 811
731 823
731 865
731 892
732 858
732 914
732 880
732 846
732 749
733 822
733 818
733 736
733 937
733 840
733 903
733 936
733 857
733 933
733 798
733 883
733 948
733 994
733 910
733 953
733 763
733 772
733 790
733 845
733 863
733 735
733 785
733 817
733 997
734 766
734 738
734 918
734 837
734 936
734 835
734 929
734 812
734 810
734 787
734 804
734 890
734 970
734 875
734 988
734 860
734 845
734 994
734 774
734 830
734 905
734 901
734 745
734 792
734 899
734 832
734 939
734 857
734 902
734 949
734 900
735 795
735 867
735 961
735 796
735 800
735 974
735 797
735 833
735 896
735 861
735 825
735 982
735 874
735 899
735 937
735 905
735 786
735 809
735 768
736 761
736 750
736 772
736 842
736 823
736 801
737 867
737 887
737 860
737 880
737 983
737 884
737 996
737 779
738 876
738 816
738 900
738 930
738 766
738 886
738 763
738 815
738 842
738 922
738 994
738 920
738 967
739 961
739 941
739 757
739 983
739 803
740 959
740 754
740 861
740 961
740 770
740 928
740 867
740 965
740 935
740 850
740 893
740 993
740 860
740 856
740 780
740 784
740 975
740 847
740 901
741 788
741 987
741 742
741 874
741 915
741 979
741 984
741 777
741 880
741 749
741 790
742 998
742 914
742 951
742 788
742 874
742 878
742 983
742 884
742 801
742 762
743 790
743 809
743 817
744 766
744 763
744 753
744 865
744 785
745 766
745 825
745 970
745 887
745 920
745 806
745 907
745 826
745 949
745 847
745 851
746 955
746 874
746 772
746 760
746 994
746 801
746 895
747 835
747 842
747 950
747 994
747 882
747 767
747 860
747 877
747 827
747 996
747 980
748 941
748 800
748 776
748 961
748 774
748 757
748 993
749 754
749 914
749 880
749 881
749 991
749 872
749 915
749 874
749 998
749 771
749 962
749 790
749 852
749 821
750 763
750 994
750 946
750 943
751 939
751 863
751 822
751 832
751 983
751 763
751 771
751 947
751 796
751 961
751 970
751 837
751 883
751 815
751 842
751 950
751 996
752 929
752 977
752 815
752 975
752 796
752 974
752 753
753 759
753 975
753 915
753 931
753 865
753 978
753 839
753 984
753 963
753 992
753 945
753 758
753 854
753 927
753 922
753 763
753 846
753 781
753 767
753 953
753 923
753 892
753 994
753 841
753 901
753 997
754 835
754 954
754 767
754 759
754 961
754 921
754 791
754 972
754 851
754 898
754 821
754 864
754 809
754 827
754 879
754 947
754 857
754 867
754 959
754 978
754 992
754 762
755 771
755 957
755 838
755 900
755 756
755 867
755 781
755 952
755 984
755 898
755 939
755 851
756 994
756 799
757 951
757 870
757 902
757 949
757 818
757 982
757 759
757 824
757 782
758 884
758 801
758 942
759 795
759 780
759 857
759 868
759 930
759 814
759 892
759 792
759 926
759 806
760 936
760 784
760 914
760 790
760 826
761 998
761 879
761 817
762 867
762 987
762 796
762 931
762 952
762 988
762 898
762 763
763 983
763 830
763 938
763 772
763 814
763 952
763 984
763 787
763 926
763 790
763 802
763 818
763 842
763 817
764 835
764 881
764 884
764 985
764 919
764 946
765 878
765 772
765 927
765 823
765 944
765 769
765 906
765 813
765 783
765 930
765 910
765 847
765 809
765 806
766 929
766 795
766 835
766 855
766 858
766 812
766 817
766 829
766 836
766 977
766 987
766 808
766 938
766 936
766 842
766 940
766 980
767 810
767 844
767 925
767 800
767 975
767 930
767 914
767 772
767 950
767 927
767 981
767 782
768 795
768 998
768 974
768 923
768 847
768 782
768 997
769 810
769 835
769 979
769 823
769 975
769 801
769 882
769 821
770 886
770 784
770 857
770 975
770 844
771 861
771 894
772 887
772 863
772 842
772 956
772 848
772 878
772 826
772 815
772 845
772 927
772 942
773 987
774 795
774 930
774 997
774 842
774 939
774 955
774 899
774 919
775 992
775 801
776 894
776 980
776 989
777 882
777 841
777 980
778 949
778 880
778 823
778 944
778 919
779 951
779 871
779 977
779 906
779 941
780 868
780 929
780 857
780 975
780 939
780 907
780 843
781 886
781 862
781 987
781 891
781 995
781 888
781 828
781 863
781 807
781 851
781 901
782 857
782 976
782 809
782 949
782 975
782 965
782 840
782 905
782 919
782 980
783 946
783 813
783 901
783 997
784 951
784 903
784 798
784 912
784 925
784 867
784 868
785 835
785 845
785 820
785 786
785 957
785 980
785 802
785 827
785 882
785 926
785 942
786 921
786 925
786 815
786 983
786 844
786 935
786 957
787 992
787 828
787 835
787 886
787 796
787 817
788 961
788 978
788 987
788 888
788 842
788 863
788 931
788 919
788 997
789 881
789 950
789 872
789 898
789 821
789 947
789 833
789 890
789 926
790 879
790 854
790 866
790 869
790 897
790 863
790 828
790 802
790 893
790 958
790 885
790 810
790 808
790 794
790 818
790 842
790 956
791 980
791 857
791 945
791 885
792 807
792 994
792 812
792 827
792 949
792 901
793 930
793 859
793 886
793 919
793 949
793 847
793 851
794 867
794 859
794 833
794 851
794 996
795 810
795 804
795 916
795 918
795 956
795 947
795 888
795 868
795 999
795 805
795 835
795 894
796 909
796 889
796 812
796 987
797 893
797 842
797 927
797 921
797 850
797 912
797 952
798 857
798 975
798 990
798 811
798 946
798 935
799 930
799 970
799 995
799 888
800 929
800 909
800 843
800 931
801 845
801 994
801 890
801 906
801 912
801 811
801 955
801 888
801 848
801 825
801 882
801 803
802 835
802 914
802 815
803 979
803 888
803 992
803 851
803 988
803 942
803 951
803 820
803 827
803 865
803 945
803 908
804 835
804 863
805 908
805 991
805 879
805 869
805 816
805 930
805 835
805 858
805 927
806 859
806 952
806 953
806 889
806 870
806 997
807 945
807 994
807 892
807 930
807 941
807 872
807 811
808 971
808 974
809 835
809 955
809 844
809 948
809 990
809 998
809 900
809 910
809 962
809 925
809 976
809 967
810 936
810 954
810 929
810 866
810 921
810 992
810 893
810 998
810 821
810 835
811 994
811 865
811 892
811 935
811 937
811 860
811 900
811 901
811 850
811 992
811 841
812 849
812 816
812 886
812 915
812 965
812 935
813 976
813 980
813 861
813 974
814 936
814 930
814 927
814 884
814 949
815 918
815 832
815 842
815 834
815 845
815 950
815 828
815 908
815 912
815 911
815 847
815 981
815 821
815 851
816 979
816 974
816 975
816 930
816 882
816 821
817 868
817 824
817 877
817 949
817 946
817 935
817 917
817 930
817 975
817 919
818 837
818 830
818 828
818 997
818 867
818 943
818 918
818 977
818 831
818 968
818 842
818 994
818 964
819 978
819 851
820 848
820 871
820 853
820 948
820 842
820 884
820 946
820 934
821 975
821 874
821 992
821 964
821 875
821 826
821 841
821 933
821 968
821 955
821 879
821 956
821 889
821 825
821 822
821 918
821 994
821 919
822 837
822 910
822 849
822 999
822 901
822 946
822 996
823 842
823 940
823 992
823 892
823 945
823 849
823 941
823 949
823 850
824 933
824 868
824 993
824 955
824 904
824 946
825 975
825 907
825 892
825 882
825 958
825 829
825 839
825 995
825 830
825 959
825 963
825 926
825 985
826 881
826 842
826 962
826 905
827 916
827 930
827 842
827 884
827 942
827 976
827 934
827 846
827 965
828 863
829 867
829 995
829 922
829 966
829 911
829 940
829 935
830 987
830 994
831 901
832 880
832 836
832 883
832 863
833 995
833 836
833 895
833 882
834 881
834 904
834 971
835 936
835 837
835 929
835 858
835 915
835 941
835 909
835 854
835 980
835 863
835 876
836 886
836 975
836 943
837 870
837 886
837 936
838 886
838 918
838 992
838 882
838 851
839 975
839 955
839 888
839 860
839 892
839 978
840 974
840 992
840 895
841 975
841 910
841 971
841 942
841 981
841 861
841 946
841 847
841 967
842 959
842 863
842 983
842 869
842 879
842 922
842 908
842 885
842 926
842 937
842 946
842 962
842 881
842 954
842 896
843 992
844 885
844 924
844 986
845 867
845 886
845 901
846 902
846 880
846 890
846 978
847 969
847 996
848 893
848 939
848 905
848 959
848 930
848 986
849 880
850 945
850 895
850 981
850 992
850 994
851 935
851 896
851 977
851 956
851 988
851 944
852 857
852 961
852 909
852 927
852 996
853 867
853 874
853 900
853 935
853 967
854 903
854 919
855 902
855 886
855 881
855 949
855 905
855 997
856 872
856 874
856 884
856 912
857 961
857 951
857 903
857 887
857 959
857 928
857 975
857 921
857 969
857 972
857 935
857 962
857 873
857 979
857 881
857 884
857 974
857 985
858 993
858 886
858 936
858 926
858 935
858 980
859 987
859 871
859 888
859 860
859 920
859 901
859 911
859 943
859 995
859 926
859 919
860 910
860 990
860 888
860 981
861 921
861 975
861 878
861 983
862 987
862 979
862 995
862 888
862 891
862 927
863 938
863 922
863 897
863 866
863 906
863 923
863 893
863 883
863 880
863 917
863 975
863 925
863 992
863 993
863 901
864 978
865 955
865 992
865 899
865 892
865 994
865 884
866 907
866 890
867 969
867 975
867 934
868 921
868 972
868 996
868 918
868 975
868 871
868 912
869 961
869 952
870 912
870 919
871 902
871 987
871 964
871 943
871 909
871 888
871 927
871 901
872 887
872 909
872 905
872 879
872 996
873 949
873 996
874 998
874 881
874 915
875 959
875 879
876 891
876 975
876 941
876 914
876 885
877 878
877 891
877 919
877 949
878 998
878 991
878 881
878 883
878 880
879 936
879 908
879 943
879 930
879 880
879 980
880 907
880 891
880 909
880 963
880 984
881 969
881 907
881 914
881 993
881 972
881 997
882 912
882 898
882 965
882 913
882 995
882 902
882 999
882 893
882 986
882 926
882 901
883 969
883 998
883 920
883 896
883 930
883 979
883 995
883 994
883 923
884 981
884 906
884 976
884 887
884 926
884 982
884 919
884 996
885 961
886 954
886 970
886 889
886 892
887 930
887 975
887 994
887 901
888 987
888 999
888 910
888 937
888 927
888 908
888 938
888 889
888 892
888 901
889 909
889 941
890 921
890 892
890 933
890 983
890 951
890 915
890 985
891 936
891 955
891 914
891 945
891 958
892 975
892 930
892 984
892 969
892 976
892 954
892 906
892 991
892 994
893 936
893 894
893 930
893 926
894 955
894 979
894 939
894 951
894 966
894 930
894 991
894 946
895 976
896 992
896 926
896 996
897 990
897 957
897 973
898 983
898 940
898 926
899 926
900 945
900 999
900 930
900 954
900 967
901 967
901 937
901 986
901 906
901 963
901 927
901 997
902 939
902 966
902 930
902 979
902 956
903 975
905 931
905 947
906 990
906 926
906 919
907 998
907 968
907 971
908 990
908 981
909 975
909 936
909 951
909 912
909 932
910 999
910 960
910 987
910 995
912 954
912 976
912 939
912 984
912 926
912 935
913 921
914 991
914 971
914 935
915 925
916 961
916 975
917 995
917 919
917 996
918 942
918 983
918 977
918 939
918 931
919 966
919 949
919 920
919 968
919 946
919 960
919 931
919 986
920 946
921 975
921 930
922 985
922 949
923 928
923 952
924 992
925 955
925 994
925 996
926 994
926 985
926 965
926 939
926 948
926 992
926 931
926 951
927 962
927 928
927 935
928 975
928 994
929 987
930 979
930 965
930 981
930 955
930 935
932 935
932 996
933 995
933 945
934 997
935 977
935 996
935 970
935 956
935 944
935 938
935 964
935 990
936 985
937 988
938 950
938 946
939 982
939 991
939 960
940 952
941 987
941 984
942 944
942 989
942 978
942 969
942 994
942 980
943 978
943 949
945 960
945 992
945 949
946 949
946 953
946 968
948 951
948 980
949 965
949 968
949 964
949 962
949 995
950 960
951 975
952 995
952 998
952 982
952 957
952 986
953 982
953 996
954 961
955 983
956 967
956 986
956 960
956 980
958 995
959 986
959 975
959 978
960 978
960 982
961 997
961 987
962 982
963 992
964 967
965 975
965 992
965 969
965 977
965 970
967 970
968 985
968 980
973 992
973 994
974 996
975 986
976 985
978 984
978 992
978 986
980 984
981 997
982 994
982 984
982 996
984 992
984 994
985 993
985 991
985 997
986 987
986 997
987 995
988 997
990 995
992 994
994 995
995 999
997 999
