0 114
0 463
0 777
0 23
0 117
0 810
0 711
0 515
0 136
0 982
0 635
0 128
0 499
0 267
0 546
0 63
0 618
0 363
0 125
0 423
0 426
0 178
0 717
0 472
1 179
1 731
1 67
1 367
1 467
1 551
1 314
1 418
1 58
1 102
1 285
1 494
1 218
1 318
1 43
1 33
1 550
1 56
1 568
1 70
1 75
1 590
1 623
1 636
1 151
1 722
1 213
1 264
1 851
1 872
1 393
1 118
1 702
2 67
2 875
2 254
2 21
2 803
2 686
2 357
2 966
2 343
2 858
2 738
2 73
2 676
2 688
2 260
2 593
2 27
2 35
2 598
2 619
2 111
2 143
2 664
2 681
2 702
2 732
2 280
2 841
2 354
2 481
3 101
3 735
3 780
3 429
3 910
3 647
3 747
3 153
3 258
3 8
3 785
3 147
3 773
3 85
3 272
3 449
3 79
3 516
3 6
3 134
3 189
3 908
3 416
3 404
3 857
3 415
3 421
3 929
3 77
3 657
3 655
3 870
3 890
3 713
3 649
3 900
3 865
3 204
3 132
3 809
3 652
3 755
3 176
3 166
3 255
3 193
3 182
3 852
3 443
3 130
3 778
3 371
3 985
3 165
3 139
3 219
3 528
3 401
3 577
3 216
3 880
3 284
3 987
3 403
3 109
3 83
3 66
3 704
3 445
3 757
3 611
3 275
3 859
3 188
3 483
3 320
3 332
3 973
3 57
3 958
3 152
3 254
3 131
3 471
3 461
3 395
3 548
3 53
3 964
3 12
3 250
3 310
3 772
3 496
3 338
3 855
3 463
3 748
4 932
4 448
4 751
4 433
4 622
4 129
4 362
4 507
4 768
4 580
4 826
4 944
4 891
4 601
4 819
4 390
4 124
4 490
4 637
4 355
4 476
4 47
4 674
4 527
4 29
4 549
4 38
4 561
4 575
4 360
4 650
4 184
4 953
4 699
4 753
4 244
4 357
5 151
5 518
5 331
5 902
5 337
5 529
5 899
5 951
5 310
5 543
5 904
5 913
5 988
5 329
5 512
5 772
5 223
5 802
5 270
5 726
5 123
5 119
5 436
5 625
5 539
5 45
5 342
5 920
5 844
5 523
5 532
5 24
5 44
5 572
5 666
5 703
5 730
5 734
5 788
5 842
5 932
5 975
5 443
6 151
6 483
6 86
6 855
6 852
6 900
6 880
6 416
6 188
6 401
6 275
6 657
6 272
6 332
6 865
6 870
6 757
6 780
6 649
6 929
6 128
6 479
6 57
6 577
6 66
6 611
6 134
6 651
6 165
6 176
6 216
6 755
6 255
6 284
6 443
6 361
6 339
6 20
7 768
7 515
7 918
7 573
7 336
7 207
7 126
7 323
7 979
7 235
7 349
7 682
7 11
7 811
7 995
7 692
7 140
7 328
7 505
7 330
7 9
7 38
7 695
7 240
7 65
7 91
7 97
7 660
7 148
7 155
7 687
7 341
8 551
8 320
8 577
8 403
8 461
8 755
8 371
8 109
8 401
8 773
8 857
8 79
8 189
8 112
8 508
8 134
8 139
8 176
8 188
8 714
8 254
8 255
8 780
8 852
8 855
8 870
8 640
8 841
9 59
9 119
9 310
9 386
9 406
9 789
9 324
9 833
9 756
9 235
9 248
9 630
9 692
9 341
9 148
9 97
9 511
9 135
9 682
9 359
9 444
9 866
9 321
9 660
9 207
9 91
9 65
9 914
9 909
9 861
9 305
9 402
9 918
9 634
9 409
9 885
9 811
9 573
9 323
9 800
9 364
9 493
9 638
9 687
9 924
9 160
9 11
9 779
9 505
9 347
9 796
9 88
9 209
9 328
9 113
9 775
9 103
9 126
9 718
9 268
9 172
9 376
9 156
9 799
9 139
9 155
10 56
10 609
10 823
10 386
10 321
10 380
10 680
10 665
10 728
10 862
10 708
10 462
10 373
10 658
10 345
10 693
10 80
10 441
10 919
10 533
10 669
10 249
10 610
10 409
10 586
10 828
10 37
10 567
10 581
10 583
10 118
10 168
10 210
10 220
10 771
10 263
10 799
10 829
10 838
10 381
10 965
11 218
11 326
11 978
11 657
11 713
11 767
11 103
11 248
11 160
11 341
11 126
11 861
11 912
11 928
11 914
11 305
11 148
11 274
11 165
11 573
11 91
11 97
11 634
11 140
11 155
11 682
11 209
11 225
11 775
11 789
11 833
11 323
11 330
11 505
12 377
12 614
12 232
12 198
12 28
12 466
12 875
12 247
12 955
12 887
12 641
12 863
12 273
12 326
12 854
12 602
12 95
12 617
12 621
12 643
12 684
12 477
12 632
12 708
12 639
13 112
13 254
13 407
13 968
13 413
13 144
13 428
13 878
13 90
13 843
13 446
13 197
13 876
13 685
13 366
13 64
13 382
13 307
13 509
13 840
13 984
13 149
13 422
13 52
13 282
13 333
13 335
13 451
13 921
13 812
13 300
13 454
13 976
13 822
13 104
13 40
13 383
13 950
13 832
13 495
13 78
13 497
13 993
13 200
13 231
13 538
13 847
13 290
13 946
13 770
13 374
13 297
13 502
13 392
13 26
13 599
13 190
13 553
13 340
13 435
13 155
13 527
13 309
13 988
13 707
13 576
13 370
13 201
13 322
13 398
14 561
14 48
14 170
14 383
14 335
14 422
14 374
14 200
14 297
14 446
14 428
14 827
14 921
14 663
14 858
14 26
14 78
14 90
14 104
14 149
14 190
14 340
14 878
14 454
14 495
14 841
15 62
15 513
15 515
15 267
15 983
15 752
15 607
15 16
15 530
15 363
15 766
15 17
15 677
15 178
15 108
15 117
15 970
15 510
15 952
15 426
15 332
15 880
15 63
15 645
15 177
15 440
15 211
15 505
15 98
15 361
16 315
16 617
16 463
16 969
16 515
16 363
16 23
16 982
16 744
16 588
16 645
16 117
16 465
16 440
16 677
16 983
16 199
16 487
16 137
16 63
16 352
16 108
16 895
16 423
16 510
17 559
17 601
17 515
17 777
17 267
17 952
17 752
17 513
17 547
17 63
17 530
17 23
17 805
17 810
17 363
17 125
17 895
17 677
17 423
17 440
17 186
17 465
17 506
17 64
18 457
18 697
18 837
18 594
18 624
18 683
18 405
18 911
18 389
18 391
18 706
18 470
18 372
18 997
18 640
18 612
18 608
18 250
18 469
18 745
18 920
18 438
18 999
18 31
18 385
18 227
18 762
18 368
18 431
18 915
18 42
18 646
18 293
18 949
18 545
18 524
18 417
18 817
18 420
18 345
18 444
18 559
18 570
18 578
18 748
18 289
18 342
18 348
18 369
18 375
18 386
18 406
18 957
18 561
19 831
19 552
19 541
19 820
19 419
19 212
19 978
19 286
19 961
19 252
19 778
19 62
19 68
19 154
19 159
19 698
19 733
19 237
19 243
19 253
19 792
19 319
19 994
19 244
19 738
20 705
20 865
20 829
20 521
20 681
20 794
20 966
20 760
20 21
20 598
20 238
20 803
20 715
20 427
20 619
20 791
20 709
20 73
20 174
20 846
20 92
20 308
20 143
20 116
20 172
20 481
20 868
20 639
20 35
20 354
20 688
20 230
20 754
20 23
20 633
20 702
20 732
20 738
20 292
20 858
21 792
21 240
21 274
21 738
21 325
21 143
21 868
21 846
21 222
21 664
21 221
21 27
21 35
21 73
21 116
21 702
21 732
21 292
21 841
21 858
21 354
21 481
22 223
22 533
22 441
22 669
22 162
22 759
22 80
22 544
22 963
22 667
22 708
22 567
22 91
22 563
22 581
22 583
22 118
22 120
22 648
22 168
22 771
22 263
22 799
22 838
22 373
22 381
22 46
22 519
22 812
23 870
23 515
23 776
23 267
23 530
23 970
23 501
23 717
23 125
23 352
23 510
23 798
23 546
23 63
23 618
23 108
23 423
23 440
23 199
23 465
24 187
24 529
24 532
24 899
24 543
24 69
24 396
24 932
24 45
24 540
24 787
24 971
24 927
24 539
24 329
24 460
24 556
24 372
24 424
24 542
24 572
24 585
24 82
24 615
24 625
24 119
24 730
24 223
24 240
24 256
24 291
24 310
24 834
24 842
24 988
24 216
24 801
24 369
24 118
25 851
25 146
25 569
25 741
25 56
25 430
25 926
25 39
25 67
25 296
25 484
25 179
25 114
25 133
25 264
25 145
25 58
25 208
25 590
25 232
25 550
25 50
25 102
25 623
25 636
25 151
25 674
25 722
25 218
25 221
25 740
25 764
25 314
25 860
25 393
25 536
26 134
26 519
26 261
26 297
26 843
26 451
26 231
26 935
26 495
26 104
26 333
26 946
26 290
26 374
26 339
26 64
26 307
26 407
26 840
26 40
26 685
26 428
26 300
26 509
26 322
26 876
26 592
26 950
26 921
26 663
26 832
26 770
26 497
26 366
26 446
26 90
26 435
26 812
26 392
26 78
26 679
26 806
26 413
26 335
26 144
26 52
26 488
26 200
26 303
26 827
26 502
26 302
26 499
26 579
26 984
26 701
26 976
26 411
26 862
26 379
26 41
26 603
26 653
26 775
26 866
26 149
26 170
26 201
26 340
26 878
27 872
27 626
27 421
27 427
27 357
27 74
27 35
27 481
27 686
27 280
27 92
27 939
27 794
27 633
27 238
27 639
27 343
27 81
27 325
27 765
27 354
27 73
27 619
27 174
27 791
27 841
27 222
27 966
27 116
27 702
27 732
27 521
27 798
27 858
27 172
27 715
27 245
27 846
27 786
27 671
27 913
27 649
27 600
27 258
27 111
27 676
27 185
27 292
28 279
28 316
28 864
28 198
28 844
28 247
28 719
28 242
28 477
28 673
28 873
28 315
28 101
28 642
28 95
28 690
28 863
28 614
28 621
28 643
28 887
28 49
28 955
28 480
28 466
28 251
28 727
28 591
28 54
28 94
28 628
28 875
28 705
28 115
28 684
28 262
28 109
28 318
28 467
28 962
28 100
28 112
28 641
28 506
28 519
29 869
29 522
29 699
29 883
29 485
29 129
29 34
29 478
29 180
29 607
29 561
29 819
29 565
29 826
29 575
29 93
29 355
29 360
29 184
29 753
29 507
29 374
30 36
30 255
30 578
30 999
30 175
30 836
30 487
30 989
30 450
30 746
30 46
30 986
30 346
30 784
30 192
30 224
30 353
30 295
30 696
30 191
30 721
30 99
30 636
30 480
30 43
30 555
30 605
30 670
30 671
30 167
30 739
30 239
30 257
30 268
30 783
30 795
30 299
30 835
31 393
31 271
31 534
31 406
31 920
31 593
31 570
31 389
31 293
31 457
31 559
31 957
31 578
31 405
31 410
31 992
31 969
31 943
31 455
31 42
31 560
31 582
31 640
31 668
31 694
31 748
31 342
31 348
31 369
31 372
31 414
31 431
31 949
31 438
32 603
32 804
32 568
32 974
32 41
32 56
32 424
32 750
32 145
32 285
32 213
32 595
32 551
32 564
32 636
32 151
32 187
32 208
32 722
32 218
32 731
32 740
32 264
32 851
32 418
32 936
32 684
32 360
33 631
33 70
33 169
33 722
33 587
33 221
33 741
33 151
33 218
33 430
33 764
33 393
33 750
33 872
33 146
33 424
33 551
33 102
33 404
33 829
33 550
33 557
33 56
33 59
33 576
33 75
33 623
33 636
33 644
33 264
33 814
33 314
33 851
33 418
33 414
33 699
34 642
34 713
34 129
34 947
34 390
34 485
34 107
34 751
34 400
34 127
34 637
34 943
34 180
34 548
34 522
34 507
34 476
34 699
34 490
34 768
34 816
34 817
34 561
34 819
34 575
34 580
34 355
34 360
34 370
34 753
34 244
34 378
34 37
34 954
35 561
35 746
35 619
35 172
35 174
35 222
35 681
35 357
35 794
35 245
35 803
35 858
35 939
35 439
35 143
35 686
35 294
35 292
35 116
35 738
35 798
35 238
35 280
35 732
35 791
35 933
35 966
35 841
35 702
35 185
35 343
35 737
35 325
35 606
35 427
35 633
35 868
35 354
35 92
35 676
35 81
35 74
35 598
35 73
35 481
35 639
35 709
35 688
35 846
35 760
35 765
35 308
35 111
35 259
35 833
35 666
35 273
35 960
35 364
35 129
35 664
35 715
36 514
36 877
36 797
36 792
36 62
36 286
36 961
36 237
36 938
36 691
36 749
36 761
36 154
36 334
36 312
36 241
36 459
36 313
36 51
36 350
36 458
36 600
36 76
36 138
36 159
36 689
36 698
36 243
36 253
36 298
36 319
36 419
36 978
36 244
36 805
37 551
37 730
37 533
37 977
37 567
37 205
37 981
37 960
37 482
37 728
37 106
37 381
37 98
37 849
37 759
37 661
37 665
37 210
37 919
37 278
37 399
37 228
37 183
37 441
37 263
37 963
37 96
37 597
37 142
37 484
37 48
37 563
37 60
37 581
37 80
37 595
37 120
37 648
37 669
37 168
37 693
37 220
37 799
37 838
37 965
37 40
38 522
38 561
38 244
38 93
38 699
38 943
38 508
38 725
38 122
38 947
38 355
38 729
38 107
38 575
38 124
38 362
38 527
38 490
38 456
38 478
38 826
38 180
38 548
38 756
38 524
38 849
38 819
38 580
38 360
38 184
38 753
38 507
38 782
38 998
39 872
39 926
39 114
39 889
39 569
39 888
39 430
39 603
39 133
39 467
39 102
39 631
39 686
39 551
39 564
39 56
39 59
39 576
39 75
39 636
39 151
39 187
39 208
39 722
39 213
39 221
39 740
39 264
39 851
39 494
39 112
39 713
39 861
39 220
39 295
40 714
40 284
40 763
40 519
40 64
40 90
40 297
40 984
40 413
40 579
40 104
40 663
40 200
40 290
40 335
40 340
40 876
40 878
40 374
40 398
40 495
41 146
41 881
41 889
41 860
41 179
41 764
41 741
41 814
41 296
41 218
41 269
41 564
41 56
41 58
41 75
41 609
41 636
41 644
41 145
41 151
41 208
41 221
41 818
41 851
41 872
41 367
41 418
41 537
42 102
42 961
42 524
42 535
42 536
42 217
42 534
42 937
42 801
42 996
42 594
42 869
42 47
42 417
42 706
42 668
42 503
42 582
42 863
42 559
42 560
42 578
42 593
42 608
42 632
42 640
42 748
42 293
42 813
42 369
42 372
42 375
42 391
42 431
42 949
42 438
42 957
42 967
42 205
42 965
42 806
43 532
43 134
43 508
43 63
43 736
43 53
43 72
43 492
43 468
43 167
43 721
43 784
43 836
43 710
43 311
43 281
43 194
43 605
43 479
43 487
43 257
43 283
43 163
43 246
43 173
43 774
43 192
43 526
43 175
43 845
43 954
43 670
43 268
43 224
43 998
43 817
43 46
43 295
43 491
43 365
43 239
43 739
43 986
43 287
43 758
43 723
43 161
43 273
43 214
43 99
43 821
43 453
43 839
43 203
43 850
43 795
43 934
43 746
43 196
43 942
43 299
43 277
43 346
43 191
43 716
43 867
43 266
43 781
43 769
43 531
43 782
43 675
43 409
43 722
43 892
43 729
43 744
43 49
43 158
43 396
43 696
43 835
43 361
43 149
43 303
43 841
44 529
44 532
44 539
44 540
44 45
44 206
44 899
44 270
44 932
44 902
44 897
44 787
44 802
44 141
44 486
44 123
44 260
44 498
44 951
44 271
44 269
44 554
44 615
44 700
44 913
44 331
44 442
44 316
44 290
44 352
44 82
44 625
44 119
44 726
44 730
44 734
44 240
44 788
44 317
44 329
44 842
44 848
44 988
44 64
45 529
45 532
45 543
45 834
45 442
45 951
45 913
45 927
45 356
45 742
45 615
45 654
45 436
45 337
45 906
45 82
45 971
45 556
45 932
45 874
45 787
45 902
45 460
45 917
45 627
45 554
45 897
45 496
45 69
45 574
45 904
45 659
45 269
45 730
45 894
45 703
45 662
45 260
45 307
45 54
45 601
45 216
45 128
45 572
45 616
45 700
45 240
45 842
45 331
45 848
45 988
45 599
46 295
46 839
46 268
46 850
46 739
46 487
46 196
46 795
46 934
46 167
46 821
46 774
46 194
46 246
46 453
46 710
46 353
46 867
46 671
46 898
46 273
46 758
46 492
46 257
46 769
46 736
46 365
46 784
46 125
46 118
46 696
46 299
46 836
46 954
47 550
47 524
47 560
47 808
47 683
47 964
47 385
47 668
47 996
47 369
47 748
47 578
47 949
47 648
47 771
47 624
47 694
47 293
47 837
47 348
47 372
47 386
47 391
47 431
47 438
47 992
47 763
48 546
48 533
48 981
48 118
48 249
48 648
48 656
48 581
48 667
48 84
48 759
48 965
48 183
48 441
48 960
48 420
48 120
48 210
48 220
48 345
48 829
48 862
48 162
48 563
48 278
48 205
48 665
48 373
48 977
48 380
48 228
48 799
48 680
48 98
48 106
48 263
48 763
48 217
48 781
48 422
48 587
48 80
48 168
48 708
48 771
48 838
48 701
49 262
49 377
49 617
49 614
49 591
49 105
49 115
49 475
49 54
49 586
49 955
49 520
49 642
49 719
49 247
49 721
49 697
49 844
49 854
49 101
49 879
49 112
49 641
49 705
49 980
49 232
49 242
49 566
49 253
50 550
50 551
50 557
50 974
50 830
50 467
50 75
50 814
50 285
50 102
50 576
50 314
50 296
50 59
50 644
50 856
50 187
50 424
50 67
50 825
50 221
50 672
50 907
50 145
50 494
50 568
50 631
50 408
50 725
50 782
50 118
50 564
50 56
50 609
50 636
50 133
50 169
50 208
50 264
50 851
50 393
50 84
51 541
51 761
51 298
51 892
51 720
51 931
51 226
51 707
51 412
51 749
51 514
51 978
51 358
51 397
51 743
51 459
51 797
51 150
51 76
51 253
51 319
51 831
51 395
51 252
51 678
51 202
51 991
51 626
51 159
51 138
51 350
51 675
51 789
51 245
51 875
51 68
51 181
51 237
51 243
51 792
51 286
51 419
51 714
51 957
51 967
52 636
52 363
52 135
52 519
52 553
52 422
52 685
52 303
52 282
52 492
52 579
52 599
52 104
52 149
52 197
52 200
52 201
52 770
52 290
52 812
52 827
52 335
52 340
52 878
52 374
52 921
52 495
52 509
53 753
53 526
53 782
53 361
53 845
53 239
53 934
53 72
53 746
53 288
53 268
53 281
53 283
53 257
53 998
53 277
53 264
53 227
53 99
53 670
53 671
53 191
53 721
53 723
53 736
53 739
53 784
53 795
53 299
53 817
53 479
53 487
53 290
53 222
54 520
54 477
54 251
54 684
54 326
54 980
54 455
54 198
54 828
54 727
54 466
54 586
54 115
54 232
54 690
54 719
54 628
54 873
54 879
54 304
54 854
54 164
54 315
54 105
54 95
54 642
54 100
54 613
54 614
54 247
54 667
54 489
54 194
54 121
54 94
54 864
54 101
54 617
54 621
54 112
54 641
54 705
54 82
54 647
55 314
55 643
55 79
55 524
55 534
55 559
55 560
55 368
55 259
55 250
55 406
55 351
55 431
55 604
55 437
55 956
55 391
55 405
55 289
55 545
55 276
55 967
55 915
55 903
55 694
55 920
55 762
55 837
55 215
55 683
55 503
55 410
55 61
55 470
55 504
55 882
55 372
55 930
55 229
55 911
55 316
55 616
55 501
55 184
55 461
55 578
55 582
55 593
55 632
55 745
55 348
55 369
55 385
55 386
55 949
55 438
55 957
55 992
55 997
55 924
56 551
56 564
56 609
56 494
56 75
56 750
56 926
56 731
56 145
56 314
56 576
56 557
56 590
56 430
56 823
56 936
56 157
56 907
56 587
56 151
56 674
56 70
56 872
56 187
56 741
56 208
56 603
56 133
56 285
56 434
56 889
56 102
56 418
56 636
56 568
56 179
56 408
56 264
56 213
56 856
56 569
56 484
56 672
56 888
56 424
56 146
56 740
56 814
56 511
56 929
56 85
56 911
56 73
56 59
56 851
56 393
56 110
56 865
56 896
56 99
57 722
57 147
57 910
57 757
57 255
57 416
57 651
57 182
57 332
57 401
57 79
57 77
57 929
57 958
57 284
57 274
57 870
57 809
57 905
57 445
57 254
57 447
57 189
57 166
57 695
57 655
57 857
57 704
57 859
57 471
57 880
57 443
57 152
57 404
57 647
57 747
57 807
57 449
57 657
57 987
57 176
57 773
57 890
57 652
57 985
57 516
57 193
57 153
57 463
57 275
57 204
57 85
57 735
57 852
57 755
57 132
57 611
57 272
57 713
57 728
57 123
57 801
57 790
57 179
57 555
57 578
57 577
57 66
57 86
57 134
57 216
57 855
57 415
57 429
57 965
58 550
58 557
58 823
58 133
58 424
58 264
58 926
58 484
58 102
58 860
58 138
58 576
58 67
58 603
58 623
58 636
58 644
58 151
58 169
58 187
58 722
58 218
58 851
58 872
58 418
58 936
58 443
58 524
58 341
58 268
58 73
59 550
59 551
59 872
59 146
59 145
59 672
59 568
59 564
59 484
59 75
59 494
59 631
59 764
59 825
59 264
59 851
59 818
59 823
59 67
59 418
59 388
59 114
59 169
59 889
59 750
59 741
59 195
59 613
59 638
59 587
59 623
59 151
59 722
59 221
59 285
59 814
59 314
59 393
59 936
59 377
59 200
60 393
60 160
60 525
60 544
60 871
60 648
60 583
60 693
60 96
60 977
60 80
60 962
60 162
60 567
60 210
60 533
60 763
60 183
60 120
60 799
60 669
60 925
60 665
60 474
60 661
60 230
60 308
60 439
60 994
60 581
60 118
60 656
60 658
60 708
60 220
60 263
60 829
60 838
60 373
60 381
60 420
60 965
61 524
61 534
61 536
61 559
61 560
61 570
61 920
61 957
61 956
61 535
61 992
61 967
61 706
61 594
61 911
61 604
61 464
61 748
61 351
61 949
61 989
61 461
61 582
61 632
61 745
61 250
61 348
61 369
61 372
61 406
61 417
61 431
61 438
61 997
61 120
62 566
62 820
62 792
62 150
62 733
62 252
62 831
62 994
62 931
62 319
62 181
62 720
62 95
62 68
62 653
62 159
62 689
62 691
62 237
62 243
62 253
62 797
62 286
62 651
62 372
62 440
62 340
62 878
63 255
63 578
63 513
63 515
63 267
63 530
63 805
63 440
63 744
63 352
63 717
63 108
63 547
63 128
63 645
63 677
63 982
63 426
63 635
63 571
63 178
63 607
63 752
63 952
63 588
63 718
63 199
63 589
63 211
63 510
63 629
63 472
63 501
63 777
63 125
63 117
63 425
63 363
63 711
63 186
63 618
63 506
63 136
63 546
63 895
63 537
63 177
63 156
63 766
63 771
63 796
63 276
63 870
63 383
63 423
64 842
64 658
64 297
64 553
64 495
64 197
64 946
64 812
64 519
64 984
64 383
64 170
64 822
64 579
64 144
64 827
64 599
64 104
64 200
64 201
64 303
64 322
64 340
64 878
64 398
64 435
65 602
65 401
65 103
65 148
65 305
65 140
65 160
65 779
65 89
65 209
65 924
65 767
65 988
65 88
65 97
65 630
65 126
65 638
65 155
65 682
65 687
65 789
65 328
65 493
65 505
65 648
65 841
66 894
66 516
66 785
66 284
66 987
66 713
66 272
66 857
66 445
66 332
66 443
66 714
66 274
66 403
66 193
66 735
66 255
66 747
66 258
66 86
66 416
66 219
66 189
66 216
66 865
66 890
66 859
66 649
66 611
66 773
66 870
66 77
66 404
66 320
66 985
66 908
66 188
66 130
66 254
66 652
66 401
66 704
66 695
66 139
66 429
66 109
66 415
66 483
66 973
66 471
66 152
66 176
66 528
66 134
66 780
66 647
66 807
66 371
66 79
66 655
66 327
66 910
66 306
66 153
66 958
66 929
66 165
66 778
66 132
66 463
66 447
66 166
66 294
66 833
66 464
66 640
66 292
66 931
66 944
66 999
66 930
66 131
66 651
66 809
66 852
66 855
66 706
66 92
67 550
67 551
67 557
67 830
67 208
67 75
67 296
67 731
67 213
67 264
67 974
67 623
67 169
67 889
67 722
67 388
67 644
67 754
67 611
67 438
67 70
67 636
67 151
67 218
67 221
67 814
67 851
67 344
67 393
67 418
68 707
68 698
68 312
68 319
68 298
68 252
68 226
68 626
68 514
68 301
68 991
68 961
68 397
68 892
68 720
68 792
68 749
68 241
68 938
68 202
68 142
68 150
68 691
68 286
68 243
68 358
68 831
68 212
68 334
68 689
68 994
68 237
68 678
68 743
68 797
68 459
68 159
68 136
68 88
68 98
68 681
68 706
68 733
68 233
68 253
68 448
68 347
68 909
68 99
68 340
69 70
69 512
69 523
69 529
69 532
69 539
69 542
69 572
69 123
69 975
69 874
69 436
69 609
69 247
69 584
69 82
69 615
69 119
69 700
69 730
69 240
69 269
69 815
69 842
69 848
69 988
70 564
70 569
70 860
70 740
70 388
70 926
70 430
70 114
70 264
70 408
70 830
70 823
70 609
70 672
70 285
70 318
70 130
70 151
70 169
70 221
70 314
70 393
70 936
70 867
71 851
71 232
71 240
71 188
71 713
71 855
71 969
71 533
71 759
71 658
71 525
71 228
71 220
71 871
71 544
71 667
71 799
71 168
71 249
71 84
71 230
71 581
71 665
71 458
71 945
71 115
71 118
71 648
71 669
71 708
71 210
71 838
71 373
71 965
72 187
72 494
72 673
72 730
72 560
72 640
72 406
72 687
72 361
72 676
72 670
72 671
72 163
72 736
72 739
72 268
72 281
72 795
72 817
72 839
72 346
72 954
72 487
73 732
73 791
73 681
73 841
73 245
73 280
73 439
73 116
73 737
73 606
73 343
73 702
73 633
73 427
73 81
73 521
73 481
73 959
73 715
73 354
73 664
73 686
73 532
73 221
73 92
73 639
73 143
73 709
73 292
73 357
74 243
74 82
74 627
74 152
74 380
74 353
74 308
74 81
74 709
74 841
74 238
74 384
74 969
74 633
74 639
74 664
74 702
74 222
74 292
74 858
74 354
74 357
74 481
75 974
75 568
75 764
75 804
75 722
75 741
75 856
75 388
75 750
75 609
75 889
75 631
75 187
75 623
75 551
75 213
75 636
75 860
75 285
75 587
75 888
75 674
75 314
75 367
75 802
75 821
75 931
75 114
75 151
75 169
75 221
75 264
75 393
75 684
75 443
75 799
76 514
76 931
76 689
76 626
76 961
76 816
76 397
76 820
76 827
76 138
76 159
76 691
76 237
76 243
76 253
76 298
76 945
77 466
77 654
77 577
77 416
77 785
77 652
77 86
77 429
77 216
77 857
77 371
77 443
77 657
77 516
77 132
77 773
77 655
77 258
77 306
77 260
77 106
77 951
77 611
77 109
77 131
77 176
77 188
77 255
77 778
77 852
77 855
77 865
77 471
77 155
77 675
77 374
78 671
78 519
78 538
78 878
78 946
78 190
78 302
78 495
78 877
78 104
78 200
78 201
78 231
78 335
78 340
78 876
78 884
78 374
78 398
78 921
78 435
78 950
78 454
78 509
79 421
79 714
79 109
79 852
79 735
79 204
79 219
79 463
79 611
79 176
79 987
79 505
79 83
79 134
79 655
79 757
79 255
79 778
79 320
79 870
79 443
79 560
79 513
79 472
80 730
80 852
80 525
80 533
80 581
80 228
80 183
80 278
80 544
80 977
80 862
80 871
80 309
80 474
80 162
80 799
80 728
80 249
80 840
80 998
80 791
80 98
80 118
80 648
80 669
80 168
80 708
80 220
80 829
80 838
80 373
80 381
80 420
80 965
81 286
81 463
81 559
81 604
81 839
81 841
81 846
81 427
81 111
81 158
81 174
81 639
81 760
81 676
81 715
81 702
81 116
81 606
81 308
81 325
81 240
81 319
81 728
81 92
81 619
81 143
81 664
81 172
81 292
81 858
81 354
82 358
82 512
82 523
82 529
82 532
82 539
82 572
82 584
82 916
82 486
82 971
82 932
82 627
82 625
82 815
82 310
82 542
82 496
82 902
82 988
82 734
82 922
82 848
82 442
82 110
82 291
82 772
82 616
82 659
82 317
82 518
82 874
82 240
82 337
82 842
82 975
82 123
82 517
82 730
82 742
82 260
82 574
82 562
82 703
82 460
82 331
82 356
82 654
82 726
82 554
82 396
82 141
82 917
82 271
82 666
82 473
82 223
82 540
82 329
82 137
82 834
82 927
82 787
82 901
82 906
82 436
82 951
82 403
82 668
82 893
82 648
82 986
82 847
82 615
82 256
82 270
82 802
82 511
82 302
82 307
82 495
82 92
83 331
83 577
83 865
83 809
83 204
83 371
83 139
83 404
83 449
83 807
83 785
83 830
83 611
83 134
83 647
83 649
83 165
83 176
83 219
83 254
83 255
83 284
83 320
83 852
83 859
83 443
84 533
84 581
84 862
84 669
84 381
84 525
84 399
84 656
84 278
84 919
84 849
84 708
84 168
84 113
84 610
84 118
84 120
84 648
84 658
84 665
84 680
84 693
84 210
84 230
84 263
84 799
84 838
84 373
84 965
84 300
85 851
85 854
85 541
85 577
85 204
85 166
85 611
85 657
85 447
85 461
85 219
85 193
85 857
85 255
85 471
85 320
85 910
85 709
85 521
85 131
85 134
85 651
85 152
85 165
85 176
85 188
85 713
85 755
85 757
85 254
85 778
85 284
85 852
85 865
85 870
85 415
85 443
85 99
85 976
86 577
86 284
86 483
86 528
86 611
86 165
86 695
86 189
86 809
86 773
86 649
86 131
86 258
86 890
86 421
86 306
86 182
86 880
86 984
86 518
86 878
86 134
86 651
86 176
86 188
86 714
86 219
86 757
86 254
86 255
86 852
86 855
86 870
86 463
86 471
86 292
87 525
87 533
87 669
87 168
87 220
87 380
87 583
87 381
87 228
87 656
87 567
87 849
87 665
87 786
87 118
87 120
87 648
87 680
87 708
87 210
87 799
87 829
87 838
87 965
87 462
88 369
88 125
88 573
88 209
88 511
88 779
88 364
88 225
88 336
88 321
88 505
88 634
88 330
88 974
88 385
88 97
88 113
88 630
88 121
88 140
88 660
88 148
88 155
88 682
88 775
88 800
88 328
88 118
89 337
89 979
89 687
89 207
89 444
89 155
89 912
89 811
89 909
89 928
89 995
89 148
89 682
89 322
89 733
89 97
89 113
89 140
89 660
89 833
89 505
89 648
89 381
89 876
90 988
90 800
90 266
90 538
90 553
90 413
90 197
90 300
90 335
90 822
90 793
90 701
90 333
90 392
90 411
90 302
90 201
90 812
90 495
90 519
90 144
90 878
90 297
90 768
90 212
90 777
90 104
90 149
90 685
90 190
90 200
90 340
91 912
91 995
91 235
91 979
91 336
91 756
91 121
91 833
91 796
91 638
91 148
91 493
91 722
91 792
91 97
91 113
91 630
91 140
91 660
91 155
91 687
91 209
91 775
91 789
91 341
91 505
92 529
92 841
92 174
92 686
92 760
92 606
92 143
92 619
92 439
92 292
92 294
92 245
92 664
92 598
92 738
92 709
92 111
92 846
92 765
92 702
92 354
92 676
92 158
92 116
92 966
92 384
92 939
92 172
92 732
92 633
92 868
92 786
92 858
92 715
92 794
92 238
92 222
92 639
92 688
92 481
92 933
92 521
92 959
92 791
92 357
92 308
92 427
92 280
92 681
92 107
92 508
92 773
92 964
93 642
93 559
93 561
93 819
93 565
93 575
93 580
93 601
93 127
93 768
93 522
93 360
93 972
93 433
93 236
93 883
93 124
93 390
93 107
93 478
93 184
93 432
93 476
93 362
93 507
93 180
93 944
93 485
93 448
93 826
93 943
93 953
93 896
93 370
93 548
93 387
93 751
93 490
93 456
93 351
93 663
93 771
93 778
93 932
93 622
93 891
93 753
93 379
93 168
93 203
93 843
94 262
94 304
94 824
94 326
94 586
94 854
94 673
94 621
94 887
94 95
94 643
94 617
94 879
94 316
94 614
94 705
94 480
94 613
94 315
94 242
94 112
94 376
94 247
94 828
94 980
94 684
94 863
94 642
94 171
94 591
94 845
94 640
94 777
94 864
94 100
94 101
94 477
94 325
95 262
95 304
95 828
95 316
95 326
95 854
95 864
95 602
95 879
95 628
95 905
95 221
95 101
95 621
95 641
95 643
95 684
95 477
95 242
95 404
96 644
96 146
96 265
96 533
96 563
96 183
96 309
96 981
96 120
96 799
96 380
96 200
96 610
96 98
96 648
96 669
96 693
96 708
96 205
96 210
96 220
96 230
96 829
96 838
96 381
96 965
97 284
97 347
97 336
97 979
97 305
97 135
97 995
97 323
97 328
97 767
97 660
97 573
97 121
97 225
97 861
97 359
97 248
97 775
97 126
97 364
97 140
97 505
97 886
97 914
97 444
97 924
97 928
97 321
97 811
97 796
97 918
97 113
97 630
97 103
97 800
97 349
97 511
97 909
97 779
97 324
97 402
97 209
97 912
97 341
97 409
97 160
97 527
97 539
97 661
97 127
97 625
97 969
97 148
97 155
97 682
97 687
97 183
98 615
98 404
98 533
98 567
98 581
98 583
98 381
98 977
98 661
98 228
98 525
98 871
98 648
98 656
98 849
98 919
98 544
98 960
98 278
98 462
98 162
98 183
98 799
98 610
98 667
98 942
98 618
98 118
98 658
98 665
98 669
98 220
98 230
98 838
98 862
98 373
98 420
98 222
99 512
99 194
99 346
99 600
99 163
99 670
99 605
99 266
99 239
99 898
99 353
99 492
99 173
99 167
99 710
99 311
99 850
99 675
99 784
99 288
99 214
99 531
99 161
99 299
99 783
99 986
99 696
99 817
99 246
99 526
99 739
99 835
99 934
99 365
99 295
99 758
99 555
99 203
99 283
99 273
99 257
99 450
99 990
99 845
99 867
99 954
99 736
99 277
99 361
99 836
99 268
99 175
99 281
99 989
99 468
99 839
99 671
99 998
99 224
99 769
99 746
99 165
99 414
99 706
99 539
99 191
99 795
99 487
99 340
100 326
100 854
100 864
100 824
100 376
100 251
100 115
100 684
100 621
100 171
100 279
100 875
100 705
100 591
100 232
100 475
100 690
100 727
100 105
100 614
100 643
100 586
100 101
100 466
100 719
100 114
100 915
100 403
100 887
100 377
100 641
100 642
100 955
100 198
100 455
100 980
100 319
100 670
100 702
101 520
101 304
101 316
101 602
101 864
101 112
101 621
101 854
101 171
101 980
101 105
101 727
101 475
101 614
101 377
101 673
101 705
101 955
101 828
101 879
101 466
101 247
101 279
101 198
101 690
101 863
101 641
101 617
101 307
101 385
101 284
101 643
101 684
101 419
102 551
102 587
102 146
102 388
102 393
102 731
102 568
102 285
102 157
102 408
102 564
102 597
102 623
102 636
102 145
102 151
102 187
102 264
102 814
102 851
102 510
102 300
103 539
103 988
103 254
103 342
103 940
103 409
103 248
103 924
103 126
103 493
103 131
103 630
103 140
103 148
103 155
103 682
103 687
103 207
103 789
103 800
103 833
103 323
103 330
103 918
103 353
104 393
104 519
104 599
104 307
104 685
104 413
104 451
104 333
104 197
104 946
104 149
104 495
104 878
104 411
104 770
104 553
104 454
104 383
104 231
104 398
104 502
104 303
104 300
104 392
104 446
104 827
104 876
104 261
104 144
104 297
104 884
104 282
104 509
104 489
104 950
104 679
104 822
104 190
104 290
104 984
104 374
104 497
104 435
104 335
104 812
104 428
104 847
104 538
104 840
104 322
104 976
104 422
104 592
104 302
104 366
104 806
104 993
104 382
104 663
104 452
104 488
104 499
104 832
104 701
104 968
104 170
104 200
104 793
104 201
104 935
104 921
104 339
104 340
104 565
104 223
104 866
104 736
104 541
104 433
104 500
104 217
104 185
105 520
105 864
105 377
105 112
105 879
105 316
105 875
105 497
105 628
105 642
105 684
105 719
105 980
105 477
105 480
105 242
105 852
106 145
106 978
106 110
106 677
106 505
106 533
106 581
106 610
106 838
106 963
106 941
106 952
106 422
106 118
106 120
106 648
106 665
106 669
106 693
106 708
106 210
106 763
106 771
106 799
106 829
106 862
106 373
106 965
106 479
107 855
107 768
107 561
107 819
107 575
107 360
107 355
107 650
107 970
107 622
107 953
107 448
107 753
107 507
107 508
107 491
108 458
108 507
108 515
108 267
108 766
108 589
108 363
108 805
108 546
108 752
108 618
108 711
108 940
108 513
108 136
108 744
108 186
108 530
108 177
108 952
108 607
108 510
108 635
108 717
108 117
108 423
108 425
108 352
108 942
108 724
108 215
108 302
108 645
108 677
109 551
109 611
109 900
109 258
109 147
109 445
109 306
109 134
109 778
109 651
109 152
109 880
109 189
109 272
109 785
109 139
109 713
109 429
109 855
109 130
109 865
109 320
109 166
109 182
109 939
109 314
109 937
109 176
109 188
109 714
109 219
109 254
109 255
109 852
109 870
109 443
109 463
110 512
110 523
110 529
110 532
110 540
110 542
110 572
110 615
110 543
110 659
110 904
110 916
110 137
110 585
110 834
110 486
110 927
110 206
110 119
110 951
110 848
110 616
110 584
110 802
110 726
110 902
110 894
110 700
110 772
110 853
110 901
110 436
110 562
110 788
110 317
110 256
110 787
110 240
110 539
110 269
110 988
110 553
110 372
110 168
110 625
110 627
110 730
110 329
110 842
110 874
110 932
110 582
110 328
110 257
110 858
111 171
111 761
111 734
111 832
111 598
111 619
111 738
111 686
111 786
111 325
111 794
111 427
111 858
111 343
111 966
111 222
111 681
111 158
111 481
111 664
111 841
111 732
111 354
111 791
111 868
111 606
111 384
111 439
111 238
111 846
111 432
111 944
111 871
111 275
111 116
111 292
112 208
112 262
112 520
112 586
112 591
112 863
112 864
112 617
112 621
112 613
112 475
112 232
112 879
112 316
112 480
112 477
112 242
112 326
112 628
112 251
112 705
112 315
112 614
112 684
112 466
112 455
112 955
112 376
112 980
112 824
112 854
112 602
112 727
112 627
112 518
112 858
112 377
112 641
112 198
112 709
113 223
113 391
113 414
113 811
113 918
113 682
113 861
113 160
113 209
113 979
113 324
113 444
113 248
113 909
113 660
113 472
113 839
113 140
113 148
113 155
113 775
113 800
113 323
113 341
113 885
114 551
114 576
114 590
114 754
114 550
114 722
114 750
114 856
114 603
114 814
114 296
114 731
114 344
114 264
114 889
114 568
114 764
114 187
114 393
114 609
114 218
114 654
114 473
114 151
114 208
114 213
114 740
114 285
114 314
114 851
114 872
114 418
114 661
115 262
115 520
115 824
115 586
115 864
115 617
115 873
115 466
115 613
115 430
115 887
115 643
115 684
115 705
115 980
115 727
115 477
116 521
116 427
116 798
116 765
116 343
116 172
116 308
116 676
116 738
116 292
116 791
116 280
116 238
116 222
116 966
116 702
116 939
116 245
116 325
116 439
116 598
116 481
116 541
116 186
116 873
116 301
116 639
116 143
116 664
116 688
116 709
116 737
116 841
116 858
116 354
117 513
117 776
117 267
117 589
117 363
117 940
117 777
117 752
117 440
117 805
117 744
117 983
117 378
117 717
117 585
117 797
117 125
117 677
117 426
117 510
118 682
118 581
118 583
118 462
118 278
118 610
118 309
118 563
118 965
118 977
118 963
118 120
118 373
118 441
118 544
118 381
118 597
118 345
118 656
118 771
118 230
118 648
118 168
118 919
118 162
118 799
118 399
118 474
118 862
118 249
118 183
118 420
118 667
118 763
118 941
118 661
118 871
118 263
118 981
118 567
118 962
118 658
118 228
118 829
118 665
118 210
118 693
118 533
118 595
118 380
118 680
118 482
118 708
118 960
118 925
118 525
118 849
118 669
118 838
118 655
118 173
118 481
118 604
118 159
118 835
119 529
119 532
119 542
119 556
119 615
119 616
119 627
119 396
119 562
119 659
119 726
119 486
119 901
119 496
119 574
119 815
119 271
119 291
119 329
119 894
119 337
119 260
119 848
119 932
119 787
119 951
119 635
119 763
119 123
119 654
119 700
119 730
119 734
119 240
119 772
119 269
119 331
119 975
119 988
120 525
120 533
120 581
120 583
120 838
120 168
120 544
120 669
120 420
120 728
120 829
120 441
120 919
120 648
120 871
120 708
120 205
120 658
120 963
120 380
120 667
120 595
120 763
120 567
120 228
120 381
120 220
120 597
120 862
120 309
120 278
120 680
120 162
120 941
120 925
120 962
120 345
120 563
120 230
120 693
120 942
120 698
120 181
120 895
120 210
120 799
120 373
120 965
120 246
120 878
121 975
121 593
121 199
121 359
121 630
121 767
121 918
121 163
121 638
121 140
121 660
121 682
121 209
121 341
121 505
121 581
122 922
122 403
122 293
122 522
122 527
122 561
122 819
122 575
122 580
122 601
122 355
122 360
122 622
122 729
122 485
122 234
122 753
122 507
122 833
123 529
123 615
123 436
123 572
123 913
123 815
123 772
123 460
123 977
123 726
123 734
123 240
123 256
123 269
123 310
123 317
123 842
123 848
123 337
123 932
123 988
123 624
124 561
124 819
124 575
124 580
124 360
124 622
124 947
124 753
124 508
124 497
124 955
124 129
124 184
124 729
124 485
124 244
124 507
125 267
125 352
125 618
125 363
125 379
125 982
125 970
125 426
125 589
125 177
125 717
125 718
125 776
125 423
125 940
125 895
125 645
125 186
125 607
125 513
125 546
125 470
125 306
125 677
125 425
125 465
125 510
125 287
126 797
126 630
126 349
126 493
126 979
126 811
126 833
126 531
126 140
126 660
126 155
126 687
126 323
126 330
126 341
126 861
126 505
126 533
126 595
127 572
127 522
127 561
127 819
127 565
127 575
127 580
127 355
127 360
127 478
127 129
127 896
127 137
127 513
127 432
127 244
127 836
128 515
128 267
128 379
128 895
128 378
128 677
128 717
128 752
128 777
128 440
128 351
128 826
128 177
128 506
128 775
128 373
128 283
128 479
129 304
129 229
129 768
129 561
129 819
129 575
129 360
129 622
129 478
129 896
129 580
129 244
129 549
129 390
129 910
129 978
129 753
129 507
130 814
130 577
130 890
130 134
130 275
130 255
130 985
130 919
130 139
130 651
130 713
130 714
130 216
130 757
130 254
130 320
130 852
130 855
130 870
130 421
130 443
130 463
130 471
130 891
130 533
130 200
131 761
131 988
131 577
131 274
131 134
131 275
131 652
131 204
131 182
131 908
131 416
131 785
131 695
131 139
131 855
131 657
131 973
131 429
131 735
131 445
131 646
131 364
131 969
131 647
131 176
131 713
131 219
131 255
131 778
131 284
131 320
131 852
131 870
131 443
131 463
132 159
132 528
132 147
132 987
132 258
132 421
132 516
132 809
132 910
132 445
132 403
132 240
132 674
132 134
132 647
132 657
132 152
132 176
132 219
132 735
132 755
132 757
132 254
132 284
132 320
132 852
132 855
132 443
132 463
133 557
133 564
133 576
133 623
133 823
133 221
133 264
133 388
133 151
133 187
133 754
133 543
133 746
133 169
133 208
133 722
133 740
133 393
133 418
133 922
133 697
133 493
133 665
134 377
134 529
134 577
134 611
134 807
134 880
134 152
134 306
134 188
134 416
134 652
134 204
134 900
134 908
134 755
134 166
134 189
134 695
134 176
134 443
134 139
134 165
134 985
134 447
134 216
134 461
134 284
134 987
134 449
134 147
134 855
134 852
134 219
134 778
134 445
134 327
134 254
134 483
134 809
134 193
134 657
134 275
134 272
134 528
134 704
134 735
134 403
134 785
134 320
134 258
134 655
134 905
134 910
134 463
134 747
134 421
134 973
134 153
134 870
134 332
134 911
134 489
134 150
134 899
134 582
134 647
134 651
134 713
134 757
134 255
134 865
134 415
134 429
134 330
134 538
135 668
135 573
135 630
135 979
135 336
135 324
135 444
135 402
135 505
135 248
135 235
135 866
135 140
135 660
135 148
135 155
135 682
135 687
135 209
135 775
135 861
136 515
136 777
136 267
136 805
136 571
136 588
136 363
136 635
136 645
136 530
136 299
136 423
136 426
136 506
137 518
137 529
137 532
137 615
137 616
137 556
137 853
137 971
137 703
137 913
137 512
137 788
137 700
137 498
137 523
137 730
137 584
137 899
137 695
137 714
137 726
137 240
137 270
137 291
137 842
137 932
137 988
137 963
138 636
138 552
138 678
138 566
138 761
138 514
138 252
138 743
138 994
138 976
138 154
138 159
138 689
138 698
138 749
138 243
138 797
138 286
138 298
138 358
138 397
139 577
139 611
139 929
139 870
139 755
139 189
139 859
139 332
139 647
139 778
139 193
139 371
139 809
139 890
139 306
139 880
139 958
139 254
139 166
139 900
139 985
139 733
139 302
139 240
139 651
139 176
139 714
139 219
139 757
139 255
139 320
139 852
139 855
139 865
139 404
139 443
139 463
139 373
139 770
140 764
140 264
140 532
140 630
140 775
140 979
140 235
140 160
140 682
140 692
140 924
140 402
140 995
140 767
140 347
140 928
140 493
140 155
140 341
140 811
140 660
140 789
140 321
140 305
140 796
140 225
140 324
140 573
140 336
140 918
140 886
140 323
140 861
140 248
140 634
140 500
140 638
140 444
140 885
140 207
140 756
140 779
140 687
140 505
140 330
140 148
140 866
140 328
140 912
140 409
140 511
140 909
140 209
140 657
140 191
140 253
140 697
140 376
140 371
140 245
140 353
140 793
141 529
141 532
141 539
141 540
141 572
141 310
141 666
141 473
141 923
141 894
141 574
141 460
141 899
141 850
141 718
141 700
141 726
141 730
141 240
141 269
141 788
141 329
141 848
141 874
141 932
141 988
141 487
141 261
142 552
142 653
142 181
142 877
142 154
142 334
142 945
142 831
142 749
142 792
142 243
142 892
142 150
142 678
142 263
142 951
142 159
142 202
142 237
142 253
142 286
142 298
142 319
142 961
142 978
142 994
143 521
143 357
143 481
143 598
143 939
143 732
143 664
143 294
143 715
143 798
143 292
143 702
143 280
143 959
143 172
143 791
143 688
143 794
143 238
143 639
143 185
143 384
143 681
143 354
143 191
143 402
143 493
143 701
143 222
143 738
143 841
143 858
144 783
144 519
144 579
144 599
144 770
144 435
144 984
144 592
144 843
144 878
144 454
144 812
144 502
144 701
144 841
144 711
144 170
144 200
144 302
144 847
144 340
144 876
144 495
144 509
145 550
145 551
145 557
145 587
145 603
145 609
145 636
145 644
145 393
145 179
145 157
145 830
145 818
145 814
145 568
145 631
145 974
145 214
145 757
145 151
145 221
145 741
145 264
145 851
145 860
145 872
145 418
145 469
145 355
145 941
146 550
146 551
146 569
146 576
146 587
146 603
146 623
146 754
146 494
146 221
146 557
146 296
146 907
146 936
146 259
146 151
146 169
146 187
146 264
146 314
146 851
146 418
146 521
147 418
147 726
147 577
147 611
147 647
147 652
147 849
147 165
147 176
147 713
147 219
147 755
147 757
147 255
147 780
147 284
147 320
147 852
147 855
147 865
147 870
147 443
147 463
147 471
147 756
147 175
148 630
148 638
148 979
148 330
148 321
148 324
148 811
148 359
148 209
148 225
148 775
148 248
148 402
148 687
148 364
148 995
148 692
148 924
148 155
148 682
148 328
148 341
148 505
148 660
148 912
148 833
148 347
148 336
148 779
148 493
148 444
148 349
148 885
148 207
148 767
148 235
148 378
148 742
148 614
148 900
148 823
148 566
148 323
149 362
149 553
149 297
149 806
149 976
149 300
149 413
149 335
149 383
149 884
149 170
149 454
149 519
149 685
149 366
149 599
149 374
149 201
149 579
149 793
149 339
149 197
149 847
149 382
149 538
149 333
149 822
149 398
149 921
149 984
149 843
149 496
149 791
149 482
149 663
149 231
149 261
149 812
149 307
149 340
149 878
149 435
149 495
150 541
150 552
150 566
150 761
150 820
150 653
150 892
150 202
150 459
150 978
150 358
150 298
150 626
150 212
150 743
150 691
150 313
150 243
150 733
150 699
150 731
150 629
150 159
150 678
150 707
150 233
150 749
150 252
150 253
150 792
150 797
150 816
150 961
150 994
150 336
150 567
151 550
151 564
151 587
151 623
151 636
151 631
151 590
151 467
151 208
151 264
151 221
151 936
151 434
151 856
151 218
151 367
151 314
151 603
151 754
151 722
151 296
151 169
151 830
151 213
151 318
151 823
151 825
151 388
151 672
151 569
151 889
151 408
151 157
151 674
151 494
151 818
151 740
151 195
151 179
151 741
151 926
151 557
151 285
151 609
151 804
151 907
151 974
151 872
151 881
151 484
151 731
151 576
151 888
151 393
151 851
151 860
151 430
151 764
151 187
151 814
151 395
151 803
151 292
151 580
151 621
151 930
151 663
151 848
152 611
152 647
152 704
152 655
152 870
152 443
152 890
152 254
152 528
152 958
152 483
152 182
152 189
152 559
152 176
152 714
152 219
152 255
152 258
152 275
152 284
152 852
152 855
152 865
152 463
152 215
152 170
153 611
153 647
153 655
153 657
153 449
153 973
153 785
153 985
153 757
153 320
153 461
153 332
153 327
153 532
153 840
153 176
153 219
153 254
153 255
153 284
153 852
153 855
153 870
153 415
153 443
153 471
153 257
154 566
154 626
154 653
154 945
154 313
154 459
154 691
154 253
154 312
154 215
154 159
154 689
154 181
154 202
154 749
154 237
154 243
154 792
154 797
154 319
154 697
154 438
154 277
155 924
155 692
155 789
155 886
155 779
155 909
155 660
155 918
155 505
155 800
155 402
155 638
155 885
155 248
155 511
155 861
155 349
155 866
155 756
155 341
155 305
155 364
155 328
155 330
155 336
155 767
155 775
155 914
155 682
155 500
155 235
155 347
155 209
155 225
155 359
155 493
155 324
155 995
155 928
155 323
155 630
155 409
155 634
155 687
155 833
155 811
155 912
155 573
155 444
155 207
155 988
155 732
155 270
155 929
155 170
155 285
155 795
155 847
156 188
156 515
156 267
156 530
156 363
156 379
156 810
156 537
156 635
156 352
156 546
156 744
156 895
156 983
156 607
156 183
156 963
156 177
156 440
156 186
156 717
156 472
156 506
156 510
156 799
157 551
157 576
157 636
157 221
157 484
157 467
157 218
157 741
157 851
157 975
157 187
157 264
157 314
157 903
157 495
158 988
158 175
158 950
158 598
158 619
158 858
158 702
158 439
158 165
158 841
158 354
158 357
158 481
159 514
159 877
159 202
159 816
159 978
159 301
159 698
159 797
159 991
159 334
159 212
159 226
159 313
159 566
159 233
159 395
159 298
159 397
159 552
159 358
159 241
159 286
159 938
159 720
159 253
159 749
159 319
159 707
159 733
159 412
159 994
159 689
159 237
159 312
159 892
159 243
159 691
159 931
159 252
159 831
159 945
159 792
159 181
159 653
159 350
159 820
159 459
159 458
159 541
159 641
159 409
159 547
159 199
159 228
159 617
159 238
160 851
160 317
160 646
160 348
160 717
160 630
160 682
160 209
160 789
160 796
160 505
160 511
161 623
161 965
161 526
161 670
161 671
161 986
161 989
161 167
161 224
161 268
161 311
161 990
161 721
161 283
161 369
161 959
161 675
161 173
161 175
161 192
161 196
161 710
161 723
161 739
161 246
161 257
161 782
161 795
161 299
161 836
161 954
161 487
162 532
162 533
162 581
162 595
162 648
162 802
162 168
162 693
162 183
162 708
162 210
162 220
162 263
162 829
162 838
162 862
162 373
162 420
162 441
162 965
163 253
163 526
163 670
163 196
163 346
163 989
163 783
163 758
163 839
163 675
163 774
163 600
163 268
163 716
163 845
163 273
163 361
163 998
163 468
163 287
163 281
163 795
163 584
163 979
163 828
163 723
163 224
163 739
163 246
163 257
163 781
163 782
163 299
163 817
163 954
163 487
164 315
164 586
164 863
164 864
164 376
164 641
164 642
164 828
164 705
164 684
164 517
164 719
164 477
164 242
164 624
164 972
164 729
165 314
165 577
165 611
165 254
165 403
165 973
165 713
165 985
165 528
165 757
165 274
165 905
165 443
165 785
165 421
165 447
165 900
165 783
165 932
165 832
165 188
165 704
165 216
165 255
165 852
165 855
165 865
165 949
165 167
166 577
166 651
166 657
166 647
166 692
166 757
166 254
166 255
166 773
166 780
166 852
166 870
166 908
166 415
166 443
166 463
166 471
166 724
166 515
167 269
167 670
167 671
167 675
167 277
167 526
167 491
167 450
167 600
167 192
167 990
167 238
167 696
167 214
167 739
167 257
167 784
167 281
167 795
167 299
167 817
167 836
167 353
167 867
167 934
167 954
167 422
168 533
168 567
168 581
168 648
168 658
168 680
168 925
168 849
168 963
168 960
168 525
168 441
168 345
168 977
168 759
168 595
168 941
168 771
168 309
168 482
168 708
168 838
168 210
168 205
168 965
168 656
168 462
168 263
168 584
168 275
168 532
168 220
168 763
168 799
168 373
169 551
169 636
169 644
169 936
169 888
169 741
169 872
169 814
169 318
169 674
169 221
169 187
169 568
169 609
169 907
169 179
169 550
169 818
169 830
169 208
169 424
169 408
169 823
169 388
169 727
169 846
169 980
169 820
169 722
169 213
169 731
169 740
169 264
169 393
169 418
169 255
169 777
169 361
169 685
169 676
170 255
170 570
170 775
170 519
170 843
170 663
170 302
170 685
170 282
170 770
170 333
170 451
170 261
170 201
170 984
170 946
170 832
170 806
170 446
170 197
170 499
170 422
170 297
170 452
170 435
170 411
170 968
170 509
170 497
170 495
170 339
170 950
170 538
170 488
170 502
170 827
170 398
170 308
170 460
170 184
170 781
170 200
170 322
170 876
171 520
171 304
171 326
171 864
171 617
171 642
171 643
171 955
171 586
171 232
171 602
171 466
171 613
171 242
171 376
171 655
171 980
171 727
171 477
171 312
171 560
171 183
171 335
172 587
172 619
172 639
172 664
172 841
172 292
172 439
172 709
172 481
172 966
172 543
172 766
172 702
172 786
172 858
172 354
173 600
173 670
173 675
173 479
173 283
173 277
173 782
173 821
173 546
173 696
173 214
173 224
173 739
173 239
173 795
173 817
173 346
174 187
174 443
174 231
174 606
174 633
174 664
174 676
174 343
174 280
174 308
174 384
174 760
174 688
174 457
174 897
174 702
174 222
174 737
174 292
174 354
174 481
175 477
175 792
175 291
175 403
175 560
175 767
175 670
175 942
175 526
175 845
175 696
175 239
175 257
175 782
175 783
175 784
175 795
175 287
175 299
175 817
175 346
175 934
175 487
176 611
176 987
176 958
176 204
176 483
176 785
176 327
176 404
176 421
176 188
176 857
176 332
176 657
176 449
176 306
176 865
176 859
176 807
176 272
176 652
176 577
176 275
176 516
176 890
176 905
176 401
176 809
176 463
176 320
176 189
176 258
176 747
176 735
176 714
176 528
176 216
176 371
176 193
176 755
176 855
176 649
176 447
176 757
176 219
176 773
176 274
176 471
176 985
176 852
176 647
176 461
176 778
176 908
176 443
176 973
176 780
176 695
176 704
176 910
176 655
176 416
176 651
176 284
176 255
176 582
176 271
176 703
176 530
176 419
176 412
176 184
176 505
176 537
176 713
176 870
176 180
176 878
177 748
177 515
177 267
177 530
177 805
177 588
177 352
177 363
177 677
177 423
177 426
177 711
177 777
177 607
177 744
177 618
177 895
177 472
177 982
177 718
177 425
177 717
177 970
177 766
177 186
177 713
177 235
177 366
177 440
177 211
177 510
178 221
178 575
178 515
178 777
178 267
178 547
178 805
178 363
178 426
178 717
178 718
178 766
178 731
178 482
178 186
178 465
178 510
178 481
179 587
179 631
179 636
179 644
179 221
179 379
179 187
179 264
179 818
179 314
179 393
179 435
180 848
180 768
180 522
180 527
180 548
180 561
180 819
180 565
180 575
180 355
180 360
180 622
180 891
180 896
180 400
180 687
180 184
180 753
180 244
181 541
181 514
181 991
181 931
181 397
181 978
181 761
181 412
181 994
181 252
181 419
181 707
181 253
181 237
181 395
181 816
181 892
181 313
181 733
181 241
181 286
181 820
181 350
181 532
181 880
181 275
181 749
181 243
181 797
181 319
181 842
181 657
181 429
181 375
182 512
182 932
182 528
182 577
182 611
182 836
182 735
182 255
182 852
182 855
182 865
182 870
182 443
182 463
182 635
183 872
183 533
183 581
183 595
183 693
183 525
183 597
183 925
183 648
183 567
183 941
183 441
183 482
183 230
183 474
183 963
183 665
183 895
183 708
183 210
183 220
183 763
183 263
183 799
183 838
183 373
183 965
183 462
184 557
184 615
184 819
184 826
184 601
184 362
184 575
184 953
184 972
184 360
184 456
184 508
184 883
184 490
184 622
184 753
184 244
184 565
184 448
184 896
184 768
184 874
184 748
184 870
184 507
184 502
185 695
185 598
185 639
185 664
185 676
185 633
185 841
185 238
185 292
185 427
185 481
185 294
185 409
185 644
185 702
185 732
185 737
185 738
186 318
186 624
186 513
186 588
186 618
186 363
186 378
186 677
186 440
186 546
186 423
186 982
186 472
186 425
186 776
186 589
186 629
186 635
186 940
186 537
186 711
186 501
186 211
186 633
186 631
186 783
186 199
186 789
187 551
187 557
187 569
187 603
187 889
187 872
187 314
187 408
187 467
187 631
187 393
187 722
187 195
187 494
187 860
187 754
187 823
187 741
187 576
187 888
187 740
187 344
187 731
187 218
187 851
187 750
187 434
187 825
187 830
187 213
187 818
187 672
187 418
187 296
187 564
187 221
187 764
187 577
187 364
187 476
187 264
187 406
188 577
188 657
188 735
188 219
188 713
188 655
188 483
188 275
188 445
188 449
188 327
188 255
188 809
188 471
188 516
188 204
188 447
188 714
188 415
188 193
188 807
188 785
188 778
188 461
188 910
188 403
188 421
188 855
188 274
188 416
188 463
188 216
188 332
188 647
188 870
188 900
188 780
188 315
188 209
188 564
188 625
188 258
188 284
188 865
188 443
188 348
189 577
189 611
189 652
189 631
189 255
189 778
189 809
189 852
189 865
189 870
189 415
189 443
190 393
190 788
190 577
190 254
190 693
190 553
190 679
190 935
190 876
190 495
190 770
190 374
190 282
190 685
190 422
190 300
190 878
190 488
190 806
190 968
190 407
190 538
190 392
190 261
190 428
190 322
190 843
190 509
190 502
190 309
190 856
190 764
190 281
190 200
190 201
190 812
190 335
190 340
190 398
190 435
191 529
191 728
191 670
191 671
191 898
191 281
191 479
191 487
191 989
191 721
191 986
191 492
191 450
191 465
191 490
191 723
191 224
191 739
191 239
191 246
191 257
191 266
191 268
191 795
191 299
191 817
191 346
191 361
191 954
191 261
192 517
192 534
192 748
192 526
192 670
192 746
192 835
192 555
192 450
192 710
192 782
192 989
192 295
192 836
192 706
192 212
192 224
192 739
192 246
192 769
192 257
192 268
192 795
192 299
192 817
192 346
192 954
192 479
192 487
193 647
193 651
193 704
193 275
193 372
193 757
193 254
193 255
193 809
193 320
193 855
193 859
193 865
193 443
193 694
193 660
194 908
194 670
194 696
194 214
194 986
194 710
194 531
194 769
194 758
194 287
194 520
194 823
194 736
194 739
194 239
194 268
194 783
194 795
194 299
194 836
194 346
194 934
194 954
194 479
194 998
194 491
194 509
195 550
195 551
195 636
195 644
195 430
195 208
195 741
195 418
195 423
195 722
195 213
195 264
195 851
195 344
195 872
195 393
196 230
196 531
196 670
196 696
196 450
196 339
196 736
196 739
196 239
196 257
196 281
196 795
196 295
196 299
196 817
196 836
196 346
196 365
196 934
196 954
196 479
197 741
197 647
197 704
197 438
197 519
197 579
197 599
197 392
197 822
197 282
197 701
197 302
197 451
197 303
197 422
197 984
197 843
197 878
197 806
197 993
197 865
197 492
197 737
197 231
197 340
197 398
197 446
197 495
198 326
198 586
198 887
198 642
198 643
198 684
198 863
198 591
198 641
198 873
198 980
198 727
198 719
198 232
198 844
198 718
198 477
198 733
198 358
198 694
198 293
198 503
199 674
199 513
199 766
199 805
199 363
199 677
199 423
199 426
199 635
199 530
199 940
199 752
199 645
199 810
199 472
199 895
199 506
199 629
199 983
199 353
199 821
199 465
199 519
200 553
200 579
200 599
200 685
200 946
200 843
200 519
200 663
200 993
200 339
200 282
200 302
200 499
200 428
200 489
200 446
200 935
200 335
200 832
200 812
200 261
200 840
200 307
200 592
200 452
200 497
200 806
200 290
200 322
200 422
200 876
200 392
200 374
200 201
200 413
200 340
200 231
200 984
200 509
200 878
200 822
200 435
200 454
200 847
200 968
200 407
200 538
200 398
200 502
200 411
200 770
200 451
200 701
200 300
200 495
200 333
200 488
200 793
200 366
200 827
200 325
200 208
200 473
200 355
200 720
200 859
200 976
201 519
201 538
201 553
201 592
201 333
201 950
201 489
201 679
201 407
201 847
201 488
201 984
201 793
201 428
201 452
201 499
201 451
201 303
201 509
201 497
201 339
201 435
201 322
201 495
201 454
201 976
201 502
201 398
201 935
201 822
201 579
201 411
201 884
201 886
201 910
201 547
201 676
201 574
201 302
201 827
201 335
201 340
201 876
201 878
201 921
202 541
202 566
202 678
202 689
202 698
202 395
202 412
202 319
202 707
202 945
202 212
202 931
202 938
202 820
202 313
202 849
202 580
202 243
202 792
202 286
202 994
202 874
202 949
202 209
203 613
203 611
203 267
203 696
203 736
203 783
203 526
203 990
203 782
203 239
203 989
203 605
203 346
203 277
203 602
203 721
203 723
203 739
203 246
203 257
203 281
203 795
203 299
203 817
203 839
203 361
203 954
203 998
203 487
203 491
204 528
204 577
204 611
204 651
204 714
204 219
204 757
204 254
204 778
204 275
204 852
204 865
204 870
204 415
204 443
204 471
204 795
205 318
205 719
205 533
205 567
205 581
205 648
205 669
205 708
205 661
205 962
205 220
205 474
205 228
205 583
205 309
205 595
205 759
205 680
205 547
205 951
205 210
205 230
205 263
205 862
205 373
205 941
205 965
205 867
206 529
206 532
206 554
206 572
206 615
206 703
206 951
206 486
206 240
206 765
206 726
206 730
206 734
206 270
206 815
206 310
206 317
206 329
206 842
206 331
206 848
206 255
206 837
206 417
207 329
207 682
207 833
207 330
207 928
207 638
207 756
207 373
207 209
207 505
207 639
208 551
208 576
208 636
208 674
208 814
208 631
208 740
208 623
208 557
208 731
208 926
208 741
208 494
208 889
208 750
208 221
208 825
208 970
208 993
208 754
208 264
208 314
208 851
208 393
208 540
208 244
209 823
209 999
209 248
209 687
209 789
209 305
209 347
209 692
209 634
209 493
209 885
209 861
209 800
209 918
209 638
209 924
209 914
209 779
209 833
209 409
209 330
209 573
209 444
209 336
209 324
209 321
209 909
209 995
209 775
209 500
209 630
209 235
209 756
209 617
209 318
209 339
209 396
209 323
209 454
210 423
210 533
210 544
210 581
210 658
210 665
210 708
210 420
210 228
210 763
210 482
210 925
210 669
210 567
210 871
210 829
210 230
210 399
210 963
210 563
210 648
210 977
210 759
210 960
210 661
210 771
210 799
210 838
210 345
210 656
210 220
210 525
210 849
210 263
210 295
210 770
210 968
210 350
210 268
210 397
210 373
210 965
211 252
211 622
211 513
211 515
211 776
211 267
211 766
211 530
211 546
211 363
211 895
211 677
211 423
211 425
211 506
211 465
211 379
211 510
211 537
211 501
211 378
211 785
211 264
211 716
211 599
212 689
212 626
212 831
212 541
212 938
212 226
212 733
212 985
212 749
212 237
212 243
212 792
212 797
212 286
212 298
212 319
212 902
213 551
213 576
213 609
213 644
213 722
213 264
213 881
213 603
213 623
213 823
213 434
213 568
213 484
213 424
213 550
213 674
213 889
213 927
213 765
213 444
213 221
213 740
213 314
213 851
213 393
213 418
213 574
213 842
213 443
214 722
214 582
214 729
214 670
214 671
214 696
214 723
214 758
214 491
214 295
214 817
214 555
214 784
214 934
214 795
214 600
214 774
214 716
214 898
214 273
214 989
214 393
214 980
214 636
214 739
214 239
214 246
214 257
214 268
214 783
214 299
214 835
214 836
214 346
214 954
215 524
215 534
215 559
215 582
215 593
215 632
215 694
215 560
215 683
215 930
215 464
215 406
215 624
215 386
215 724
215 276
215 882
215 372
215 948
215 504
215 613
215 519
215 342
215 348
215 351
215 369
215 911
215 949
215 438
215 957
215 793
216 577
216 611
216 655
216 463
216 447
216 258
216 404
216 987
216 908
216 429
216 284
216 880
216 721
216 228
216 219
216 254
216 255
216 852
216 855
216 865
216 870
216 443
217 842
217 859
217 524
217 534
217 559
217 560
217 578
217 582
217 624
217 640
217 697
217 293
217 837
217 342
217 369
217 385
217 903
217 920
217 414
217 417
217 431
217 949
217 438
218 569
218 750
218 830
218 484
218 424
218 936
218 623
218 644
218 551
218 860
218 418
218 872
218 264
218 672
218 636
218 804
218 244
218 613
218 851
218 393
218 514
218 451
219 651
219 516
219 910
219 929
219 865
219 306
219 657
219 463
219 416
219 528
219 695
219 655
219 447
219 445
219 415
219 747
219 870
219 807
219 778
219 404
219 332
219 987
219 449
219 371
219 254
219 275
219 908
219 761
219 725
219 774
219 261
219 799
219 255
219 320
219 852
219 443
219 589
219 775
220 391
220 533
220 544
220 567
220 581
220 648
220 669
220 680
220 708
220 849
220 962
220 963
220 597
220 563
220 474
220 862
220 610
220 420
220 482
220 656
220 728
220 693
220 525
220 759
220 977
220 799
220 263
220 941
220 228
220 583
220 871
220 919
220 981
220 595
220 309
220 249
220 381
220 380
220 960
220 345
220 667
220 441
220 379
220 364
220 492
220 997
220 916
220 832
220 829
220 838
220 373
220 965
221 551
221 564
221 587
221 636
221 722
221 296
221 285
221 494
221 872
221 557
221 576
221 731
221 318
221 830
221 430
221 881
221 388
221 367
221 408
221 301
221 663
221 909
221 833
221 741
221 264
221 314
221 851
221 393
221 700
221 498
221 403
221 369
221 438
221 505
221 783
221 858
222 938
222 348
222 669
222 230
222 633
222 664
222 732
222 786
222 481
222 427
222 933
222 686
222 959
222 354
222 281
222 292
222 439
223 873
223 517
223 523
223 529
223 532
223 542
223 543
223 572
223 574
223 584
223 615
223 666
223 726
223 473
223 512
223 703
223 540
223 240
223 815
223 310
223 842
223 848
223 988
223 380
223 381
223 280
224 660
224 670
224 671
224 277
224 273
224 600
224 839
224 526
224 710
224 783
224 942
224 239
224 453
224 266
224 675
224 746
224 784
224 934
224 450
224 295
224 821
224 281
224 468
224 913
224 384
224 786
224 739
224 246
224 769
224 268
224 782
224 795
224 287
224 299
224 836
224 353
224 954
224 998
224 487
225 931
225 372
225 573
225 682
225 687
225 692
225 656
225 909
225 402
225 505
226 568
226 881
226 552
226 626
226 678
226 689
226 698
226 733
226 514
226 666
226 237
226 243
226 253
226 792
226 797
226 298
226 978
226 994
226 920
226 878
226 495
227 240
227 534
227 559
227 560
227 582
227 593
227 612
227 640
227 694
227 956
227 410
227 259
227 697
227 489
227 748
227 790
227 369
227 372
227 375
227 385
227 386
227 911
227 406
227 920
227 431
227 438
228 778
228 533
228 581
228 595
228 661
228 669
228 680
228 708
228 355
228 277
228 230
228 763
228 799
228 829
228 838
228 862
228 373
228 381
228 965
229 466
229 233
229 524
229 534
229 559
229 582
229 593
229 612
229 624
229 640
229 694
229 712
229 915
229 957
229 406
229 735
229 748
229 293
229 348
229 351
229 369
229 372
229 385
229 386
229 911
229 431
229 949
229 438
229 263
230 563
230 581
230 648
230 665
230 693
230 708
230 373
230 977
230 544
230 771
230 399
230 656
230 965
230 381
230 829
230 441
230 862
230 799
230 420
230 728
230 249
230 583
230 680
230 960
230 380
230 667
230 689
230 369
230 263
230 838
230 737
231 264
231 285
231 784
231 299
231 592
231 599
231 509
231 302
231 806
231 968
231 827
231 878
231 290
231 282
231 451
231 793
231 303
231 840
231 950
231 876
231 701
231 822
231 847
231 333
231 398
231 489
231 770
231 413
231 663
231 261
231 538
231 300
231 884
231 530
231 517
231 539
231 335
231 340
231 411
231 422
231 435
231 446
232 520
232 864
232 621
232 879
232 643
232 684
232 705
232 477
232 955
232 279
232 828
232 376
232 262
232 854
232 984
232 242
232 651
233 678
233 689
233 397
233 707
233 241
233 931
233 312
233 978
233 419
233 761
233 298
233 595
233 243
233 252
233 253
233 797
233 286
233 831
233 358
233 945
233 852
234 768
234 561
234 819
234 565
234 575
234 355
234 360
234 622
234 891
234 953
234 729
234 236
234 753
234 943
234 448
234 972
234 548
234 725
234 370
234 362
234 527
234 601
234 650
234 896
234 400
234 478
234 388
234 413
234 256
234 244
235 677
235 630
235 634
235 682
235 687
235 248
235 775
235 833
235 341
235 909
235 505
235 633
236 477
236 816
236 611
236 527
236 548
236 561
236 826
236 575
236 580
236 355
236 360
236 362
236 622
236 911
236 439
236 244
236 732
237 455
237 689
237 720
237 733
237 749
237 707
237 301
237 994
237 831
237 938
237 514
237 816
237 298
237 877
237 253
237 312
237 945
237 334
237 653
237 313
237 961
237 691
237 797
237 743
237 892
237 459
237 931
237 252
237 395
237 458
237 412
237 350
237 698
237 566
237 761
237 978
237 991
237 397
237 287
237 431
237 489
237 492
237 719
237 520
237 243
238 521
238 639
238 664
238 702
238 715
238 732
238 738
238 294
238 966
238 476
238 245
238 292
238 858
238 481
239 616
239 652
239 526
239 555
239 670
239 671
239 696
239 723
239 605
239 986
239 453
239 468
239 266
239 346
239 268
239 273
239 782
239 492
239 839
239 675
239 710
239 845
239 758
239 795
239 716
239 769
239 487
239 781
239 998
239 277
239 311
239 365
239 281
239 942
239 990
239 246
239 746
239 774
239 784
239 491
239 817
239 600
239 450
239 721
239 257
239 531
239 879
239 249
239 910
239 369
239 977
239 519
239 836
239 954
240 529
240 532
240 572
240 615
240 625
240 700
240 703
240 734
240 904
240 584
240 356
240 772
240 460
240 742
240 310
240 726
240 265
240 922
240 496
240 442
240 329
240 654
240 842
240 270
240 498
240 518
240 897
240 927
240 291
240 988
240 554
240 902
240 899
240 627
240 260
240 574
240 971
240 543
240 834
240 901
240 540
240 396
240 337
240 473
240 562
240 913
240 730
240 338
240 894
240 787
240 815
240 512
240 666
240 662
240 906
240 517
240 436
240 523
240 788
240 916
240 874
240 923
240 486
240 542
240 556
240 317
240 256
240 365
240 576
240 440
240 618
240 284
240 993
240 560
240 363
241 541
241 552
241 566
241 626
241 653
241 689
241 877
241 678
241 938
241 350
241 319
241 838
241 988
241 243
241 253
241 792
241 286
241 298
242 520
242 326
242 864
242 617
242 643
242 705
242 980
242 727
242 477
242 316
242 455
242 887
242 602
242 480
242 828
242 873
242 376
242 879
242 684
242 955
242 641
242 797
242 252
242 397
242 945
242 479
242 598
243 514
243 733
243 978
243 792
243 820
243 892
243 626
243 541
243 301
243 319
243 991
243 691
243 720
243 252
243 653
243 312
243 831
243 743
243 298
243 350
243 459
243 313
243 412
243 698
243 707
243 689
243 931
243 253
243 334
243 358
243 797
243 961
243 816
243 877
243 945
243 395
243 397
243 994
243 566
243 419
243 678
243 836
243 730
243 981
243 912
243 265
243 576
243 286
243 291
243 443
243 833
244 908
244 293
244 819
244 826
244 575
244 580
244 601
244 360
244 622
244 883
244 896
244 699
244 751
244 485
244 390
244 637
244 972
244 355
244 729
244 490
244 400
244 650
244 549
244 387
244 507
244 725
244 362
244 565
244 370
244 527
244 944
244 448
244 943
244 432
244 522
244 456
244 768
244 460
244 716
245 330
245 598
245 639
245 664
245 686
245 702
245 292
245 592
245 580
245 280
245 858
245 354
245 357
245 439
246 560
246 670
246 696
246 716
246 739
246 675
246 361
246 782
246 746
246 839
246 487
246 758
246 769
246 479
246 288
246 781
246 795
246 311
246 835
246 845
246 268
246 555
246 266
246 817
246 942
246 277
246 990
246 821
246 453
246 299
246 710
246 468
246 450
246 365
246 346
246 600
246 723
246 989
246 756
246 826
246 905
246 396
246 257
246 281
246 836
246 867
246 954
246 998
247 262
247 520
247 279
247 304
247 828
247 326
247 864
247 873
247 887
247 643
247 684
247 980
247 251
248 874
248 620
248 561
248 682
248 687
248 341
248 323
248 491
248 683
248 775
248 789
248 330
248 500
248 505
249 425
249 918
249 533
249 544
249 581
249 583
249 595
249 610
249 658
249 669
249 680
249 708
249 763
249 799
249 838
249 373
249 381
249 941
249 963
249 965
250 534
250 558
250 559
250 560
250 593
250 640
250 683
250 697
250 964
250 712
250 578
250 745
250 391
250 837
250 813
250 564
250 264
250 289
250 348
250 869
250 372
250 911
250 406
250 438
250 957
251 551
251 316
251 586
251 873
251 617
251 887
251 641
251 684
251 980
251 824
251 262
251 879
251 445
251 920
251 961
251 755
251 422
252 552
252 653
252 689
252 733
252 313
252 831
252 991
252 286
252 458
252 922
252 253
252 792
252 797
252 298
252 961
252 978
252 940
252 435
253 514
253 552
253 689
253 698
253 733
253 792
253 397
253 459
253 412
253 334
253 761
253 743
253 301
253 458
253 691
253 749
253 395
253 820
253 978
253 358
253 720
253 707
253 678
253 892
253 961
253 541
253 566
253 350
253 405
253 681
253 661
253 298
253 319
253 386
253 302
254 926
254 577
254 611
254 647
254 695
254 443
254 447
254 371
254 855
254 258
254 471
254 910
254 652
254 401
254 773
254 429
254 865
254 973
254 461
254 857
254 404
254 272
254 985
254 785
254 809
254 757
254 852
254 483
254 421
254 463
254 755
254 870
254 880
254 900
254 890
254 449
254 416
254 905
254 332
254 445
254 255
254 807
254 306
254 929
254 584
254 730
254 525
254 320
255 577
255 651
255 714
255 755
255 704
255 778
255 332
255 973
255 275
255 404
255 852
255 421
255 855
255 403
255 652
255 443
255 757
255 471
255 987
255 747
255 306
255 859
255 657
255 649
255 880
255 401
255 807
255 900
255 516
255 695
255 910
255 258
255 905
255 284
255 445
255 461
255 985
255 870
255 647
255 809
255 785
255 272
255 929
255 274
255 857
255 890
255 611
255 865
255 447
255 463
255 773
255 655
255 780
255 908
255 415
255 371
255 525
255 823
255 602
255 988
255 769
255 374
256 529
256 532
256 542
256 543
256 615
256 625
256 703
256 730
256 329
256 356
256 919
256 837
256 269
256 270
256 788
256 310
256 317
256 834
256 842
256 331
256 848
256 874
256 932
256 975
256 988
256 372
257 397
257 748
257 670
257 671
257 696
257 736
257 835
257 346
257 739
257 600
257 934
257 268
257 266
257 710
257 605
257 288
257 526
257 365
257 836
257 783
257 283
257 898
257 361
257 845
257 723
257 942
257 998
257 758
257 281
257 531
257 492
257 774
257 990
257 555
257 986
257 784
257 487
257 817
257 782
257 867
257 675
257 295
257 954
257 479
257 850
257 721
257 273
257 299
257 781
257 277
257 839
257 491
257 287
257 989
257 311
257 468
257 453
257 795
257 648
257 352
257 269
257 530
257 436
257 993
257 880
257 770
258 788
258 577
258 611
258 713
258 714
258 327
258 865
258 416
258 890
258 424
258 260
258 852
258 443
258 637
259 576
259 792
259 524
259 534
259 535
259 559
259 560
259 593
259 624
259 694
259 351
259 697
259 907
259 692
259 289
259 813
259 348
259 369
259 372
259 385
259 386
259 391
259 911
259 438
259 957
259 992
260 512
260 542
260 615
260 726
260 730
260 584
260 772
260 540
260 775
260 291
260 317
260 842
260 848
260 356
260 874
260 922
260 932
260 988
261 887
261 534
261 417
261 599
261 297
261 374
261 452
261 454
261 495
261 827
261 832
261 340
261 878
261 382
261 921
261 509
262 828
262 955
262 466
262 591
262 673
262 613
262 690
262 741
262 863
262 864
262 642
262 643
262 684
262 980
262 727
262 360
262 352
262 663
262 354
263 525
263 533
263 544
263 581
263 658
263 669
263 693
263 708
263 977
263 965
263 759
263 597
263 583
263 567
263 441
263 862
263 665
263 960
263 482
263 799
263 610
263 728
263 345
263 905
263 470
263 395
263 838
263 373
263 688
263 439
264 551
264 564
264 568
264 623
264 569
264 936
264 722
264 467
264 494
264 484
264 344
264 672
264 609
264 418
264 576
264 393
264 367
264 754
264 550
264 741
264 434
264 907
264 557
264 318
264 888
264 851
264 750
264 631
264 872
264 881
264 430
264 764
264 636
264 856
264 825
264 731
264 818
264 926
264 814
264 314
264 296
264 408
264 285
264 587
264 590
264 889
264 644
264 424
264 830
264 860
264 388
264 674
264 374
264 641
264 463
264 503
264 428
264 655
264 525
264 426
265 529
265 532
265 540
265 584
265 615
265 625
265 726
265 730
265 734
265 627
265 473
265 662
265 848
265 901
265 543
265 539
265 742
265 356
265 574
265 788
265 659
265 460
265 882
265 961
265 269
265 329
265 842
265 337
265 874
265 913
265 975
265 988
265 583
265 670
266 887
266 341
266 670
266 696
266 739
266 817
266 784
266 710
266 283
266 273
266 723
266 954
266 769
266 898
266 934
266 620
266 846
266 268
266 782
266 281
266 795
266 836
266 346
266 867
266 998
267 776
267 588
267 645
267 363
267 425
267 618
267 378
267 379
267 515
267 766
267 718
267 711
267 677
267 940
267 426
267 546
267 510
267 501
267 970
267 547
267 752
267 440
267 352
267 629
267 717
267 506
267 777
267 810
267 952
267 537
267 465
267 571
267 895
267 607
267 589
267 635
267 983
267 750
267 961
267 486
267 565
267 692
267 805
268 438
268 600
268 670
268 696
268 739
268 450
268 934
268 716
268 277
268 491
268 605
268 746
268 839
268 990
268 311
268 555
268 781
268 898
268 723
268 299
268 353
268 453
268 989
268 998
268 821
268 817
268 479
268 954
268 526
268 531
268 281
268 986
268 487
268 710
268 836
268 671
268 850
268 795
268 783
268 288
268 361
268 467
268 722
268 400
268 996
268 393
268 394
268 295
268 835
269 529
269 532
269 539
269 543
269 615
269 616
269 625
269 662
269 703
269 726
269 730
269 734
269 927
269 654
269 899
269 853
269 356
269 517
269 498
269 442
269 975
269 542
269 486
269 473
269 988
269 338
269 922
269 700
269 834
269 874
269 556
269 496
269 666
269 913
269 512
269 659
269 329
269 270
269 436
269 396
269 518
269 906
269 802
269 742
269 842
269 901
269 572
269 584
269 562
269 848
269 574
269 310
269 337
269 904
269 833
269 577
269 769
269 839
269 687
269 582
269 932
270 523
270 529
270 572
270 585
270 666
270 730
270 539
270 512
270 951
270 916
270 291
270 654
270 874
270 543
270 815
270 894
270 486
270 899
270 574
270 906
270 897
270 902
270 742
270 387
270 362
270 785
270 834
270 329
270 842
270 848
270 932
270 988
270 372
270 406
270 340
271 743
271 529
271 562
271 572
271 615
271 616
271 726
271 730
271 734
271 742
271 834
271 842
271 848
271 356
271 932
271 975
271 988
271 622
272 824
272 577
272 651
272 657
272 714
272 757
272 320
272 852
272 865
272 415
272 443
272 463
272 372
273 972
273 555
273 696
273 739
273 746
273 783
273 835
273 942
273 986
273 353
273 782
273 671
273 736
273 898
273 531
273 346
273 295
273 646
273 865
273 575
273 795
273 283
273 287
273 288
273 299
273 934
273 954
274 577
274 611
274 651
274 713
274 714
274 852
274 785
274 463
274 865
274 443
274 880
274 652
274 332
274 494
274 320
274 855
274 870
274 908
275 577
275 713
275 714
275 757
275 747
275 461
275 463
275 809
275 728
275 522
275 320
275 852
275 855
275 865
275 870
275 443
275 372
275 711
275 968
276 524
276 545
276 559
276 560
276 593
276 596
276 612
276 668
276 706
276 748
276 727
276 837
276 348
276 369
276 386
276 391
276 911
276 920
276 414
276 431
276 438
276 957
276 469
277 649
277 911
277 526
277 670
277 696
277 739
277 605
277 783
277 890
277 281
277 795
277 835
277 836
277 487
278 494
278 431
278 533
278 544
278 581
278 648
278 656
278 665
278 708
278 799
278 829
278 838
278 862
278 373
278 381
278 420
278 965
278 281
279 828
279 520
279 980
279 641
279 466
279 642
279 684
279 879
279 304
279 613
279 397
279 621
279 705
279 477
279 348
280 547
280 708
280 598
280 702
280 738
280 868
280 481
280 791
280 639
280 308
280 439
280 694
280 292
280 354
281 317
281 903
281 349
281 526
281 675
281 696
281 739
281 287
281 600
281 769
281 821
281 723
281 934
281 784
281 898
281 716
281 839
281 453
281 758
281 670
281 468
281 850
281 736
281 283
281 845
281 781
281 774
281 450
281 671
281 531
281 783
281 836
281 867
281 555
281 835
281 361
281 479
281 995
281 632
281 896
281 541
281 304
281 795
281 817
281 353
281 954
282 369
282 440
282 519
282 538
282 770
282 579
282 454
282 553
282 685
282 496
282 949
282 812
282 832
282 322
282 340
282 878
282 374
282 435
282 495
282 509
283 969
283 526
283 670
283 696
283 721
283 739
283 782
283 784
283 795
283 295
283 774
283 453
283 746
283 898
283 716
283 810
283 730
283 835
283 346
283 954
283 487
284 577
284 611
284 651
284 778
284 973
284 713
284 747
284 910
284 865
284 657
284 449
284 757
284 900
284 327
284 647
284 447
284 755
284 852
284 890
284 445
284 538
284 894
284 320
284 855
284 870
284 415
284 443
284 346
284 374
285 550
285 551
285 564
285 623
285 722
285 740
285 936
285 974
285 926
285 388
285 686
285 976
285 314
285 872
285 367
285 393
285 346
286 541
286 653
286 689
286 733
286 761
286 792
286 797
286 931
286 552
286 397
286 831
286 707
286 743
286 298
286 749
286 892
286 412
286 945
286 459
286 698
286 877
286 678
286 458
286 938
286 301
286 405
286 550
286 558
286 961
286 994
286 369
286 561
286 355
287 883
287 526
287 670
287 739
287 769
287 795
287 989
287 716
287 743
287 299
287 954
287 487
287 950
287 509
288 670
288 671
288 696
288 739
288 784
288 795
288 346
288 998
288 375
288 299
288 817
288 353
288 954
289 524
289 534
289 559
289 560
289 582
289 593
289 694
289 748
289 790
289 535
289 594
289 893
289 949
289 372
289 712
289 389
289 869
289 967
289 438
289 406
289 668
289 417
289 813
289 369
289 685
289 346
289 625
289 293
289 348
289 385
289 386
289 911
290 911
290 519
290 553
290 592
290 599
290 679
290 488
290 428
290 452
290 383
290 946
290 822
290 700
290 322
290 335
290 340
290 878
290 398
291 529
291 532
291 572
291 616
291 700
291 726
291 730
291 734
291 540
291 310
291 848
291 787
291 539
291 496
291 988
291 356
291 923
291 329
291 436
291 842
291 834
291 894
291 338
291 317
291 337
291 975
291 742
291 641
291 809
291 874
291 932
291 688
292 494
292 742
292 777
292 420
292 521
292 702
292 715
292 939
292 858
292 676
292 786
292 709
292 737
292 841
292 384
292 606
292 688
292 959
292 868
292 343
292 798
292 794
292 803
292 791
292 354
292 760
292 633
292 388
292 994
292 339
292 788
292 481
293 524
293 545
293 559
293 560
293 582
293 593
293 596
293 748
293 790
293 801
293 937
293 410
293 949
293 640
293 372
293 999
293 469
293 762
293 624
293 406
293 694
293 608
293 389
293 394
293 368
293 967
293 964
293 712
293 969
293 808
293 938
293 348
293 869
293 369
293 385
293 386
293 438
293 957
293 992
293 530
293 341
294 911
294 664
294 702
294 715
294 732
294 939
294 681
294 760
294 915
294 354
294 481
295 385
295 670
295 671
295 696
295 723
295 783
295 605
295 453
295 311
295 531
295 831
295 628
295 836
295 346
295 353
295 361
295 365
295 934
295 487
296 551
296 587
296 603
296 644
296 731
296 814
296 818
296 314
296 851
296 872
296 393
296 434
296 957
297 713
297 579
297 812
297 832
297 335
297 340
297 876
297 878
297 435
297 509
298 566
298 626
298 792
298 419
298 978
298 301
298 541
298 678
298 820
298 514
298 334
298 358
298 991
298 689
298 691
298 961
298 877
298 698
298 749
298 397
298 831
298 720
298 816
298 707
298 313
298 459
298 994
298 395
298 945
298 412
298 733
298 931
298 840
298 411
298 894
298 958
298 950
298 586
299 531
299 555
299 769
299 795
299 346
299 989
299 353
299 365
299 311
299 468
299 781
299 479
299 998
299 758
299 716
299 954
299 817
299 736
299 605
299 671
299 721
299 492
299 836
299 898
299 696
299 600
299 783
299 710
299 746
299 361
299 774
299 450
299 670
299 723
299 867
299 784
299 510
299 417
299 351
299 956
299 470
299 733
299 487
300 714
300 519
300 599
300 812
300 333
300 884
300 435
300 340
300 827
300 335
300 876
300 878
300 398
300 921
300 495
300 502
300 509
301 626
301 689
301 691
301 698
301 792
301 816
301 831
301 319
301 994
301 542
301 913
301 382
302 659
302 852
302 599
302 685
302 770
302 946
302 993
302 840
302 407
302 374
302 382
302 847
302 984
302 499
302 322
302 600
302 335
302 340
302 876
302 878
302 422
302 435
302 454
302 495
302 509
302 702
302 794
303 632
303 519
303 840
303 663
303 599
303 827
303 832
303 335
303 340
303 878
303 398
303 435
303 451
303 495
303 509
304 591
304 643
304 690
304 980
304 614
304 480
304 873
304 864
304 879
304 376
304 549
304 824
304 828
304 377
304 684
304 719
304 585
304 625
304 414
305 790
305 573
305 630
305 638
305 682
305 687
305 756
305 341
305 918
305 505
306 516
306 611
306 755
306 757
306 478
306 320
306 852
306 855
306 865
306 870
306 403
306 415
306 443
306 471
306 954
306 803
307 519
307 592
307 770
307 509
307 935
307 538
307 411
307 392
307 705
307 832
307 322
307 340
307 876
307 878
307 398
307 422
307 950
307 495
308 731
308 360
308 979
308 521
308 619
308 664
308 702
308 715
308 354
308 481
309 394
309 581
309 648
309 669
309 693
309 708
309 763
309 799
309 838
309 373
309 965
310 879
310 529
310 532
310 554
310 615
310 730
310 802
310 616
310 317
310 897
310 572
310 512
310 932
310 772
310 923
310 901
310 523
310 396
310 922
310 975
310 788
310 460
310 473
310 842
310 337
310 543
310 625
310 971
310 442
310 514
310 506
310 530
310 882
310 329
310 988
310 548
310 420
311 816
311 895
311 526
311 670
311 723
311 739
311 795
311 835
311 836
311 346
311 954
312 733
312 458
312 319
312 994
312 541
312 313
312 815
312 660
312 934
313 653
313 689
313 707
313 792
313 492
313 602
313 319
313 978
314 550
314 551
314 569
314 576
314 722
314 851
314 484
314 764
314 557
314 750
314 418
314 731
314 603
314 881
314 430
314 926
314 889
314 318
314 674
314 804
314 609
314 568
314 672
314 408
314 936
314 434
314 830
314 467
314 644
314 636
314 754
314 367
314 872
314 818
314 488
314 446
314 695
314 445
314 810
314 462
315 520
315 864
315 727
315 887
315 475
315 873
315 875
315 586
315 863
315 613
315 455
315 854
315 642
315 621
315 940
315 316
315 326
315 617
315 643
315 684
315 705
315 980
316 520
316 824
316 875
316 326
316 719
316 617
316 980
316 989
316 715
316 586
316 864
316 377
316 642
316 643
316 684
316 727
316 322
316 451
317 523
317 532
317 539
317 572
317 574
317 615
317 726
317 730
317 734
317 543
317 853
317 436
317 512
317 917
317 742
317 496
317 460
317 901
317 971
317 488
317 834
317 842
317 932
317 988
317 826
317 675
318 551
318 564
318 576
318 587
318 623
318 636
318 644
318 722
318 740
318 814
318 825
318 750
318 550
318 851
318 418
318 544
318 495
319 514
319 541
319 653
319 733
319 749
319 792
319 820
319 931
319 678
319 994
319 350
319 397
319 945
319 575
319 868
319 358
319 978
319 834
319 852
319 795
320 577
320 611
320 657
320 713
320 757
320 778
320 807
320 447
320 652
320 443
320 461
320 890
320 445
320 449
320 857
320 870
320 401
320 785
320 855
320 905
320 332
320 483
320 859
320 958
320 528
320 852
320 747
320 725
320 342
320 866
320 492
320 886
320 811
320 865
320 463
320 351
320 715
321 638
321 682
321 687
321 775
321 866
321 349
321 347
321 500
321 811
321 995
321 330
321 324
321 505
321 511
321 931
321 909
321 402
322 564
322 519
322 599
322 663
322 701
322 413
322 806
322 502
322 592
322 411
322 452
322 538
322 446
322 679
322 340
322 454
322 832
322 843
322 946
322 579
322 488
322 451
322 847
322 489
322 812
322 950
322 435
322 407
322 383
322 392
322 840
322 921
322 685
322 495
322 976
322 422
322 884
322 993
322 553
322 428
322 793
322 366
322 499
322 695
322 460
322 557
322 630
322 629
322 878
322 374
322 509
323 630
323 634
323 682
323 789
323 660
323 979
323 687
323 336
323 692
323 800
323 444
323 330
323 885
323 833
323 537
323 566
323 939
323 505
323 760
324 988
324 630
324 634
324 660
324 682
324 775
324 800
324 833
324 341
324 909
324 505
325 418
325 753
325 606
325 702
325 709
325 841
325 858
325 354
325 481
326 520
326 480
326 643
326 673
326 475
326 621
326 873
326 602
326 879
326 863
326 727
326 824
326 887
326 980
326 690
326 642
326 376
326 606
326 373
326 844
326 864
326 684
326 566
326 386
326 441
327 528
327 611
327 647
327 657
327 713
327 757
327 852
327 855
327 870
327 369
327 398
327 858
328 356
328 630
328 660
328 682
328 800
328 500
328 886
328 347
328 692
328 409
328 349
328 866
328 742
328 861
328 909
328 928
329 980
329 653
329 523
329 529
329 532
329 572
329 574
329 726
329 730
329 734
329 703
329 815
329 659
329 436
329 662
329 442
329 802
329 916
329 834
329 923
329 848
329 988
329 496
329 913
329 842
329 666
329 772
329 460
329 585
329 897
329 539
329 625
329 542
329 584
329 922
329 562
329 498
329 337
329 902
329 874
329 396
329 616
329 556
329 654
329 906
329 904
329 540
329 627
329 971
329 934
329 362
329 839
329 733
329 375
329 947
329 932
329 712
329 869
329 920
330 630
330 682
330 687
330 775
330 796
330 634
330 995
330 660
330 638
330 914
330 792
330 861
330 909
330 493
330 505
331 529
331 532
331 562
331 615
331 616
331 726
331 734
331 842
331 442
331 496
331 346
331 848
331 874
331 988
331 757
331 712
331 634
332 587
332 577
332 611
332 651
332 657
332 713
332 714
332 755
332 757
332 852
332 855
332 870
332 443
332 463
333 842
333 693
333 519
333 599
333 864
333 340
333 878
333 374
333 398
333 411
333 435
333 968
333 495
334 552
334 653
334 691
334 749
334 792
334 797
334 836
334 397
334 419
334 961
334 529
334 734
334 645
334 838
334 954
335 519
335 599
335 832
335 383
335 411
335 366
335 428
335 770
335 921
335 663
335 435
335 946
335 806
335 827
335 812
335 407
335 497
335 993
335 499
335 382
335 488
335 475
335 779
335 576
335 340
335 876
335 950
335 446
335 509
336 532
336 630
336 660
336 682
336 833
336 861
336 402
336 928
336 693
336 481
337 523
337 529
337 584
337 615
337 627
337 726
337 730
337 734
337 842
337 917
337 899
337 562
337 742
337 821
337 999
337 932
337 988
337 524
337 370
337 630
338 517
338 523
338 529
338 532
338 574
338 615
338 700
338 734
338 815
338 842
338 848
338 874
338 988
338 697
339 582
339 953
339 519
339 553
339 847
339 451
339 509
339 592
339 921
339 765
339 340
339 876
339 878
339 374
339 411
339 950
339 454
339 495
340 519
340 579
340 770
340 422
340 921
340 843
340 840
340 701
340 497
340 663
340 592
340 599
340 428
340 398
340 827
340 454
340 392
340 446
340 451
340 976
340 822
340 884
340 812
340 876
340 984
340 806
340 374
340 950
340 452
340 407
340 488
340 993
340 968
340 502
340 489
340 679
340 435
340 366
340 383
340 495
340 946
340 793
340 685
340 411
340 499
340 413
340 847
340 832
340 538
340 553
340 935
340 871
340 710
340 541
340 797
340 484
340 878
340 382
340 509
341 630
341 660
341 682
341 833
341 638
341 861
341 511
341 811
341 796
341 789
341 364
341 444
341 573
341 402
341 914
341 866
341 359
341 918
341 500
341 839
342 611
342 524
342 534
342 558
342 578
342 593
342 683
342 748
342 937
342 801
342 706
342 535
342 712
342 348
342 930
342 608
342 469
342 369
342 997
342 678
342 432
342 372
342 386
342 414
342 431
342 949
342 438
342 957
342 708
343 463
343 521
343 619
343 639
343 664
343 841
343 436
343 858
343 481
344 550
344 551
344 564
344 587
344 644
344 674
344 750
344 623
344 926
344 582
344 872
344 864
344 397
344 949
344 967
345 630
345 533
345 581
345 648
345 656
345 669
345 708
345 799
345 829
345 838
345 862
345 373
346 531
346 555
346 670
346 696
346 739
346 795
346 850
346 675
346 998
346 491
346 898
346 600
346 758
346 479
346 710
346 821
346 746
346 817
346 783
346 781
346 782
346 839
346 990
346 605
346 784
346 836
346 671
346 867
346 353
346 365
346 631
346 502
346 518
346 735
346 954
346 487
347 367
347 749
347 797
347 611
347 660
347 682
347 775
347 789
347 692
347 455
347 979
347 354
348 535
348 559
348 582
348 593
348 632
348 964
348 608
348 697
348 724
348 837
348 801
348 504
348 375
348 385
348 956
348 612
348 368
348 578
348 391
348 457
348 437
348 668
348 748
348 640
348 536
348 683
348 911
348 503
348 957
348 948
348 996
348 620
348 967
348 992
348 534
348 405
348 969
348 469
348 646
348 790
348 624
348 351
348 813
348 903
348 372
348 999
348 604
348 524
348 406
348 594
348 410
348 369
348 394
348 545
348 997
348 706
348 431
348 869
348 694
348 920
348 570
348 937
348 464
348 930
348 596
348 470
348 949
348 386
348 389
348 417
348 745
348 808
348 712
348 560
348 769
348 634
348 988
348 644
348 599
348 919
348 438
348 519
349 573
349 630
349 682
349 687
349 775
349 833
349 500
349 767
349 638
349 914
349 359
349 979
349 511
349 586
349 909
349 505
349 373
350 591
350 552
350 566
350 626
350 689
350 698
350 792
350 797
350 978
351 703
351 534
351 536
351 559
351 560
351 582
351 593
351 608
351 632
351 869
351 545
351 640
351 361
351 369
351 372
351 386
351 911
351 949
351 438
351 957
351 363
351 693
351 739
352 766
352 546
352 513
352 940
352 510
352 571
352 515
352 635
352 607
352 805
352 895
352 472
352 629
352 983
352 982
352 651
352 363
352 506
353 532
353 522
353 588
353 526
353 675
353 739
353 781
353 782
353 817
353 723
353 850
353 492
353 954
353 836
353 670
353 479
353 783
353 845
353 497
353 365
353 934
354 676
354 681
354 702
354 737
354 791
354 846
354 633
354 841
354 427
354 619
354 738
354 715
354 357
354 794
354 959
354 686
354 765
354 858
354 939
354 439
354 606
354 786
354 481
354 760
354 639
354 732
354 688
354 966
354 798
354 384
354 598
354 868
354 803
354 933
354 383
354 731
354 659
354 682
354 775
355 611
355 870
355 768
355 522
355 527
355 549
355 561
355 819
355 575
355 650
355 896
355 362
355 883
355 953
355 565
355 580
355 729
355 943
355 433
355 725
355 622
355 400
355 947
355 826
355 387
355 507
355 972
355 548
355 478
355 578
355 424
355 360
355 699
355 751
355 753
355 838
356 477
356 529
356 532
356 539
356 572
356 615
356 700
356 730
356 742
356 772
356 788
356 834
356 842
356 848
356 971
356 396
356 815
356 901
356 662
356 979
356 612
356 932
356 988
357 628
357 730
357 639
357 664
357 688
357 702
357 732
357 738
357 681
357 454
358 690
358 541
358 691
358 733
358 792
358 831
358 994
358 419
358 945
358 961
358 534
358 544
359 722
359 388
359 640
359 668
359 630
359 682
359 687
359 588
359 885
359 918
359 505
360 657
360 522
360 548
360 561
360 819
360 826
360 575
360 699
360 768
360 944
360 508
360 448
360 601
360 580
360 370
360 891
360 753
360 478
360 390
360 725
360 972
360 637
360 896
360 456
360 433
360 565
360 953
360 387
360 527
360 650
360 485
360 507
360 943
360 458
360 404
360 362
360 622
361 526
361 670
361 696
361 710
361 739
361 795
361 836
361 839
361 605
361 986
361 450
361 934
361 954
361 479
361 487
362 814
362 864
362 480
362 678
362 894
362 548
362 561
362 575
362 478
362 896
362 490
362 456
362 601
362 580
362 947
362 725
362 819
362 622
362 953
362 891
362 937
362 795
362 637
362 390
362 972
363 842
363 515
363 805
363 425
363 589
363 629
363 547
363 501
363 711
363 465
363 618
363 440
363 895
363 717
363 970
363 635
363 513
363 546
363 607
363 571
363 645
363 426
363 537
363 952
363 744
363 982
363 718
363 379
363 423
363 530
363 378
363 766
363 677
363 739
363 690
363 687
364 660
364 682
364 687
364 775
364 500
364 884
364 909
364 505
364 648
364 838
365 860
365 577
365 526
365 670
365 696
365 739
365 783
365 795
365 817
365 835
365 781
365 450
365 746
365 934
365 784
365 839
365 845
365 488
365 751
365 566
365 954
365 487
366 830
366 944
366 519
366 599
366 679
366 770
366 832
366 878
366 634
366 655
366 435
366 446
366 495
366 509
367 551
367 576
367 636
367 674
367 722
367 851
367 872
367 974
367 550
367 823
367 980
367 393
367 689
367 650
367 579
367 384
368 831
368 524
368 534
368 559
368 560
368 578
368 620
368 632
368 640
368 748
368 837
368 651
368 803
368 369
368 372
368 375
368 386
368 431
368 949
368 438
368 957
368 967
368 522
369 730
369 535
369 536
369 559
369 560
369 593
369 624
369 712
369 748
369 745
369 646
369 956
369 937
369 545
369 391
369 504
369 930
369 620
369 869
369 694
369 604
369 997
369 375
369 801
369 389
369 915
369 992
369 503
369 762
369 969
369 405
369 457
369 920
369 893
369 431
369 464
369 706
369 957
369 612
369 372
369 394
369 724
369 470
369 582
369 632
369 414
369 640
369 469
369 683
369 808
369 558
369 882
369 949
369 996
369 596
369 697
369 437
369 570
369 410
369 911
369 438
369 594
369 417
369 608
369 524
369 948
369 574
369 450
369 689
369 492
370 768
370 527
370 561
370 819
370 575
370 580
370 622
370 896
370 390
370 548
370 637
370 826
370 845
370 699
370 448
371 528
371 651
371 713
371 757
371 778
371 852
371 865
371 870
371 443
371 425
372 535
372 545
372 559
372 560
372 578
372 632
372 694
372 882
372 431
372 596
372 911
372 646
372 999
372 414
372 582
372 624
372 640
372 620
372 706
372 992
372 903
372 724
372 604
372 608
372 920
372 956
372 524
372 930
372 964
372 593
372 406
372 534
372 869
372 504
372 594
372 389
372 612
372 405
372 391
372 558
372 410
372 668
372 808
372 748
372 813
372 967
372 503
372 437
372 470
372 438
372 457
372 375
372 949
372 957
372 570
372 837
372 536
372 996
372 893
372 683
372 712
372 386
372 969
372 577
372 639
372 981
372 385
372 469
373 792
373 533
373 581
373 648
373 669
373 693
373 708
373 771
373 799
373 838
373 977
373 963
373 544
373 658
373 610
373 981
373 871
373 399
373 583
373 728
373 563
373 462
373 849
373 482
373 661
373 965
373 919
373 474
373 862
373 595
373 525
373 381
373 763
373 829
373 665
373 441
373 380
373 597
373 960
373 567
373 941
373 454
373 795
373 907
373 760
373 530
374 672
374 418
374 519
374 579
374 592
374 599
374 832
374 876
374 878
374 428
374 383
374 793
374 976
374 968
374 843
374 489
374 993
374 407
374 499
374 411
374 382
374 392
374 495
374 422
374 840
374 950
374 946
374 884
374 452
374 454
374 935
374 806
374 984
374 921
374 723
374 471
374 509
375 524
375 534
375 559
375 560
375 612
375 632
375 640
375 745
375 748
375 999
375 992
375 706
375 386
375 911
375 808
375 414
375 438
375 608
375 956
375 694
375 578
375 920
375 604
375 596
375 582
375 503
375 657
375 764
375 419
375 385
375 949
375 957
375 669
376 520
376 864
376 617
376 879
376 641
376 563
376 684
376 980
376 727
376 766
376 794
377 520
377 824
377 828
377 591
377 602
377 864
377 617
377 879
377 887
377 863
377 690
377 955
377 480
377 643
377 477
377 487
378 443
378 513
378 515
378 776
378 777
378 537
378 711
378 982
378 677
378 895
378 423
378 426
378 440
378 658
378 934
379 666
379 515
379 776
379 629
379 423
379 752
379 607
379 425
379 588
379 645
379 982
379 677
379 718
379 465
379 510
380 423
380 533
380 563
380 567
380 581
380 595
380 648
380 658
380 708
380 771
380 838
380 474
380 977
380 759
380 679
380 965
380 462
381 682
381 533
381 567
381 581
381 595
381 669
381 693
381 763
381 829
381 838
381 965
381 963
381 962
381 667
381 759
381 441
381 728
381 799
381 482
381 960
381 862
381 525
381 919
381 871
381 462
381 925
381 658
381 981
381 583
381 651
381 637
381 499
381 795
382 549
382 519
382 701
382 876
382 878
382 806
382 812
382 822
382 988
382 398
382 921
382 422
382 435
382 454
382 495
382 509
383 580
383 402
383 784
383 592
383 843
383 878
383 599
383 497
383 993
383 679
383 976
383 681
383 578
383 605
383 422
383 435
383 446
383 454
383 495
383 509
384 611
384 422
384 619
384 664
384 702
384 738
384 841
384 633
384 855
384 439
384 481
385 673
385 615
385 534
385 535
385 545
385 559
385 560
385 582
385 593
385 748
385 964
385 558
385 469
385 470
385 524
385 949
385 903
385 536
385 640
385 386
385 578
385 948
385 683
385 406
385 762
385 808
385 893
385 911
385 790
385 837
385 969
385 437
385 712
385 417
385 608
385 414
385 694
385 431
385 612
385 997
385 620
385 504
385 724
385 503
385 410
385 464
385 394
385 865
385 881
385 922
385 932
385 565
385 424
385 438
385 957
385 739
386 617
386 524
386 534
386 545
386 560
386 582
386 640
386 389
386 593
386 949
386 837
386 930
386 464
386 712
386 683
386 608
386 624
386 948
386 745
386 504
386 903
386 813
386 999
386 937
386 706
386 559
386 405
386 964
386 808
386 762
386 632
386 578
386 911
386 668
386 915
386 612
386 620
386 969
386 694
386 869
386 604
386 457
386 957
386 748
386 503
386 437
386 935
386 907
386 462
386 920
386 414
386 417
386 431
386 438
386 469
386 997
387 542
387 561
387 819
387 575
387 601
387 622
387 883
387 896
387 400
387 393
387 432
387 953
387 699
387 448
387 972
387 729
387 485
387 753
387 513
388 551
388 623
388 636
388 722
388 740
388 851
388 860
388 872
388 672
388 686
388 393
388 494
388 772
389 524
389 534
389 536
389 593
389 620
389 624
389 632
389 640
389 694
389 504
389 912
389 767
389 391
389 406
389 417
389 438
389 957
389 997
390 920
390 549
390 561
390 819
390 622
390 714
390 751
390 753
391 524
391 534
391 559
391 560
391 582
391 593
391 632
391 640
391 646
391 394
391 469
391 438
391 683
391 417
391 550
391 414
391 949
391 957
391 967
392 683
392 519
392 538
392 553
392 832
392 847
392 878
392 398
392 435
392 451
393 551
393 568
393 569
393 636
393 672
393 722
393 731
393 740
393 550
393 576
393 603
393 418
393 623
393 872
393 823
393 889
393 907
393 818
393 888
393 631
393 860
393 881
393 557
393 856
393 851
393 804
393 814
393 609
393 674
393 424
393 764
393 467
393 587
393 644
393 754
393 484
393 590
393 974
393 434
393 489
393 656
393 436
393 446
394 644
394 559
394 560
394 582
394 612
394 624
394 745
394 790
394 594
394 640
394 673
394 417
394 949
394 438
394 957
394 967
395 552
395 626
395 733
395 797
396 517
396 518
396 529
396 539
396 572
396 615
396 625
396 700
396 730
396 734
396 842
396 848
396 874
396 988
396 559
396 838
397 541
397 678
397 691
397 792
397 831
397 820
397 931
397 698
397 945
397 458
397 978
397 734
397 680
397 664
398 519
398 876
398 878
398 770
398 422
398 812
398 499
398 446
398 538
398 685
398 489
398 488
398 451
398 884
398 553
398 827
398 976
398 592
398 569
398 432
398 512
398 411
398 435
399 426
399 440
399 525
399 533
399 544
399 581
399 610
399 658
399 669
399 708
399 763
399 799
399 838
399 563
399 965
399 482
399 729
399 517
399 420
399 941
399 441
400 549
400 561
400 819
400 565
400 575
400 896
400 729
400 582
400 485
400 753
401 603
401 647
401 695
401 713
401 735
401 809
401 852
401 855
401 870
401 604
401 443
401 463
401 471
401 843
402 431
402 522
402 682
402 833
402 775
402 692
402 918
402 811
402 756
402 540
402 505
403 643
403 577
403 611
403 647
403 651
403 713
403 778
403 852
403 870
403 416
403 735
403 809
403 429
403 443
404 577
404 611
404 651
404 713
404 714
404 852
404 865
404 855
404 445
404 655
404 463
405 534
405 559
405 560
405 582
405 593
405 632
405 640
405 668
405 697
405 748
405 837
405 406
405 949
405 957
406 524
406 534
406 558
406 559
406 560
406 578
406 582
406 612
406 640
406 697
406 748
406 801
406 911
406 745
406 997
406 417
406 632
406 837
406 706
406 930
406 969
406 604
406 813
406 996
406 920
406 957
406 470
406 551
406 431
406 949
406 438
406 909
407 915
407 420
407 519
407 592
407 599
407 793
407 806
407 847
407 876
407 878
407 435
407 446
407 495
408 550
408 569
408 576
408 590
408 603
408 636
408 851
408 418
408 434
408 443
408 965
409 682
409 756
409 779
409 800
409 861
409 979
409 454
410 559
410 593
410 640
410 697
410 748
410 801
410 869
410 431
410 957
410 469
411 519
411 599
411 793
411 812
411 832
411 876
411 921
411 950
411 592
411 579
411 553
411 488
411 993
411 805
411 508
411 866
411 435
411 446
411 495
411 509
412 864
412 541
412 552
412 689
412 707
412 761
412 792
412 797
412 978
412 518
412 772
412 600
413 722
413 780
413 870
413 992
413 519
413 538
413 599
413 663
413 806
413 921
413 435
413 950
414 631
414 524
414 559
414 560
414 593
414 604
414 608
414 620
414 640
414 745
414 790
414 903
414 937
414 457
414 470
414 624
414 893
414 967
414 956
414 578
414 999
414 694
414 957
414 920
414 697
414 813
414 904
414 417
414 431
414 949
414 438
414 432
415 621
415 577
415 611
415 649
415 714
415 755
415 852
415 855
415 865
415 651
415 483
415 652
415 447
415 880
415 747
415 657
415 735
415 759
415 480
415 744
415 731
415 443
415 463
415 471
416 657
416 713
416 757
416 870
416 443
417 695
417 534
417 558
417 559
417 582
417 593
417 640
417 668
417 748
417 920
417 957
417 469
417 438
417 745
417 503
417 964
417 560
417 694
417 967
417 808
417 697
417 949
417 632
417 620
417 528
417 875
417 431
417 639
418 551
418 609
418 636
418 644
418 722
418 731
418 741
418 851
418 494
418 825
418 764
418 569
418 860
418 804
418 750
418 631
418 576
418 467
418 936
418 926
418 672
418 430
418 587
418 793
418 639
418 727
418 480
419 576
419 552
419 792
419 797
419 743
419 994
419 626
419 961
419 458
419 653
419 887
419 730
420 565
420 567
420 708
420 763
420 799
420 838
420 862
420 544
420 925
420 665
420 669
420 661
420 525
420 533
420 610
420 441
420 563
420 759
420 941
420 667
420 514
420 965
421 932
421 611
421 651
421 713
421 757
421 852
421 855
421 865
421 528
421 747
421 908
421 821
421 615
421 443
421 683
421 957
421 838
422 936
422 572
422 527
422 928
422 519
422 770
422 812
422 827
422 843
422 878
422 446
422 793
422 435
422 984
422 451
422 538
422 876
422 921
422 968
422 946
422 840
422 822
422 495
422 497
422 833
422 447
422 454
423 515
423 546
423 547
423 589
423 645
423 677
423 506
423 440
423 465
423 635
423 810
423 940
423 752
423 777
423 618
423 513
423 895
423 607
423 805
423 426
423 588
423 970
423 983
423 501
423 629
423 626
423 437
423 710
423 817
424 550
424 551
424 590
424 603
424 623
424 636
424 722
424 731
424 872
424 582
425 848
425 865
425 882
425 753
425 515
425 810
425 571
425 970
425 618
425 629
425 501
425 588
425 940
425 426
425 510
425 581
426 766
426 810
426 588
426 645
426 970
426 983
426 589
426 465
426 629
426 511
426 952
426 526
427 665
427 667
427 835
427 619
427 664
427 686
427 732
427 737
427 738
427 803
427 858
427 481
428 923
428 812
428 878
428 446
428 495
428 681
429 528
429 577
429 611
429 649
429 651
429 657
429 704
429 714
429 780
429 852
429 865
429 870
429 910
429 773
429 884
429 881
429 443
429 463
429 862
429 941
430 551
430 557
430 603
430 623
430 636
430 674
430 731
430 740
430 872
430 926
430 936
431 524
431 534
431 536
431 559
431 560
431 593
431 640
431 837
431 869
431 706
431 438
431 437
431 457
431 646
431 903
431 893
431 620
431 624
431 949
431 915
431 745
431 503
431 464
431 882
431 748
431 808
431 969
431 813
431 762
431 612
431 948
431 604
431 469
431 975
431 446
431 610
431 798
431 838
432 625
432 522
432 527
432 561
432 575
432 580
432 601
432 947
432 953
432 448
432 753
433 522
433 549
433 561
433 819
433 575
433 580
433 622
433 896
433 729
433 826
433 993
433 953
433 753
433 507
433 962
434 550
434 551
434 568
434 623
434 636
434 814
434 851
434 714
434 464
434 630
434 799
434 509
435 546
435 663
435 812
435 822
435 876
435 878
435 553
435 993
435 538
435 592
435 946
435 770
435 921
435 806
435 827
435 950
435 446
435 679
435 840
435 497
435 509
435 832
435 935
435 843
435 793
435 499
435 733
435 560
435 494
435 518
435 495
436 523
436 529
436 532
436 574
436 585
436 615
436 726
436 730
436 734
436 842
436 848
436 932
436 534
436 696
437 936
437 831
437 524
437 545
437 560
437 582
437 593
437 608
437 624
437 632
437 748
437 882
437 438
437 957
437 967
438 524
438 534
438 560
438 570
438 582
438 593
438 632
438 748
438 911
438 949
438 712
438 469
438 837
438 697
438 762
438 503
438 608
438 558
438 594
438 969
438 999
438 790
438 869
438 504
438 464
438 724
438 930
438 559
438 948
438 640
438 882
438 956
438 992
438 957
438 937
438 596
438 903
438 683
438 612
438 745
438 967
438 536
438 646
438 470
438 624
438 893
438 964
438 604
438 545
438 457
438 915
438 449
438 654
438 507
438 792
438 488
438 597
439 724
439 638
439 521
439 606
439 664
439 732
439 737
439 858
439 959
439 868
439 481
439 688
439 738
439 786
439 692
439 970
440 848
440 515
440 776
440 777
440 530
440 546
440 629
440 513
440 510
440 744
440 589
440 810
440 547
440 940
440 588
440 472
440 983
440 677
440 711
440 736
440 465
440 687
441 533
441 581
441 595
441 648
441 658
441 693
441 708
441 799
441 838
441 862
441 544
441 563
441 474
441 871
441 599
441 785
441 995
441 965
441 462
441 696
442 518
442 523
442 529
442 532
442 615
442 616
442 625
442 726
442 730
442 772
442 815
442 834
442 842
442 874
442 932
442 975
442 988
442 664
443 577
443 611
443 647
443 704
443 713
443 714
443 757
443 852
443 855
443 865
443 870
443 905
443 657
443 785
443 929
443 483
443 900
443 747
443 973
443 859
443 778
443 652
443 807
443 780
443 695
443 890
443 958
443 908
443 987
443 655
443 449
443 516
443 755
443 461
443 809
443 463
443 471
443 651
443 735
443 445
443 985
443 857
443 773
443 629
443 964
443 648
444 749
444 558
444 575
444 660
444 687
444 789
444 909
445 577
445 611
445 713
445 714
445 757
445 852
445 855
445 865
445 870
445 463
445 519
446 529
446 656
446 599
446 878
446 812
446 847
446 489
446 541
446 720
446 495
446 786
447 528
447 611
447 649
447 657
447 852
447 855
447 865
447 870
447 908
448 548
448 561
448 819
448 575
448 622
448 883
448 953
448 947
448 456
448 650
448 485
448 565
448 972
448 896
448 453
448 753
448 507
449 647
449 657
449 713
449 855
449 870
449 908
449 471
449 799
449 835
450 526
450 670
450 671
450 696
450 795
450 817
450 836
450 954
450 487
451 579
451 770
451 812
451 832
451 843
451 876
451 878
451 950
451 822
451 454
451 547
451 968
451 495
451 502
451 509
452 726
452 640
452 745
452 519
452 553
452 579
452 599
452 701
452 793
452 878
452 509
453 881
453 600
453 696
453 723
453 739
453 784
453 795
453 835
453 836
453 954
453 487
453 491
453 732
454 539
454 655
454 519
454 579
454 599
454 847
454 878
454 495
454 822
454 843
454 921
454 840
454 832
454 553
454 946
454 968
454 806
454 977
454 569
454 509
455 591
455 641
455 684
455 643
455 477
455 879
455 875
455 921
456 813
456 768
456 527
456 819
456 826
456 575
456 580
456 601
456 622
456 943
456 953
456 699
457 524
457 534
457 535
457 545
457 559
457 560
457 582
457 593
457 624
457 640
457 706
457 748
457 911
457 920
457 949
457 957
457 953
457 511
458 678
458 816
458 541
458 707
458 892
458 514
458 552
458 599
458 664
459 541
459 678
459 689
459 792
459 797
459 503
460 980
460 512
460 532
460 539
460 615
460 616
460 700
460 726
460 730
460 842
460 848
460 874
460 932
460 988
461 678
461 742
461 577
461 713
461 714
461 757
461 809
461 852
461 855
461 865
461 870
461 463
461 502
462 533
462 544
462 567
462 581
462 648
462 693
462 708
462 771
462 799
462 838
462 965
462 680
462 963
462 525
462 709
462 684
463 734
463 652
463 651
463 755
463 852
463 855
463 905
463 809
463 577
463 973
463 987
463 483
463 865
463 890
463 859
463 714
463 985
463 880
463 773
463 910
463 807
463 704
463 747
463 695
463 631
463 864
463 538
464 524
464 534
464 535
464 536
464 545
464 560
464 582
464 748
464 911
464 920
464 949
464 957
464 967
464 836
465 855
465 515
465 547
465 677
465 711
465 537
465 895
465 506
465 629
465 777
465 699
465 703
465 708
466 864
466 873
466 643
466 684
466 980
466 727
466 477
466 965
467 551
467 557
467 609
467 636
467 644
467 722
467 740
468 644
468 526
468 670
468 675
468 696
468 739
468 795
468 817
468 934
469 524
469 534
469 559
469 560
469 578
469 593
469 640
469 646
469 724
469 748
469 790
469 869
469 949
469 957
469 536
469 948
469 668
469 717
469 850
469 992
469 503
469 954
470 684
470 955
470 524
470 536
470 559
470 560
470 582
470 593
470 620
470 632
470 712
470 745
470 748
470 869
470 949
470 969
470 992
471 577
471 713
471 714
471 757
471 852
471 865
471 870
471 855
471 647
471 483
471 704
471 785
471 773
471 778
471 593
471 584
471 918
471 848
472 485
472 753
472 515
472 530
472 805
472 744
473 517
473 532
473 539
473 542
473 615
473 616
473 700
473 703
473 726
473 730
473 788
473 842
473 848
473 975
473 988
473 832
474 574
474 949
474 622
474 544
474 567
474 581
474 648
474 669
474 693
474 708
474 763
474 799
474 829
474 838
474 965
475 591
475 864
475 873
475 875
475 617
475 621
475 641
475 642
475 673
475 684
475 980
475 559
475 738
476 957
476 768
476 527
476 561
476 819
476 565
476 575
476 580
476 883
476 891
476 729
476 753
477 814
477 824
477 863
477 864
477 617
477 621
477 641
477 642
477 643
477 980
477 705
477 684
477 879
477 520
477 586
477 844
477 628
477 828
477 602
477 593
478 949
478 522
478 527
478 561
478 819
478 575
478 637
478 699
478 753
479 600
479 605
479 670
479 696
479 739
479 795
479 839
479 769
479 998
479 782
479 990
479 774
479 721
479 492
479 758
479 898
479 560
479 487
480 520
480 844
480 602
480 864
480 875
480 617
480 621
480 628
480 887
480 643
480 727
481 495
481 606
481 633
481 664
481 702
481 738
481 794
481 619
481 681
481 688
481 803
481 709
481 858
481 715
481 760
481 686
481 798
481 841
481 765
481 521
481 786
481 933
481 737
481 732
481 846
481 639
481 868
481 598
481 966
481 939
481 532
481 850
481 545
481 876
481 886
482 851
482 533
482 544
482 567
482 581
482 656
482 658
482 669
482 708
482 771
482 799
482 838
482 862
482 965
483 611
483 651
483 713
483 757
483 773
483 852
483 855
483 865
483 870
484 551
484 569
484 587
484 603
484 636
484 722
484 851
484 860
485 999
485 522
485 561
485 819
485 575
485 580
485 622
485 650
485 947
485 490
485 942
486 529
486 532
486 554
486 585
486 615
486 616
486 726
486 772
486 932
486 975
486 988
487 526
487 531
487 600
487 670
487 696
487 739
487 795
487 835
487 836
487 839
487 954
487 671
487 998
487 723
487 867
487 769
487 746
487 898
487 934
487 986
487 989
487 716
487 758
487 784
487 942
487 990
487 781
487 492
487 783
487 721
487 555
487 817
487 736
487 605
487 766
487 927
487 988
487 777
487 869
488 519
488 812
488 832
488 847
488 878
488 495
488 509
489 700
489 519
489 538
489 553
489 579
489 770
489 806
489 876
489 878
489 950
489 495
490 872
490 549
490 561
490 819
490 575
490 580
490 622
490 637
490 650
490 972
490 753
490 508
490 763
491 641
491 577
491 670
491 675
491 696
491 716
491 739
491 782
491 784
491 795
491 817
491 810
491 570
492 531
492 670
492 671
492 696
492 739
492 795
492 817
492 954
492 998
493 630
493 660
493 682
493 687
493 756
493 789
493 495
494 550
494 569
494 590
494 603
494 623
494 636
494 722
494 740
494 851
494 872
494 936
494 997
495 992
495 774
495 519
495 701
495 878
495 921
495 935
495 946
495 553
495 499
495 812
495 770
495 840
495 976
495 806
495 685
495 538
495 663
495 950
495 822
495 843
495 884
495 599
495 984
495 497
495 579
495 993
495 592
495 679
495 827
495 672
495 820
495 653
495 502
496 512
496 529
496 539
496 615
496 726
496 730
496 734
496 842
496 848
496 874
496 932
496 975
496 988
496 855
497 519
497 793
497 806
497 843
497 878
497 921
497 509
498 529
498 554
498 572
498 584
498 615
498 625
498 666
498 726
498 730
498 842
498 932
498 988
498 876
498 619
499 519
499 579
499 592
499 599
499 793
499 827
499 843
499 878
499 921
499 502
500 630
500 682
500 687
500 729
500 505
501 561
501 515
501 629
501 635
501 895
501 677
502 519
502 663
502 832
502 950
502 822
502 946
502 701
502 921
502 847
502 687
503 524
503 534
503 536
503 560
503 632
503 748
503 869
503 949
503 957
503 604
503 915
503 559
503 937
503 535
503 813
503 624
503 558
503 999
503 930
503 697
503 745
503 967
503 579
503 533
503 680
504 534
504 560
504 632
504 640
504 748
504 911
504 949
504 997
504 686
505 572
505 682
505 687
505 775
505 833
505 979
505 914
505 796
505 756
505 928
505 767
505 811
505 573
505 866
505 995
505 800
505 909
505 789
505 886
505 885
505 660
505 593
505 693
505 595
506 530
506 571
506 618
506 677
506 629
506 513
506 711
506 982
506 941
506 567
507 992
507 522
507 561
507 819
507 826
507 575
507 622
507 699
507 753
507 650
507 565
507 725
507 891
507 896
507 943
507 972
507 637
507 527
507 883
507 751
507 508
507 933
507 712
507 779
507 618
508 714
508 755
508 522
508 527
508 549
508 561
508 819
508 575
508 622
508 891
508 650
508 699
508 565
508 725
508 847
508 930
508 771
509 869
509 525
509 579
509 832
509 876
509 878
509 921
509 553
509 519
509 822
509 946
509 538
509 884
509 968
509 599
509 950
509 976
509 843
509 847
509 935
509 701
509 587
509 614
509 694
510 932
510 776
510 805
510 895
510 983
510 711
510 589
510 515
510 629
510 607
510 970
510 635
510 777
510 513
510 940
510 810
510 744
510 677
510 928
510 971
510 697
510 610
510 835
511 577
511 751
511 573
511 630
511 638
511 687
511 775
511 789
511 833
511 909
511 928
511 682
511 538
512 523
512 562
512 703
512 951
512 734
512 659
512 543
512 726
512 916
512 899
512 518
512 529
512 532
512 572
512 615
512 625
512 730
512 802
512 815
512 842
512 874
512 932
512 975
512 988
512 575
513 677
513 982
513 744
513 970
513 752
513 983
513 810
513 711
513 998
513 664
514 938
514 541
514 689
514 566
514 552
514 892
514 653
514 678
514 691
514 733
514 749
514 792
514 831
514 978
514 772
515 577
515 608
515 952
515 589
515 895
515 547
515 629
515 711
515 805
515 530
515 571
515 970
515 766
515 940
515 645
515 635
515 983
515 777
515 537
515 607
515 546
515 938
515 734
515 783
516 652
516 910
516 651
516 577
516 713
516 755
516 987
516 695
516 966
516 611
516 714
516 778
516 852
516 855
516 865
517 705
517 556
517 913
517 842
517 772
517 574
517 529
517 532
517 539
517 615
517 662
517 730
517 932
517 651
517 524
517 670
518 726
518 554
518 842
518 772
518 901
518 897
518 615
518 659
518 687
518 529
518 532
518 542
518 543
518 574
518 616
518 625
518 654
518 700
518 730
518 734
518 848
518 874
518 932
518 975
518 988
518 593
519 988
519 967
519 876
519 806
519 950
519 840
519 592
519 793
519 553
519 599
519 822
519 679
519 843
519 993
519 921
519 984
519 878
519 946
519 976
519 685
519 701
519 538
519 579
519 884
519 663
519 847
519 968
519 812
519 577
519 933
520 879
520 875
520 828
520 844
520 673
520 690
520 614
520 873
520 684
520 727
520 719
520 686
520 894
520 594
520 824
520 586
520 591
520 854
520 864
520 621
520 642
520 643
520 980
520 680
521 980
521 670
521 959
521 639
521 738
521 966
521 861
521 841
522 764
522 575
522 729
522 751
522 580
522 819
522 650
522 972
522 699
522 826
522 527
522 549
522 561
522 622
522 883
522 753
523 906
523 922
523 574
523 853
523 788
523 848
523 625
523 616
523 938
523 595
523 529
523 539
523 543
523 572
523 615
523 666
523 700
523 726
523 730
523 742
523 834
523 842
523 874
523 932
524 558
524 694
524 620
524 683
524 948
524 594
524 808
524 937
524 697
524 949
524 869
524 813
524 882
524 624
524 632
524 724
524 969
524 967
524 893
524 559
524 748
524 911
524 957
524 790
524 668
524 915
524 992
524 745
524 903
524 956
524 593
524 596
524 920
524 964
524 545
524 535
524 608
524 999
524 578
524 930
524 570
524 706
524 712
524 762
524 950
524 932
524 626
524 908
524 686
524 534
524 582
524 640
524 646
525 563
525 680
525 960
525 583
525 763
525 878
525 544
525 567
525 581
525 656
525 665
525 799
525 838
525 941
525 965
526 671
526 758
526 531
526 836
526 998
526 934
526 942
526 774
526 783
526 675
526 821
526 723
526 605
526 781
526 746
526 555
526 986
526 929
526 955
526 868
526 670
526 739
526 795
526 817
526 835
526 954
527 967
527 575
527 725
527 819
527 953
527 943
527 601
527 751
527 932
527 549
527 561
527 580
527 622
527 699
527 753
527 592
528 755
528 642
528 647
528 651
528 714
528 757
528 852
528 870
528 612
528 601
528 884
529 897
529 730
529 542
529 654
529 787
529 532
529 700
529 902
529 971
529 917
529 923
529 894
529 572
529 922
529 932
529 585
529 853
529 815
529 788
529 625
529 703
529 927
529 574
529 659
529 543
529 540
529 842
529 951
529 734
529 988
529 666
529 562
529 556
529 904
529 834
529 742
529 916
529 899
529 906
529 615
529 901
529 726
529 627
529 848
529 616
529 772
529 584
529 874
529 802
529 975
529 554
529 639
529 797
529 965
529 943
529 900
529 539
530 546
530 752
530 895
530 589
530 645
530 677
530 982
530 744
530 983
530 940
530 810
530 805
530 685
530 675
530 571
530 588
531 758
531 942
531 845
531 605
531 696
531 850
531 852
531 600
531 670
531 675
531 739
531 769
531 795
531 817
531 954
532 625
532 913
532 742
532 772
532 951
532 572
532 556
532 975
532 703
532 932
532 734
532 842
532 897
532 730
532 917
532 616
532 540
532 574
532 988
532 554
532 700
532 659
532 853
532 726
532 922
532 894
532 562
532 899
532 874
532 615
532 543
532 916
532 902
532 904
532 787
532 542
532 584
532 848
532 906
532 627
532 662
532 927
532 901
532 654
532 923
532 585
532 666
532 984
532 862
532 995
532 752
532 954
533 590
533 962
533 981
533 925
533 581
533 977
533 610
533 919
533 669
533 871
533 941
533 708
533 563
533 829
533 771
533 960
533 597
533 544
533 661
533 567
533 680
533 648
533 965
533 595
533 862
533 583
533 753
533 864
533 548
533 645
533 656
533 799
533 838
534 855
534 559
534 915
534 724
534 903
534 620
534 997
534 712
534 808
534 646
534 762
534 790
534 930
534 582
534 920
534 948
534 694
534 640
534 893
534 535
534 748
534 992
534 608
534 813
534 570
534 560
534 801
534 545
534 967
534 624
534 604
534 593
534 558
534 697
534 949
534 612
534 964
534 632
534 706
534 668
534 957
534 956
534 999
534 907
534 824
534 984
534 665
534 753
535 578
535 668
535 838
535 559
535 560
535 593
535 608
535 612
535 762
535 869
535 947
535 776
536 930
536 620
536 604
536 956
536 570
536 558
536 560
536 578
536 582
536 593
536 608
536 694
536 712
536 745
536 748
536 813
536 949
536 957
537 926
537 691
537 802
537 577
537 859
537 744
537 711
537 776
537 805
538 553
538 876
538 878
539 894
539 848
539 662
539 853
539 971
539 584
539 834
539 627
539 772
539 788
539 802
539 659
539 742
539 927
539 913
539 902
539 879
539 869
539 542
539 572
539 700
539 726
539 734
539 842
539 932
539 975
539 988
540 551
540 927
540 574
540 654
540 815
540 802
540 917
540 584
540 788
540 559
540 572
540 615
540 726
540 730
540 772
540 842
540 848
540 874
540 932
540 975
540 988
540 656
540 664
541 938
541 761
541 877
541 994
541 743
541 816
541 892
541 653
541 552
541 707
541 749
541 978
541 698
541 961
541 991
541 648
541 928
541 720
541 792
541 797
541 831
541 670
541 553
542 700
542 703
542 975
542 874
542 556
542 913
542 662
542 659
542 815
542 897
542 562
542 615
542 625
542 730
542 802
542 842
542 848
542 735
542 745
543 584
543 726
543 815
543 897
543 700
543 842
543 662
543 917
543 787
543 622
543 670
543 562
543 572
543 615
543 616
543 730
543 734
543 848
543 932
543 988
544 689
544 593
544 575
544 597
544 981
544 799
544 763
544 595
544 963
544 610
544 693
544 925
544 661
544 965
544 648
544 658
544 849
544 977
544 919
544 624
544 779
544 708
544 862
545 956
545 999
545 813
545 969
545 560
545 911
545 930
545 578
545 937
545 893
545 748
545 689
545 661
545 559
545 582
545 593
545 632
545 712
545 949
545 957
545 967
545 992
546 777
546 970
546 607
546 805
546 717
546 677
546 739
546 676
547 932
547 776
547 766
547 635
547 571
547 711
547 982
547 952
547 810
547 994
547 895
547 682
547 782
548 864
548 616
548 891
548 725
548 561
548 575
548 972
548 753
549 621
549 561
549 944
549 725
549 943
549 729
549 780
549 819
549 575
549 622
550 674
550 754
550 872
550 889
550 881
550 764
550 860
550 814
550 823
550 926
550 750
550 818
550 603
550 804
550 661
550 708
550 706
550 551
550 623
550 636
550 644
550 672
550 740
550 851
550 790
550 702
551 881
551 587
551 576
551 974
551 674
551 609
551 741
551 568
551 564
551 872
551 804
551 851
551 754
551 740
551 907
551 823
551 926
551 750
551 856
551 731
551 590
551 889
551 672
551 644
551 936
551 888
551 636
551 825
551 603
551 623
551 947
551 724
551 722
551 830
552 707
552 743
552 991
552 994
552 720
552 877
552 761
552 754
552 642
552 566
552 689
552 792
552 831
552 878
553 806
553 840
553 832
553 663
553 876
553 753
553 690
553 847
554 874
554 913
554 585
554 625
554 772
554 726
554 666
554 700
554 954
554 867
554 572
554 615
554 730
554 815
554 834
554 842
554 848
554 988
554 997
555 762
555 867
555 758
555 986
555 954
555 898
555 989
555 696
555 582
555 586
555 670
555 739
555 774
555 817
555 639
556 734
556 574
556 902
556 874
556 923
556 783
556 572
556 615
556 616
556 726
556 730
556 848
556 932
556 988
556 817
557 764
557 825
557 936
557 907
557 856
557 814
557 871
557 576
557 590
557 603
557 636
557 644
557 740
557 851
557 559
557 769
557 606
558 620
558 996
558 697
558 762
558 594
558 683
558 565
558 560
558 582
558 593
558 624
558 706
558 745
558 790
558 801
558 911
558 949
558 957
558 992
559 957
559 882
559 694
559 813
559 570
559 937
559 903
559 706
559 956
559 949
559 762
559 869
559 596
559 997
559 593
559 624
559 992
559 748
559 964
559 578
559 632
559 948
559 969
559 724
559 683
559 808
559 612
559 697
559 608
559 801
559 893
559 920
559 930
559 594
559 745
559 868
559 817
559 560
559 582
559 604
559 640
559 712
560 911
560 930
560 632
560 608
560 937
560 612
560 964
560 624
560 594
560 724
560 813
560 712
560 893
560 697
560 915
560 604
560 683
560 745
560 967
560 582
560 882
560 997
560 620
560 694
560 596
560 903
560 837
560 808
560 570
560 998
560 803
560 640
560 748
560 801
560 957
560 999
561 691
561 883
561 947
561 622
561 826
561 575
561 565
561 729
561 896
561 953
561 768
561 944
561 725
561 650
561 819
561 637
561 753
561 891
561 972
561 580
561 699
561 601
561 751
561 943
561 675
562 654
562 802
562 894
562 988
562 939
562 572
562 615
562 616
562 726
562 730
562 734
562 772
562 842
562 848
562 809
562 699
562 935
563 941
563 963
563 667
563 580
563 648
563 656
563 658
563 669
563 708
563 799
563 829
563 862
563 965
564 804
564 936
564 636
564 609
564 814
564 754
564 590
564 860
564 657
564 570
564 740
564 851
564 708
565 593
565 819
565 944
565 725
565 933
565 580
565 601
565 896
565 947
565 972
565 753
565 998
566 872
566 698
566 877
566 816
566 931
566 978
566 743
566 994
566 749
566 792
566 700
566 580
566 795
567 755
567 855
567 728
567 667
567 871
567 799
567 658
567 849
567 829
567 665
567 759
567 960
567 925
567 919
567 618
567 581
567 648
567 669
567 693
567 838
567 862
567 941
567 965
568 672
568 644
568 569
568 623
568 587
568 609
568 636
568 740
568 719
568 706
568 696
569 741
569 722
569 740
569 623
569 764
569 754
569 605
569 787
569 576
569 636
569 674
569 851
570 582
570 593
570 624
570 697
570 911
570 949
570 957
570 992
570 997
570 999
570 895
571 805
571 940
571 952
571 777
571 588
571 810
571 607
571 971
571 891
571 895
572 923
572 662
572 901
572 853
572 734
572 874
572 726
572 787
572 971
572 659
572 916
572 666
572 703
572 988
572 584
572 913
572 625
572 902
572 741
572 665
572 616
572 700
572 730
572 848
572 932
572 954
573 703
573 912
573 740
573 660
573 682
573 775
573 833
573 979
574 853
574 897
574 585
574 901
574 904
574 666
574 615
574 625
574 726
574 730
574 842
574 848
574 874
574 988
575 768
575 819
575 826
575 729
575 699
575 953
575 947
575 883
575 896
575 972
575 650
575 622
575 580
575 751
575 753
575 725
575 944
575 891
575 601
575 637
575 688
575 908
575 940
575 746
576 731
576 804
576 674
576 644
576 672
576 623
576 722
576 872
576 881
576 825
576 764
576 750
576 823
576 648
576 636
576 740
576 741
576 851
576 610
576 829
577 714
577 987
577 900
577 655
577 735
577 908
577 657
577 611
577 985
577 929
577 713
577 747
577 778
577 807
577 757
577 859
577 809
577 855
577 852
577 582
577 651
577 865
577 870
577 934
578 831
578 842
578 957
578 706
578 969
578 582
578 632
578 712
578 748
578 762
578 949
578 967
579 670
579 663
579 884
579 806
579 592
579 876
579 679
579 840
579 770
579 832
579 976
579 878
579 665
579 982
579 968
580 899
580 819
580 972
580 725
580 944
580 699
580 947
580 622
580 751
580 835
580 637
580 650
580 753
581 763
581 610
581 648
581 597
581 799
581 661
581 849
581 829
581 771
581 656
581 862
581 595
581 963
581 962
581 583
581 925
581 981
581 941
581 658
581 871
581 665
581 693
581 728
581 747
581 629
581 674
581 966
581 767
581 669
581 680
581 708
581 838
581 965
582 865
582 697
582 967
582 594
582 957
582 920
582 694
582 745
582 930
582 790
582 837
582 801
582 712
582 596
582 593
582 668
582 937
582 813
582 969
582 762
582 612
582 956
582 915
582 949
582 748
582 893
582 724
582 953
582 661
582 772
582 604
582 640
582 911
583 981
583 799
583 871
583 665
583 648
583 656
583 669
583 680
583 708
583 838
583 965
584 899
584 772
584 616
584 901
584 842
584 894
584 906
584 700
584 704
584 865
584 615
584 625
584 726
584 815
584 848
584 932
584 988
585 842
585 913
585 922
585 615
585 734
585 848
585 988
585 775
586 621
586 864
586 613
586 641
586 727
586 738
586 788
586 591
586 863
586 617
586 643
586 684
586 705
586 748
587 644
587 907
587 804
587 750
587 631
587 636
587 674
587 741
587 818
587 851
588 810
588 618
588 677
588 777
588 895
588 776
588 970
588 971
588 589
588 635
589 961
589 805
589 766
589 677
589 717
589 895
590 631
590 856
590 936
590 603
590 636
590 851
590 675
590 721
591 824
591 863
591 719
591 879
591 872
591 873
591 628
591 642
591 643
591 684
591 980
592 946
592 950
592 663
592 770
592 822
592 876
592 968
593 620
593 837
593 697
593 964
593 712
593 801
593 813
593 997
593 996
593 882
593 915
593 683
593 937
593 594
593 668
593 724
593 903
593 612
593 632
593 596
593 790
593 999
593 646
593 624
593 920
593 957
593 808
593 949
593 956
593 849
593 693
593 703
593 898
593 869
593 992
593 728
593 771
594 596
594 869
594 766
594 620
594 632
594 640
594 694
594 745
594 748
595 708
595 981
595 963
595 658
595 728
595 648
595 849
595 948
595 762
595 597
595 665
595 799
595 965
596 996
596 920
596 911
596 870
596 640
596 694
596 706
596 748
596 869
596 949
596 992
596 775
597 616
597 904
597 667
597 665
597 759
597 648
597 656
597 658
597 693
597 771
597 799
597 829
597 838
597 862
597 965
598 738
598 709
598 933
598 939
598 639
598 786
598 846
598 765
598 803
598 791
598 868
598 794
598 695
598 619
598 664
598 688
598 702
598 841
598 858
599 797
599 843
599 840
599 806
599 976
599 822
599 921
599 876
599 827
599 685
599 971
599 607
599 812
599 878
599 950
600 641
600 975
600 836
600 867
600 716
600 784
600 986
600 723
600 721
600 835
600 685
600 696
600 783
600 817
600 954
601 684
601 698
601 819
601 729
601 943
601 891
601 725
601 944
601 637
601 622
601 896
601 756
601 953
601 699
601 753
602 642
602 673
602 824
602 617
602 863
602 864
602 873
602 875
602 621
602 643
602 684
602 980
603 754
603 818
603 888
603 883
603 623
603 636
603 644
603 722
603 851
603 994
603 848
603 612
603 640
603 681
604 668
604 915
604 997
604 724
604 640
604 745
604 748
604 837
604 911
604 949
604 957
605 754
605 714
605 758
605 696
605 769
605 782
605 989
605 739
605 958
605 984
605 670
605 723
605 795
605 835
605 836
605 954
606 806
606 639
606 715
606 737
606 794
606 946
606 664
606 702
606 738
606 760
607 778
607 776
607 810
607 635
607 608
607 895
608 813
608 967
608 632
608 837
608 790
608 707
608 697
608 801
608 949
608 992
609 936
609 872
609 856
609 814
609 855
609 623
609 740
609 686
610 661
610 708
610 693
610 925
610 648
610 669
610 763
610 838
610 965
611 614
611 958
611 985
611 773
611 785
611 905
611 929
611 870
611 704
611 890
611 649
611 880
611 852
611 987
611 747
611 780
611 807
611 714
611 910
611 859
611 652
611 713
611 908
611 857
611 900
611 633
611 753
611 651
611 657
611 757
611 855
611 798
612 872
612 964
612 956
612 646
612 668
612 895
613 740
613 864
613 614
613 617
613 621
613 641
613 643
613 684
613 705
613 719
614 824
614 844
614 617
614 879
614 887
614 641
614 643
614 673
615 902
615 742
615 917
615 901
615 730
615 913
615 842
615 802
615 923
615 703
615 975
615 906
615 932
615 904
615 700
615 988
615 654
615 772
615 894
615 922
615 874
615 659
615 916
615 627
615 787
615 899
615 834
615 848
615 666
615 971
615 927
615 788
615 897
615 930
615 749
615 979
615 631
615 905
615 877
615 726
615 779
616 899
616 848
616 627
616 700
616 662
616 815
616 730
616 904
616 726
616 734
616 772
616 842
616 874
616 902
616 932
616 975
616 988
617 828
617 864
617 643
617 719
617 980
617 863
617 641
617 967
617 621
617 642
617 673
617 684
618 677
618 983
618 711
618 752
618 895
618 717
618 822
619 939
619 709
619 858
619 681
619 738
619 933
619 639
619 846
619 630
619 727
619 664
619 702
619 737
620 967
620 915
620 640
620 869
620 687
620 697
620 712
620 949
620 957
620 969
620 999
620 819
620 629
620 669
621 824
621 854
621 863
621 864
621 980
621 828
621 705
621 873
621 879
621 673
621 844
621 875
621 641
621 666
621 924
621 727
621 795
622 768
622 819
622 725
622 972
622 944
622 826
622 650
622 729
622 896
622 751
622 753
622 891
622 637
622 749
622 777
622 953
622 699
623 888
623 926
623 631
623 974
623 881
623 804
623 856
623 754
623 889
623 818
623 872
623 644
623 823
623 672
623 907
623 636
623 740
623 814
623 777
623 946
623 761
623 683
623 722
623 764
623 851
623 642
623 757
623 957
624 882
624 956
624 646
624 813
624 948
624 997
624 745
624 999
624 911
624 706
624 903
624 837
624 694
624 632
624 748
624 949
624 957
625 932
625 901
625 802
625 848
625 787
625 951
625 758
625 726
625 815
625 834
625 842
625 874
625 902
625 988
625 708
626 938
626 892
626 678
626 689
626 691
626 707
627 899
627 932
627 904
627 726
627 730
627 734
627 772
627 842
627 848
627 988
627 819
627 716
628 844
628 864
628 873
628 828
628 642
628 673
628 980
629 777
629 805
629 940
629 895
629 677
629 832
630 775
630 789
630 928
630 796
630 692
630 885
630 660
630 866
630 682
630 914
630 756
630 634
630 687
630 811
630 909
630 779
630 886
630 979
630 772
630 804
630 638
631 889
631 672
631 636
631 851
631 765
632 818
632 948
632 967
632 869
632 999
632 911
632 956
632 712
632 640
632 969
632 997
632 748
632 893
632 706
632 801
632 957
632 745
632 996
632 964
632 813
632 930
632 992
632 920
632 808
632 724
632 837
632 694
632 937
632 655
632 731
632 670
632 889
632 949
632 799
633 794
633 798
633 858
633 966
633 992
633 639
633 715
634 692
634 886
634 775
634 660
634 687
634 861
634 885
634 909
635 691
635 826
635 970
635 660
635 677
636 856
636 889
636 722
636 804
636 936
636 825
636 672
636 926
636 860
636 907
636 644
636 818
636 674
636 974
636 741
636 823
636 830
636 872
636 888
636 814
636 932
636 994
636 696
636 984
636 981
636 851
636 864
636 834
636 813
637 819
637 943
637 753
637 891
637 947
637 881
637 972
638 833
638 767
638 912
638 682
638 687
638 775
638 696
638 795
639 732
639 959
639 702
639 676
639 939
639 841
639 786
639 791
639 709
639 688
639 715
639 737
639 798
639 681
640 757
640 949
640 967
640 893
640 683
640 937
640 964
640 903
640 882
640 801
640 762
640 668
640 646
640 712
640 808
640 869
640 724
640 902
640 748
640 837
640 920
640 957
640 992
641 864
641 887
641 642
641 684
641 705
641 980
641 643
641 863
641 879
641 955
641 690
641 673
641 828
641 649
641 990
641 769
642 854
642 864
642 980
642 875
642 844
642 824
642 673
642 873
642 879
642 674
642 705
642 696
643 828
643 863
643 864
643 854
643 873
643 955
643 887
643 673
643 824
643 684
643 690
643 779
643 968
643 783
644 881
644 731
644 804
644 907
644 860
644 722
644 851
645 810
645 677
645 776
645 938
646 727
646 949
646 724
646 893
646 745
646 748
647 747
647 987
647 865
647 657
647 780
647 652
647 735
647 794
647 651
647 809
647 852
647 859
647 896
647 685
648 829
648 960
648 962
648 759
648 693
648 656
648 708
648 871
648 728
648 799
648 919
648 771
648 894
648 954
648 665
648 838
648 965
649 958
649 704
649 713
649 757
649 778
649 865
649 870
650 932
650 819
650 826
650 753
650 891
650 953
650 871
651 778
651 987
651 704
651 713
651 807
651 958
651 857
651 905
651 657
651 652
651 691
651 942
651 714
651 755
651 757
651 852
651 855
651 859
651 865
651 696
651 876
652 713
652 714
652 778
652 852
652 855
652 865
652 870
652 801
652 739
653 691
653 743
653 820
653 945
653 992
653 689
653 931
653 970
654 772
654 700
654 726
654 730
654 734
654 842
654 848
654 932
654 975
654 988
655 859
655 657
655 713
655 757
655 852
655 855
655 870
656 726
656 708
656 680
656 799
656 925
656 803
656 658
656 665
656 669
656 693
656 838
656 862
656 965
657 778
657 958
657 985
657 987
657 755
657 713
657 757
657 809
657 855
657 865
657 870
658 941
658 728
658 963
658 708
658 759
658 871
658 667
658 960
658 838
658 965
658 981
658 763
658 865
658 815
658 680
658 693
658 799
659 726
659 730
659 734
659 742
659 815
659 874
659 902
659 932
659 975
659 988
660 687
660 682
660 796
660 789
660 909
660 775
660 886
660 928
660 914
660 779
660 885
660 912
660 811
660 924
660 677
660 833
660 918
660 669
661 979
661 693
661 745
661 708
661 799
661 829
661 965
662 700
662 927
662 893
662 726
662 730
662 842
662 874
662 932
662 988
662 992
663 679
663 827
663 884
663 900
663 832
663 876
664 841
664 939
664 732
664 737
664 794
664 966
664 709
664 868
664 846
664 798
664 858
664 760
664 702
664 686
664 959
664 933
664 803
664 738
665 911
665 829
665 693
665 960
665 977
665 799
665 871
665 838
665 965
665 922
665 669
665 708
665 763
665 710
666 848
666 842
666 913
666 700
666 902
666 726
666 893
666 958
666 730
666 734
666 975
666 988
666 949
666 979
667 722
667 988
667 669
667 708
667 763
667 799
667 862
667 965
668 704
668 801
668 813
668 837
668 911
668 949
668 957
669 925
669 771
669 965
669 963
669 977
669 960
669 862
669 941
669 759
669 962
669 728
669 680
669 871
669 814
669 763
669 799
669 838
670 740
670 671
670 774
670 817
670 850
670 821
670 835
670 783
670 954
670 986
670 739
670 758
670 710
670 839
670 782
670 675
670 696
670 769
670 836
670 716
670 942
670 898
670 989
670 723
670 746
670 990
670 795
670 736
670 998
670 721
670 781
670 867
670 673
670 788
670 805
670 976
671 736
671 817
671 942
671 990
671 739
671 821
671 795
671 956
671 680
671 696
671 783
671 835
671 934
671 954
671 827
672 814
672 851
672 872
672 936
673 844
673 863
673 864
673 879
673 690
673 684
673 875
673 980
673 924
674 814
674 888
674 722
674 860
674 818
674 804
674 736
674 741
674 851
674 936
674 842
674 810
674 876
675 870
675 682
675 746
675 850
675 716
675 721
675 783
675 696
675 739
675 795
675 817
675 836
675 934
675 954
676 963
676 732
676 846
676 688
676 715
676 702
676 737
677 805
677 895
677 744
677 711
677 766
677 940
677 815
677 713
677 781
678 761
678 892
678 749
678 931
678 733
678 991
678 698
678 689
678 877
678 792
678 978
679 754
679 843
679 968
679 818
679 827
679 878
680 925
680 728
680 871
680 763
680 829
680 693
680 708
680 799
680 838
680 965
681 948
681 682
681 771
681 836
681 966
681 688
681 737
681 791
681 686
681 702
681 732
681 841
681 858
682 915
682 819
682 756
682 979
682 885
682 789
682 796
682 779
682 909
682 886
682 692
682 924
682 912
682 928
682 866
682 995
682 918
682 767
682 811
682 775
682 914
682 751
682 748
682 687
683 860
683 824
683 745
683 949
683 957
683 838
684 864
684 873
684 854
684 705
684 824
684 875
684 844
684 719
684 887
684 828
684 879
684 980
684 893
685 876
685 878
686 737
686 760
686 858
687 775
687 796
687 914
687 918
687 924
687 979
687 866
687 811
687 756
687 886
687 800
687 692
687 948
687 957
688 943
688 794
688 737
688 702
688 732
688 738
688 841
688 858
689 733
689 691
689 978
689 707
689 831
689 743
689 945
689 877
689 820
689 720
689 991
689 792
689 938
689 892
689 840
689 818
689 785
689 698
689 797
690 824
690 863
690 864
690 696
690 705
690 980
691 991
691 938
691 831
691 877
691 816
691 743
691 733
691 792
691 797
691 978
691 994
691 920
692 858
692 775
692 833
692 861
693 852
693 870
693 977
693 919
693 708
693 799
693 960
693 958
693 829
693 838
693 862
693 965
694 957
694 903
694 869
694 992
694 882
694 911
694 801
694 724
694 918
694 697
694 712
694 813
694 949
694 699
695 740
695 859
695 987
695 985
695 714
695 755
695 852
695 865
695 870
696 836
696 716
696 898
696 736
696 746
696 784
696 758
696 783
696 934
696 998
696 954
696 710
696 839
696 739
696 782
696 817
696 774
696 769
696 821
696 986
696 845
696 867
696 742
696 723
696 795
696 835
697 726
697 808
697 996
697 837
697 712
697 748
697 813
697 920
697 949
697 957
698 961
698 816
698 792
698 918
698 720
698 749
698 994
699 819
699 953
699 883
699 972
699 947
699 753
700 815
700 922
700 734
700 913
700 906
700 834
700 901
700 719
700 726
700 730
700 842
700 848
700 874
700 932
700 988
701 812
701 847
701 806
701 917
701 827
701 876
701 878
702 765
702 841
702 738
702 737
702 858
702 760
702 786
702 803
702 846
702 794
702 791
702 732
702 878
703 742
703 842
703 917
703 730
703 802
703 787
703 726
703 788
703 932
703 975
703 988
704 848
704 757
704 785
704 755
704 852
704 855
704 865
704 870
705 824
705 828
705 864
705 887
705 875
705 844
705 955
705 863
705 873
705 854
705 786
705 719
705 980
705 842
705 780
705 941
706 980
706 842
706 969
706 893
706 745
706 967
706 724
706 949
706 957
706 711
707 761
707 893
707 720
707 797
707 831
707 723
708 771
708 871
708 925
708 799
708 981
708 849
708 919
708 960
708 763
708 829
708 862
708 728
708 977
708 963
708 965
708 759
708 941
708 817
708 891
708 838
709 933
709 794
709 966
709 883
709 738
709 760
709 858
710 815
710 942
710 845
710 898
710 934
710 734
710 723
710 739
710 746
710 795
710 817
710 836
710 954
711 810
711 952
711 983
712 790
712 813
712 930
712 724
712 915
712 996
712 903
712 869
712 830
712 748
712 911
712 949
712 957
712 967
712 992
713 978
713 874
713 932
713 865
713 908
713 855
713 714
713 870
713 890
713 780
713 900
713 910
713 987
713 859
713 883
713 735
713 757
713 852
714 905
714 780
714 987
714 809
714 785
714 880
714 985
714 747
714 870
714 857
714 958
714 778
714 973
714 908
714 757
714 852
714 865
714 799
715 933
715 868
715 934
715 732
715 737
715 738
715 760
715 858
716 957
716 953
716 942
716 739
716 795
716 817
716 836
716 839
716 934
716 954
717 766
717 895
717 757
718 810
718 895
718 955
718 744
719 875
719 828
719 887
719 873
719 968
720 991
720 882
720 792
720 831
720 945
720 994
721 839
721 942
721 739
721 783
721 795
721 954
722 764
722 856
722 889
722 754
722 741
722 740
722 823
722 825
722 936
722 881
722 804
722 750
722 860
722 888
722 851
723 845
723 990
723 739
723 898
723 850
723 998
723 836
723 960
723 868
723 781
723 795
723 934
723 954
724 869
724 748
724 911
724 949
725 819
725 826
725 753
725 950
726 894
726 853
726 902
726 734
726 842
726 913
726 917
726 988
726 923
726 975
726 922
726 772
726 904
726 787
726 834
726 971
726 899
726 906
726 901
726 742
726 848
726 730
726 951
726 932
726 828
726 976
726 846
726 795
726 829
727 828
727 863
727 887
727 824
727 875
727 955
727 916
727 757
728 947
728 799
728 838
728 965
729 819
729 891
730 897
730 904
730 951
730 787
730 917
730 927
730 988
730 842
730 734
730 742
730 932
730 815
730 853
730 899
730 848
730 894
730 788
730 874
730 923
730 922
730 802
730 971
730 834
730 913
730 772
730 827
730 938
730 767
731 926
731 823
731 818
731 888
731 755
731 814
731 851
731 872
731 870
732 868
732 803
732 798
732 765
732 841
732 791
732 966
732 917
732 906
732 737
733 792
733 820
733 991
733 749
733 931
733 797
733 837
733 859
733 816
733 831
733 978
733 852
733 748
733 882
734 927
734 848
734 834
734 901
734 913
734 916
734 815
734 906
734 802
734 897
734 899
734 904
734 971
734 788
734 910
734 900
734 842
734 874
734 932
734 988
735 973
735 755
735 929
735 846
735 852
735 833
736 817
736 839
736 954
736 971
736 852
736 739
736 795
736 835
736 934
737 852
737 786
737 794
737 959
737 765
737 933
737 843
737 743
737 858
738 809
738 959
738 933
738 868
738 858
738 765
738 798
738 913
738 841
739 782
739 898
739 845
739 850
739 986
739 990
739 867
739 934
739 839
739 954
739 998
739 821
739 942
739 774
739 758
739 989
739 836
739 835
739 817
739 928
739 749
739 838
739 852
739 769
739 781
739 795
740 907
740 860
740 750
740 872
740 830
740 754
740 825
740 888
740 814
740 834
740 953
740 818
741 907
741 998
741 908
741 851
742 927
742 788
742 815
742 842
742 848
742 874
742 932
742 988
743 936
743 792
743 832
744 863
744 834
744 949
744 869
745 996
745 806
745 748
745 762
745 837
745 920
745 949
745 957
745 992
746 988
746 782
746 867
746 783
746 795
746 817
746 934
746 954
747 931
747 857
747 814
747 757
747 865
747 949
748 882
748 969
748 949
748 911
748 915
748 808
748 762
748 948
748 813
748 937
748 837
748 903
748 930
748 996
748 967
748 956
748 869
748 907
748 992
748 997
748 999
749 991
749 792
749 961
750 814
750 851
750 936
750 965
751 819
751 896
751 953
751 828
751 753
751 909
752 805
753 768
753 819
753 891
753 826
753 972
753 896
753 883
754 851
754 872
755 780
755 900
755 973
755 778
755 852
755 865
755 870
756 855
756 775
756 861
756 909
756 979
757 865
757 929
757 905
757 890
757 870
757 773
757 855
757 807
757 908
757 987
757 958
757 761
757 826
757 852
758 873
758 885
758 835
758 934
758 954
759 799
759 862
759 965
760 791
761 961
761 931
761 792
761 797
761 831
761 786
762 930
762 869
762 911
762 949
762 957
762 992
763 977
763 838
763 962
763 981
763 849
763 965
763 926
763 771
763 799
764 974
764 818
764 851
764 815
765 879
765 858
766 913
766 776
766 777
766 810
766 895
766 962
767 886
767 979
767 775
767 796
767 909
767 817
768 883
768 819
768 826
768 891
768 896
769 867
769 898
769 774
769 795
769 817
769 836
769 954
770 876
770 793
770 827
770 832
770 878
771 838
771 965
771 993
772 917
772 988
772 975
772 901
772 932
772 834
772 842
772 848
772 874
773 957
773 778
773 852
773 855
773 865
774 902
774 781
774 784
774 795
774 836
774 839
774 954
775 874
775 866
775 789
775 979
775 918
775 811
775 886
775 995
775 885
775 909
775 861
776 895
776 982
777 805
777 970
777 810
778 828
778 910
778 890
778 917
778 852
778 855
778 865
779 811
779 892
779 861
780 973
780 855
780 870
781 782
781 817
781 934
781 954
782 783
782 817
782 990
782 835
782 867
782 784
782 877
782 795
782 836
782 934
782 954
782 998
783 817
783 942
783 784
783 795
783 835
783 934
783 954
784 795
784 817
784 835
784 836
784 954
785 855
785 859
785 865
785 870
786 818
786 878
786 939
786 959
786 841
787 842
787 932
787 988
788 902
788 874
788 916
788 923
788 922
788 964
788 842
788 848
788 932
788 988
789 988
789 811
789 847
790 801
790 869
790 920
790 911
790 949
791 899
791 858
792 860
792 991
792 994
792 931
792 945
792 797
792 961
792 892
792 831
792 820
792 877
792 816
792 799
792 958
792 836
793 876
793 832
793 878
793 950
794 939
794 959
795 954
795 998
795 986
795 867
795 942
795 989
795 990
795 845
795 836
795 839
795 850
795 817
795 934
795 821
795 898
795 835
795 973
795 975
796 992
796 818
796 909
796 918
797 978
797 892
797 961
797 865
797 819
798 858
799 941
799 977
799 963
799 919
799 838
799 962
799 925
799 829
799 965
799 849
799 981
799 871
799 929
799 939
799 867
800 902
800 886
800 811
800 909
801 837
801 957
801 949
801 992
802 848
802 840
802 842
802 874
802 902
802 932
802 988
804 851
804 936
805 895
805 952
805 983
805 886
806 836
806 832
806 840
806 822
806 876
807 973
807 928
807 852
807 870
807 934
808 994
808 904
808 837
808 911
808 949
809 985
809 905
809 890
809 855
809 900
809 870
809 958
809 859
809 932
809 852
810 970
810 940
810 895
811 975
811 928
812 894
812 822
812 876
812 878
812 858
813 911
813 949
813 957
814 907
814 860
814 881
814 823
814 818
814 851
814 829
814 862
815 904
815 897
815 899
815 901
815 842
815 848
815 932
815 988
815 997
816 928
817 942
817 867
817 821
817 836
817 850
817 845
817 934
817 954
817 996
817 972
817 915
817 914
817 839
818 825
818 851
819 943
819 826
819 953
819 891
819 944
819 883
819 972
819 896
819 947
819 876
819 965
820 961
821 859
821 835
821 836
821 954
822 950
822 878
822 881
822 832
822 876
823 872
824 887
824 844
824 828
824 873
824 864
824 980
825 851
825 872
825 936
826 891
826 896
827 860
827 832
827 876
827 878
827 950
828 844
828 999
828 980
829 851
829 838
829 941
829 862
829 981
829 960
829 919
829 845
829 830
829 965
830 851
830 936
831 991
831 931
831 961
831 994
832 843
832 950
832 876
832 878
833 924
833 928
833 912
834 853
834 902
834 894
834 906
834 932
834 842
834 848
834 874
834 988
835 867
835 934
835 836
835 839
835 954
836 990
836 839
836 954
836 942
836 963
836 934
837 945
837 911
837 949
837 992
838 949
838 962
838 925
838 919
838 871
838 862
838 977
838 960
838 965
839 898
839 845
839 998
839 941
839 934
839 954
840 876
840 878
841 939
841 933
841 858
841 846
842 916
842 904
842 901
842 975
842 853
842 897
842 971
842 917
842 894
842 874
842 988
842 922
842 902
842 927
842 913
842 951
842 848
842 906
842 932
843 957
843 984
843 968
843 876
843 878
843 921
843 935
844 980
844 861
845 954
846 858
847 870
847 950
847 993
847 946
847 992
847 921
847 968
848 906
848 916
848 902
848 922
848 894
848 971
848 917
848 913
848 975
848 951
848 901
848 923
848 927
848 874
848 899
848 897
848 853
848 877
848 878
848 932
848 988
849 862
849 965
850 954
850 998
851 856
851 888
851 974
851 881
851 872
851 860
851 907
851 936
851 889
851 929
851 979
851 969
851 869
852 865
852 880
852 987
852 958
852 985
852 890
852 857
852 973
852 855
852 929
852 910
852 905
852 908
852 859
852 975
852 907
852 870
853 874
853 894
853 932
853 988
854 955
854 879
854 863
854 864
855 890
855 900
855 905
855 870
855 973
855 857
855 987
855 985
855 958
855 945
855 865
857 865
857 870
858 933
858 868
858 939
858 959
858 859
859 973
859 958
859 865
859 870
860 936
860 862
861 928
861 866
861 914
861 925
861 909
861 876
862 941
862 977
862 906
863 887
863 975
864 879
864 955
864 980
864 875
864 873
864 887
865 880
865 908
865 890
865 973
865 900
865 985
865 987
865 929
865 905
865 910
865 868
865 986
865 924
865 974
865 870
867 934
867 998
869 992
869 957
869 948
869 930
869 967
869 949
870 958
870 910
870 908
870 880
870 973
870 900
870 929
870 894
870 948
871 965
872 888
872 881
872 974
872 936
872 918
874 902
874 897
874 922
874 951
874 927
874 894
874 913
874 932
874 975
874 980
874 982
876 878
876 976
876 946
876 921
876 930
878 993
878 935
878 946
878 884
878 968
878 976
878 921
878 990
878 971
879 955
879 966
879 932
880 988
880 911
880 949
882 957
882 911
882 920
882 949
882 992
883 891
883 972
884 997
886 921
891 960
891 896
892 931
892 978
892 921
893 911
893 949
893 997
894 932
894 975
894 988
895 970
895 982
896 972
897 932
897 975
897 988
898 934
898 954
899 932
899 988
901 988
902 923
902 988
902 957
903 949
903 957
904 932
904 975
904 988
904 998
906 932
906 988
909 914
909 918
910 932
910 954
911 915
911 920
911 957
911 996
911 997
911 967
911 948
911 969
911 956
911 971
911 949
911 992
913 958
913 932
913 988
914 924
915 920
915 949
915 999
916 932
916 975
917 932
917 988
919 965
920 955
920 949
920 992
920 997
921 984
921 968
922 932
922 988
923 947
923 988
925 965
927 932
927 988
928 995
930 949
930 957
930 992
932 971
932 975
932 988
934 989
934 998
934 986
934 942
934 954
937 949
938 994
941 965
942 952
942 954
944 947
944 953
944 954
945 965
945 994
948 949
948 957
949 957
949 956
949 997
949 964
949 967
949 969
950 965
951 988
954 989
954 986
957 997
957 996
957 967
957 992
957 969
957 964
960 965
961 980
962 965
963 965
965 977
965 978
967 997
967 999
969 999
969 997
971 988
977 994
991 994
996 997
