0 116
0 3
0 777
0 743
0 763
0 236
0 391
0 397
0 200
0 703
0 821
0 217
0 537
0 75
0 149
0 677
0 727
0 239
0 133
0 607
0 641
0 712
1 179
1 725
1 92
1 873
1 987
1 57
1 837
1 415
1 714
1 123
1 194
1 786
1 818
1 430
1 825
1 48
1 60
1 595
1 615
1 117
1 636
1 129
1 648
1 739
1 293
1 864
1 531
1 529
1 197
1 272
1 474
1 177
1 702
1 462
1 102
1 625
1 851
1 56
1 210
1 831
1 357
1 920
1 154
1 842
1 389
1 687
1 346
2 492
2 873
2 716
2 57
2 848
2 49
2 336
2 141
2 111
2 388
2 931
2 952
2 755
2 91
2 861
2 643
2 74
2 593
2 92
2 97
2 636
2 640
2 242
2 341
2 757
2 197
2 275
2 298
2 63
2 30
2 443
2 641
3 293
3 978
3 952
3 644
3 773
3 136
3 44
3 898
3 423
3 229
3 209
3 694
3 775
3 127
3 803
3 705
3 18
3 34
3 478
3 324
3 771
3 161
3 227
3 638
3 12
3 883
3 639
3 856
3 892
3 428
3 203
3 879
3 142
3 891
3 258
3 467
3 540
3 169
3 704
3 494
3 766
3 628
3 39
3 235
3 463
3 691
3 823
3 349
3 739
3 71
3 936
3 976
3 938
3 46
3 716
3 412
3 226
3 276
3 481
3 560
3 271
3 945
3 74
3 966
3 442
3 926
3 175
3 67
3 484
3 736
3 139
3 847
3 50
3 747
3 231
3 679
3 601
3 168
3 283
3 983
3 24
3 750
3 551
3 443
3 959
3 719
3 758
3 83
3 512
3 312
3 746
3 594
3 198
3 854
3 777
3 230
3 26
3 519
3 299
3 799
3 862
3 980
3 520
3 254
4 593
4 708
4 367
4 35
4 611
4 617
4 630
4 454
4 997
4 38
4 875
4 495
4 53
4 33
4 707
4 749
4 300
4 294
4 96
4 765
4 902
4 742
4 310
4 581
4 120
4 254
4 285
4 340
4 852
4 870
4 443
5 739
5 864
5 50
5 736
5 767
5 151
5 187
5 550
5 250
5 697
5 32
5 451
5 933
5 546
5 936
5 237
5 147
5 906
5 845
5 835
5 439
5 315
5 772
5 637
5 561
5 955
5 255
5 851
5 643
5 13
5 533
5 66
5 80
5 949
5 239
5 642
5 651
5 82
5 134
5 148
5 870
5 576
5 168
5 712
6 648
6 739
6 519
6 266
6 813
6 924
6 104
6 872
6 559
6 723
6 319
6 515
6 556
6 831
6 944
6 535
6 988
6 984
6 930
6 793
6 703
6 479
6 430
6 268
6 43
6 577
6 726
6 495
6 171
6 291
6 94
6 114
6 383
6 168
7 92
7 296
7 529
7 73
7 109
7 466
7 448
7 190
7 363
7 660
7 246
7 486
7 460
7 783
7 267
7 690
7 430
7 993
7 605
7 675
7 272
7 160
7 401
7 341
7 776
7 392
7 534
7 66
7 677
7 240
7 239
7 269
7 148
7 290
7 202
7 665
7 950
8 856
8 295
8 26
8 406
8 529
8 570
8 718
8 810
8 758
8 472
8 40
8 167
8 400
8 308
8 882
8 401
8 146
8 708
8 243
8 795
8 77
8 841
8 418
8 967
8 726
8 291
8 314
9 636
9 783
9 897
9 938
9 991
9 338
9 295
9 345
9 488
9 869
9 50
9 215
9 243
9 553
9 183
9 976
9 343
9 536
9 135
9 931
9 414
9 619
9 483
9 73
9 923
9 407
9 827
9 994
9 884
9 497
9 724
9 216
9 603
9 335
9 373
9 548
9 962
9 763
9 149
9 396
9 989
9 114
9 434
9 715
9 820
9 786
9 584
9 905
9 76
9 523
9 705
9 967
9 917
9 843
9 526
9 140
9 22
9 260
9 932
9 15
9 287
9 108
9 853
9 627
9 518
9 13
9 858
9 628
9 109
9 795
9 541
9 283
9 969
9 670
9 159
9 363
9 559
9 385
9 997
9 264
9 43
9 560
9 176
9 201
9 852
9 713
10 92
10 793
10 341
10 415
10 18
10 255
10 326
10 288
10 342
10 362
10 454
10 782
10 176
10 422
10 208
10 443
10 470
10 391
10 307
10 927
10 457
10 319
10 476
10 198
10 866
10 199
10 712
10 713
10 865
11 48
11 664
11 783
11 837
11 840
11 704
11 529
11 512
11 519
11 408
11 619
11 438
11 238
11 732
11 728
11 753
11 114
11 595
11 229
11 386
11 94
11 35
11 587
11 77
11 624
11 177
11 393
11 342
11 954
11 464
11 264
11 524
11 329
11 842
11 675
12 873
12 797
12 699
12 704
12 879
12 983
12 418
12 411
12 787
12 390
12 537
12 676
12 891
12 639
12 643
12 463
12 209
12 572
12 118
12 200
12 953
12 268
12 281
13 881
13 73
13 561
13 578
13 298
13 43
13 458
13 210
13 751
13 558
13 945
13 303
13 545
13 460
13 53
13 502
13 67
13 80
13 445
13 683
13 782
13 741
13 66
13 32
13 99
13 980
13 614
13 844
13 526
13 719
13 546
13 807
13 159
13 995
13 256
13 999
13 325
13 726
13 342
13 332
13 951
13 211
13 711
13 480
13 955
13 87
13 539
13 707
13 768
13 590
13 363
13 953
13 163
13 371
13 591
13 915
13 872
13 670
13 313
13 387
13 917
13 790
13 985
13 927
13 449
13 537
13 61
13 534
13 149
13 684
13 949
13 575
13 858
13 808
13 682
13 398
13 93
14 15
14 150
14 972
14 512
14 893
14 969
14 542
14 579
14 921
14 377
14 164
14 822
14 207
14 174
14 788
14 532
14 578
14 717
14 255
14 299
14 487
14 748
14 642
14 148
14 689
15 918
15 49
15 92
15 804
15 482
15 179
15 636
15 648
15 784
15 593
15 650
15 125
15 47
15 759
15 329
15 753
15 168
15 232
15 176
15 437
15 100
15 267
15 599
15 795
15 669
15 510
15 140
15 734
15 438
15 838
15 641
15 746
15 292
16 372
16 691
16 360
16 55
16 763
16 421
16 755
16 377
16 454
16 515
16 66
16 80
16 170
16 858
16 134
16 975
16 696
16 438
16 440
16 365
16 581
16 838
16 876
16 443
16 641
16 375
16 471
17 804
17 705
17 616
17 624
17 299
17 104
17 159
17 874
17 67
17 502
17 575
17 858
17 988
17 140
17 289
17 422
17 290
17 340
17 829
17 839
17 860
17 932
17 957
18 837
18 797
18 771
18 628
18 867
18 775
18 685
18 540
18 494
18 388
18 467
18 766
18 212
18 531
18 478
18 978
18 892
18 202
18 327
18 866
18 738
18 609
18 582
18 254
18 676
18 579
18 792
18 741
18 365
18 683
18 481
18 692
18 282
18 122
18 363
18 578
18 401
18 856
18 699
18 463
18 230
18 630
18 250
18 268
18 834
18 689
18 361
19 57
19 619
19 792
19 454
19 263
19 264
19 77
19 650
19 481
19 888
19 808
19 312
19 933
19 43
19 56
19 63
19 632
19 748
19 94
19 770
19 865
20 840
20 478
20 702
20 190
20 234
20 547
20 386
20 524
20 526
20 111
20 221
20 682
20 662
20 313
20 165
20 256
20 590
20 946
20 890
20 267
20 583
20 210
20 115
20 93
20 344
20 169
20 967
20 51
20 385
20 724
20 65
20 679
20 810
20 957
20 409
20 742
20 844
20 163
20 687
20 696
20 220
20 855
20 398
20 435
20 438
20 852
20 355
20 443
20 819
21 529
21 72
21 673
21 730
21 302
21 551
21 45
21 386
21 577
21 70
21 458
21 520
21 703
21 279
21 497
21 622
21 131
21 651
21 269
21 895
21 988
21 329
21 155
21 822
21 576
21 168
21 829
22 593
22 336
22 643
22 147
22 421
22 753
22 847
22 342
22 686
22 422
22 155
22 398
22 832
22 340
22 443
23 593
23 706
23 194
23 282
23 326
23 25
23 647
23 417
23 611
23 355
23 847
23 693
23 413
23 675
23 711
23 68
23 949
23 239
23 257
24 595
24 867
24 883
24 173
24 243
24 175
24 218
24 555
24 198
24 491
24 264
24 270
24 852
24 891
24 498
24 326
24 663
24 189
24 450
24 27
24 43
24 56
24 320
24 577
24 495
24 554
24 82
24 527
25 49
25 184
25 426
25 692
25 680
25 679
25 89
25 118
25 971
25 775
25 452
25 566
25 130
25 84
25 387
25 301
25 162
25 847
25 112
25 539
25 104
25 617
25 137
25 151
25 670
25 788
25 799
25 851
25 200
25 140
25 163
25 859
25 54
26 415
26 529
26 553
26 923
26 827
26 414
26 570
26 477
26 406
26 976
26 72
26 718
26 497
26 736
26 795
26 73
26 897
26 272
26 619
26 343
26 767
26 931
26 789
26 216
26 197
26 146
26 743
26 869
26 810
26 749
26 295
26 41
26 724
26 800
26 433
26 222
26 667
26 946
26 332
26 83
26 571
26 774
26 170
26 476
26 49
26 412
26 506
26 832
26 788
26 90
26 966
26 470
26 32
26 75
26 601
26 893
26 696
26 358
26 359
26 920
26 369
26 372
26 941
26 323
26 452
26 66
26 234
26 599
26 109
26 215
26 335
26 532
26 794
26 283
26 611
26 851
26 586
26 417
26 999
26 264
26 298
26 43
26 47
26 526
26 59
26 340
26 713
27 837
27 341
27 797
27 44
27 628
27 243
27 283
27 224
27 862
27 672
27 385
27 264
27 268
27 501
27 548
27 69
27 970
27 465
27 612
27 87
27 380
27 105
27 928
27 958
27 191
27 99
27 573
27 206
27 799
27 778
27 482
27 140
27 309
27 604
27 767
27 769
27 237
27 761
27 331
27 640
27 727
27 826
27 623
27 43
27 320
27 748
27 495
27 509
27 101
27 687
27 870
28 529
28 634
28 673
28 266
28 730
28 824
28 349
28 411
28 559
28 200
28 323
28 264
28 524
28 270
28 970
28 528
28 205
28 632
28 612
28 577
28 210
28 132
28 181
28 621
28 405
28 871
28 705
28 676
28 550
28 727
28 731
28 637
28 424
28 569
28 341
28 431
28 976
28 755
28 672
28 790
28 816
28 330
28 844
28 43
28 63
28 320
28 231
28 748
28 495
28 980
28 213
28 244
28 398
28 435
28 93
28 823
29 129
29 645
29 55
29 851
29 188
29 113
29 155
29 314
29 403
29 419
29 934
29 531
29 736
29 93
29 713
29 740
29 819
29 932
29 957
30 492
30 599
30 393
30 748
30 145
30 208
30 54
30 583
30 791
30 913
30 832
30 279
30 469
30 176
30 554
30 468
30 174
30 965
30 391
30 765
30 815
30 388
30 413
30 46
30 581
30 592
30 120
30 443
31 97
31 879
31 204
31 561
31 669
31 219
31 722
31 319
31 885
31 418
31 413
31 72
31 407
31 662
31 928
31 439
31 642
31 558
31 923
31 82
31 137
31 552
31 51
31 567
31 188
31 792
31 385
31 992
31 231
31 239
31 878
31 381
31 525
31 860
32 57
32 189
32 739
32 809
32 336
32 775
32 795
32 623
32 326
32 118
32 559
32 417
32 526
32 533
32 99
32 420
32 240
32 618
32 140
33 531
33 797
33 34
33 108
33 666
33 159
33 753
33 358
33 534
33 658
33 734
33 74
33 413
33 343
33 843
33 986
33 316
33 801
33 997
33 495
33 155
33 381
33 592
33 285
33 237
33 292
34 729
34 773
34 203
34 643
34 883
34 771
34 39
34 898
34 531
34 856
34 229
34 359
34 686
34 801
34 812
34 829
34 763
34 130
34 977
34 327
34 723
34 169
34 685
34 209
34 978
34 230
34 529
34 536
34 931
34 572
34 153
34 730
34 200
34 962
34 264
34 270
34 152
34 140
34 842
34 819
34 860
35 645
35 258
35 519
35 448
35 248
35 283
35 112
35 512
35 948
35 896
35 565
35 232
35 579
35 266
35 510
35 886
35 634
35 604
35 499
35 924
35 919
35 147
35 986
35 624
35 908
35 574
35 702
35 572
35 692
35 763
35 262
35 973
35 267
35 602
35 103
35 225
35 321
35 605
35 399
35 812
35 74
35 630
35 500
35 557
35 357
35 932
35 99
35 805
35 696
35 947
35 802
35 997
35 939
35 366
35 744
35 157
35 236
35 590
35 443
35 994
35 648
35 227
35 553
35 115
35 55
35 669
35 255
35 37
35 386
35 453
35 761
35 651
35 890
35 904
35 689
35 503
35 819
36 57
36 258
36 856
36 215
36 299
36 487
36 422
36 859
36 403
36 489
36 662
36 398
36 746
36 513
36 702
36 891
36 921
36 580
36 507
36 320
36 899
36 782
36 117
36 155
36 165
36 687
36 220
36 244
36 435
36 59
37 74
37 414
37 730
37 732
37 862
37 493
37 922
37 386
37 365
37 941
37 899
37 362
37 246
37 912
37 816
37 672
37 933
37 521
37 984
37 174
37 440
37 151
37 877
37 425
37 878
37 180
37 603
37 704
37 636
37 795
37 235
37 45
37 567
37 582
37 678
37 188
37 874
37 373
37 953
37 965
37 221
37 576
38 578
38 702
38 226
38 730
38 953
38 263
38 264
38 524
38 84
38 231
38 87
38 495
38 65
38 612
38 770
38 667
38 742
38 529
38 229
38 360
38 126
38 555
38 244
38 173
38 517
38 58
38 43
38 63
38 577
38 210
38 748
38 178
38 979
38 443
38 211
39 864
39 258
39 775
39 797
39 803
39 200
39 756
39 536
39 465
39 736
39 587
39 79
39 621
39 643
39 388
39 173
39 694
39 109
39 702
39 137
39 679
39 851
39 431
39 246
39 264
39 441
39 566
39 163
39 322
39 42
40 469
40 60
40 74
40 588
40 432
40 253
40 770
40 430
40 936
40 56
40 979
40 347
40 585
40 593
40 608
40 116
40 636
40 129
40 664
40 716
40 739
40 783
40 848
40 341
40 372
40 797
40 736
40 574
40 821
40 499
40 626
40 431
40 323
40 899
40 268
40 85
40 726
40 486
40 811
40 682
40 375
40 957
41 57
41 608
41 639
41 529
41 736
41 619
41 209
41 918
41 751
41 543
41 112
41 487
41 317
41 599
41 146
41 708
41 243
41 477
41 532
41 572
41 702
41 722
41 353
41 476
41 577
41 451
41 507
41 254
41 284
41 870
41 93
41 950
42 715
42 267
42 336
42 227
42 786
42 210
42 239
42 111
42 281
42 220
42 523
42 564
42 891
42 534
42 752
42 705
42 845
42 967
42 535
42 750
42 843
42 445
42 168
42 292
42 865
43 593
43 715
43 109
43 702
43 190
43 722
43 417
43 481
43 524
43 764
43 320
43 562
43 506
43 69
43 90
43 465
43 484
43 85
43 654
43 612
43 62
43 268
43 457
43 970
43 495
43 774
43 65
43 210
43 726
43 750
43 263
43 47
43 600
43 875
43 217
43 233
43 162
43 563
43 619
43 464
43 119
43 902
43 586
43 804
43 275
43 257
43 666
43 341
43 411
43 64
43 609
43 255
43 892
43 398
43 96
43 315
43 203
43 362
43 947
43 855
43 592
43 721
43 462
43 223
43 271
43 151
43 510
43 337
43 693
43 859
43 828
43 625
43 208
43 504
43 877
43 748
43 291
43 758
43 290
43 322
43 168
44 593
44 864
44 883
44 423
44 463
44 428
44 169
44 898
44 203
44 704
44 628
44 212
44 494
44 955
44 230
44 854
44 221
44 843
44 548
44 528
44 924
44 561
44 555
44 720
44 176
44 67
44 445
44 932
44 65
44 879
44 127
44 757
44 909
44 218
44 200
44 85
44 68
44 289
44 313
44 314
45 551
45 58
45 454
45 930
45 582
45 51
45 847
45 186
45 362
45 559
45 200
45 250
45 412
45 907
45 319
45 678
45 453
45 379
45 967
45 96
45 225
45 348
45 89
45 741
45 896
45 783
45 115
45 463
45 165
45 923
45 717
45 934
45 255
45 645
45 471
45 670
45 64
45 883
45 746
45 446
45 986
45 57
45 299
45 214
45 188
45 246
45 354
45 386
45 954
45 807
45 731
45 304
45 201
45 855
46 296
46 952
46 327
46 591
46 422
46 280
46 870
46 399
46 785
46 801
46 394
46 852
46 254
46 346
46 826
46 331
46 529
46 743
46 761
46 476
46 504
46 997
46 339
46 930
46 377
46 709
46 275
46 644
46 987
46 368
46 708
46 151
46 862
46 581
46 340
46 805
47 640
47 708
47 795
47 112
47 219
47 110
47 670
47 263
47 264
47 268
47 524
47 731
47 254
47 56
47 63
47 890
47 114
47 81
47 641
47 375
48 382
48 640
48 606
48 688
48 706
48 608
48 729
48 242
48 150
48 716
48 442
48 783
48 378
48 253
48 871
48 141
48 432
48 57
48 117
48 267
48 166
48 403
48 250
48 543
48 728
48 568
48 258
48 327
48 557
48 906
48 120
48 522
48 140
48 119
48 530
48 450
48 471
48 737
48 968
48 613
48 398
48 856
48 480
48 97
48 648
48 664
48 739
48 771
48 423
48 494
48 151
48 630
48 454
48 992
48 533
48 149
48 727
48 822
48 285
48 713
49 71
49 597
49 92
49 296
49 253
49 615
49 141
49 638
49 764
49 720
49 248
49 79
49 265
49 400
49 925
49 57
49 595
49 97
49 103
49 116
49 636
49 739
49 784
49 293
49 848
49 372
49 258
49 215
49 243
49 335
49 589
49 282
49 446
49 352
49 431
49 56
49 210
49 456
49 398
49 254
49 932
50 97
50 615
50 739
50 267
50 372
50 529
50 360
50 483
50 466
50 536
50 243
50 73
50 718
50 426
50 378
50 86
50 420
50 568
50 205
50 77
50 229
50 972
50 585
50 149
50 255
50 91
50 364
50 836
50 129
50 708
50 795
50 335
50 414
50 587
50 151
50 377
50 508
50 748
50 584
50 633
50 658
50 731
50 505
50 509
50 859
50 581
51 215
51 299
51 609
51 453
51 358
51 912
51 404
51 586
51 342
51 690
51 942
51 373
51 903
51 649
51 847
51 464
51 454
51 86
51 665
51 303
51 268
51 908
51 261
51 370
51 566
51 375
51 873
51 552
51 898
51 77
51 281
51 722
51 506
51 599
51 67
51 72
51 660
51 678
51 246
51 792
51 385
51 965
51 481
51 726
51 534
51 963
51 975
51 322
51 957
52 150
52 771
52 795
52 843
52 104
52 577
52 741
52 622
52 213
52 853
52 321
52 206
52 148
52 155
52 815
52 315
52 429
52 957
53 619
53 693
53 377
53 660
53 200
53 354
53 558
53 981
53 614
53 461
53 889
53 842
53 320
53 242
53 564
53 148
53 865
53 641
53 240
53 220
53 64
53 852
53 745
54 469
54 540
54 867
54 616
54 623
54 344
54 626
54 680
54 404
54 418
54 834
54 329
54 689
54 244
54 475
54 257
54 928
54 844
54 496
54 147
54 193
54 894
54 228
54 909
54 968
54 62
54 555
54 809
54 226
54 790
54 164
54 750
54 220
54 70
54 852
54 876
55 688
55 372
55 771
55 262
55 542
55 275
55 781
55 232
55 673
55 344
55 669
55 541
55 604
55 277
55 108
55 948
55 587
55 833
55 919
55 140
55 836
55 730
55 74
55 981
55 912
55 265
55 576
55 447
55 926
55 620
55 636
55 988
55 743
55 925
55 615
55 699
55 944
55 992
55 978
55 451
55 112
55 671
55 219
55 487
55 723
55 354
55 264
55 534
55 544
55 560
55 569
55 82
55 134
55 220
55 398
55 538
55 139
56 706
56 118
56 723
56 386
56 515
56 263
56 264
56 501
56 726
56 495
56 484
56 233
56 774
56 528
56 113
56 270
56 562
56 465
56 654
56 750
56 87
56 132
56 548
56 320
56 84
56 62
56 70
56 612
56 473
56 317
56 148
56 630
56 827
56 303
56 659
56 929
56 482
56 445
56 123
56 512
56 897
56 534
56 913
56 597
56 518
56 944
56 519
56 182
56 116
56 582
56 813
56 283
56 563
56 803
56 429
56 172
56 107
56 210
56 748
56 526
56 622
56 731
56 689
56 59
57 881
57 802
57 150
57 492
57 296
57 972
57 793
57 392
57 469
57 871
57 918
57 636
57 593
57 880
57 442
57 615
57 648
57 987
57 117
57 640
57 873
57 71
57 366
57 608
57 602
57 864
57 166
57 415
57 116
57 242
57 588
57 989
57 549
57 417
57 661
57 274
57 795
57 697
57 577
57 444
57 914
57 431
57 845
57 546
57 772
57 710
57 86
57 312
57 139
57 950
57 543
57 996
57 692
57 928
57 295
57 735
57 433
57 816
57 939
57 658
57 791
57 325
57 688
57 784
57 293
57 837
57 363
57 391
57 411
57 404
57 418
57 967
57 748
57 520
57 291
57 852
57 429
58 783
58 307
58 797
58 532
58 542
58 112
58 669
58 384
58 670
58 550
58 559
58 138
58 321
58 362
58 373
58 385
58 954
58 965
58 149
58 949
58 566
58 176
58 163
58 238
58 284
58 957
59 588
59 73
59 390
59 905
59 102
59 104
59 118
59 200
59 385
59 968
59 689
59 770
59 402
59 331
59 583
59 695
59 581
59 241
59 162
59 424
59 231
59 139
59 614
59 135
59 181
59 100
59 690
59 520
59 815
59 151
59 173
59 257
59 314
59 355
59 443
60 336
60 482
60 608
60 267
60 415
60 987
60 848
60 739
60 469
60 166
60 442
60 116
60 382
60 809
60 584
60 613
60 541
60 702
60 765
60 294
60 978
60 157
60 374
60 387
60 945
60 552
60 513
60 98
60 517
60 666
60 595
60 92
60 97
60 636
60 648
60 664
60 879
60 183
60 104
60 723
60 967
60 600
60 240
60 281
60 920
60 101
61 599
61 789
61 112
61 521
61 302
61 369
61 559
61 571
61 787
61 907
61 288
61 198
61 295
61 366
61 138
61 783
61 129
61 888
61 826
61 164
61 856
61 589
61 128
61 582
61 630
61 200
61 348
61 354
61 874
61 404
61 953
61 965
61 992
61 268
61 577
61 502
61 651
61 738
61 696
61 576
61 805
61 865
62 593
62 664
62 883
62 578
62 954
62 515
62 263
62 967
62 246
62 356
62 410
62 80
62 89
62 72
62 63
62 726
62 748
62 66
62 357
62 134
62 934
62 682
62 503
62 523
63 615
63 142
63 923
63 976
63 541
63 598
63 730
63 365
63 524
63 65
63 268
63 113
63 654
63 205
63 210
63 233
63 264
63 600
63 577
63 726
63 484
63 298
63 84
63 69
63 632
63 765
63 375
63 211
63 294
63 729
63 297
63 755
63 329
63 816
63 638
63 782
63 247
63 229
63 868
63 485
63 103
63 590
63 427
63 725
63 272
63 461
63 831
63 194
63 784
63 420
63 553
63 254
63 244
63 387
63 602
63 924
63 231
63 533
63 684
63 240
63 438
64 864
64 432
64 775
64 669
64 617
64 625
64 187
64 369
64 419
64 551
64 174
64 480
64 325
64 472
64 425
64 534
64 880
64 827
64 114
64 257
64 852
64 443
64 525
64 251
65 648
65 688
65 341
65 367
65 634
65 186
65 246
65 524
65 298
65 320
65 462
65 726
65 231
65 495
65 543
65 473
65 761
65 834
65 878
65 961
65 155
65 829
65 932
65 957
66 97
66 117
66 542
66 487
66 680
66 851
66 551
66 320
66 533
66 502
66 546
66 752
66 844
66 980
66 933
66 719
66 460
66 727
66 68
66 80
66 949
66 534
66 473
66 182
66 543
66 99
66 697
66 751
66 545
66 698
66 981
66 684
66 677
66 241
66 741
66 451
66 149
66 829
66 959
66 657
66 771
66 133
66 809
66 659
66 524
66 589
66 353
66 885
66 114
66 724
66 538
66 244
66 868
66 410
66 778
66 179
66 992
66 332
66 953
66 967
66 421
66 368
66 176
66 77
66 270
66 576
66 173
66 203
66 824
66 815
66 480
66 726
66 931
66 794
66 696
66 954
66 522
66 201
66 75
66 222
66 834
66 591
66 101
66 329
66 687
66 689
66 237
66 444
67 706
67 783
67 987
67 388
67 884
67 690
67 373
67 782
67 534
67 108
67 413
67 786
67 265
67 679
67 512
67 549
67 871
67 864
67 802
67 394
67 332
67 68
67 170
67 684
67 222
67 329
67 842
67 961
67 806
68 116
68 415
68 519
68 177
68 521
68 104
68 351
68 481
68 533
68 534
68 543
68 949
68 239
68 80
68 980
68 303
68 698
68 473
68 502
68 171
68 807
68 341
68 195
68 577
68 300
68 631
68 713
68 120
68 680
68 109
68 936
68 580
68 71
68 105
68 518
68 307
68 921
68 717
68 84
68 92
68 989
68 553
68 374
68 75
68 99
68 677
68 269
68 835
68 329
68 439
68 735
68 950
69 372
69 529
69 277
69 100
69 317
69 846
69 885
69 965
69 268
69 524
69 577
69 308
69 356
69 726
69 748
69 495
69 859
70 360
70 587
70 234
70 547
70 559
70 385
70 263
70 264
70 268
70 270
70 136
70 847
70 608
70 549
70 86
70 965
70 211
70 714
70 370
70 391
70 495
70 99
70 244
70 855
70 913
71 650
71 645
71 837
71 117
71 442
71 103
71 158
71 74
71 715
71 929
71 880
71 814
71 625
71 226
71 474
71 208
71 190
71 899
71 943
71 630
71 556
71 319
71 499
71 734
71 593
71 595
71 602
71 615
71 636
71 648
71 267
71 783
71 864
71 372
71 599
71 414
71 302
71 397
71 287
71 874
71 263
71 264
71 495
71 269
71 975
71 714
71 581
71 322
71 852
71 443
71 375
72 593
72 664
72 639
72 142
72 705
72 529
72 658
72 753
72 734
72 521
72 109
72 197
72 243
72 795
72 335
72 343
72 541
72 421
72 124
72 732
72 902
72 264
72 113
72 632
72 534
72 460
72 286
72 291
72 201
72 696
73 92
73 467
73 529
73 466
73 343
73 718
73 827
73 414
73 923
73 497
73 146
73 708
73 994
73 750
73 184
73 418
73 646
73 916
73 752
73 717
73 782
73 327
73 496
73 346
73 914
73 243
73 795
73 406
73 462
73 510
73 190
73 899
73 653
73 858
73 140
73 822
73 237
73 819
74 192
74 415
74 141
74 871
74 650
74 109
74 724
74 260
74 554
74 988
74 916
74 92
74 608
74 636
74 372
74 466
74 232
74 908
74 670
74 273
74 678
74 188
74 348
74 270
74 859
74 306
74 740
75 648
75 242
75 644
75 579
75 317
75 872
75 354
75 231
75 451
75 543
75 80
75 460
75 420
75 719
75 136
75 466
75 129
75 737
75 744
75 826
75 336
75 942
75 956
75 925
75 289
75 805
75 190
75 346
75 667
75 479
75 257
75 684
75 240
75 656
75 208
75 641
75 713
75 251
75 957
76 608
76 541
76 299
76 153
76 550
76 173
76 963
76 600
76 909
76 438
76 708
76 968
76 246
76 874
76 417
76 418
76 941
76 992
76 945
76 949
76 779
76 274
76 511
76 581
76 340
77 372
77 243
77 295
77 810
77 532
77 552
77 561
77 579
77 177
77 986
77 518
77 367
77 846
77 699
77 938
77 980
77 501
77 399
77 171
77 952
77 716
77 227
77 283
77 894
77 613
77 159
77 559
77 246
77 534
77 111
77 291
77 441
78 561
78 908
78 487
78 110
78 137
78 302
78 824
78 582
78 554
78 637
78 183
78 835
78 257
78 314
78 93
79 783
79 374
79 954
79 965
79 264
79 149
79 988
79 447
79 235
79 707
79 757
79 395
79 994
79 875
79 759
79 82
79 140
79 199
79 329
79 842
79 145
79 120
79 284
79 93
80 894
80 268
80 210
80 233
80 683
80 546
80 545
80 859
80 695
80 723
80 818
80 764
80 494
80 85
80 693
80 179
80 367
80 712
80 728
80 99
80 170
80 684
80 949
80 980
80 240
80 687
80 740
80 829
80 471
81 608
81 216
81 406
81 512
81 671
81 219
81 551
81 764
81 170
81 727
81 575
81 642
81 779
81 878
81 244
81 383
81 281
81 599
81 558
81 921
81 214
81 663
81 306
81 563
81 90
81 247
81 641
81 665
81 168
81 237
81 292
81 839
81 932
81 957
82 976
82 969
82 200
82 481
82 544
82 776
82 591
82 963
82 321
82 656
82 191
82 389
82 368
82 646
82 904
82 568
82 686
82 560
82 94
82 631
82 176
82 674
82 422
82 610
82 958
82 566
82 659
82 637
82 500
82 960
82 261
82 347
82 629
82 181
82 961
82 627
82 167
82 812
82 356
82 617
82 845
82 519
82 295
82 380
82 856
82 118
82 172
82 348
82 385
82 981
82 657
82 326
82 714
82 281
82 357
82 634
82 574
82 450
82 689
82 282
82 221
82 492
82 286
82 327
82 88
82 464
82 478
82 679
82 661
82 425
82 733
82 625
82 121
82 418
82 734
82 842
82 934
82 145
82 285
83 773
83 173
83 994
83 799
83 841
83 936
83 792
83 660
83 148
83 172
83 231
83 417
83 99
83 949
83 240
83 239
83 836
83 134
84 648
84 192
84 729
84 336
84 243
84 282
84 956
84 418
84 264
84 584
84 372
84 155
84 704
84 495
84 471
85 92
85 183
85 204
85 862
85 264
85 268
85 524
85 320
85 612
85 380
85 458
85 223
85 538
85 894
85 97
85 725
85 928
85 287
85 752
85 989
85 729
85 726
85 748
85 495
85 575
85 842
85 557
85 252
85 852
86 716
86 561
86 104
86 872
86 431
86 98
86 653
86 631
86 93
86 956
86 286
86 457
86 223
86 762
86 595
86 857
86 128
86 193
86 550
86 972
86 941
86 176
86 817
86 329
86 842
86 911
86 155
87 267
87 848
87 209
87 730
87 882
87 792
87 992
87 515
87 268
87 524
87 320
87 210
87 726
87 822
87 838
88 255
88 908
88 151
88 571
88 922
88 481
88 941
88 999
88 365
88 492
88 228
88 526
88 352
88 590
88 789
88 642
88 938
88 511
88 186
88 200
88 385
88 418
88 954
88 558
88 831
88 686
88 817
88 220
88 852
88 839
89 880
89 795
89 414
89 104
89 857
89 613
89 921
89 549
89 420
89 584
89 777
89 909
89 708
89 639
89 476
89 611
89 110
89 670
89 753
89 755
89 508
89 268
89 632
89 231
89 656
89 865
90 593
90 648
90 718
90 234
90 799
90 582
90 663
90 515
90 263
90 264
90 268
90 524
90 270
90 298
90 856
90 861
90 876
90 520
90 987
90 204
90 868
90 146
90 174
90 587
90 812
90 556
90 833
90 385
90 210
90 748
90 495
90 977
90 176
90 247
90 806
91 372
91 621
91 275
91 151
91 419
91 102
91 638
91 519
91 946
91 123
91 565
91 745
91 804
91 840
91 152
91 670
91 730
91 753
91 799
91 351
91 369
91 902
91 393
91 792
91 323
91 99
91 269
91 842
91 257
91 310
92 593
92 415
92 585
92 129
92 588
92 972
92 179
92 615
92 392
92 784
92 253
92 242
92 715
92 341
92 442
92 382
92 482
92 158
92 880
92 117
92 608
92 116
92 432
92 141
92 492
92 517
92 992
92 450
92 511
92 911
92 287
92 418
92 95
92 238
92 821
92 819
92 654
92 590
92 897
92 869
92 106
92 205
92 226
92 787
92 708
92 860
92 386
92 761
92 337
92 852
92 379
92 814
92 97
92 640
92 664
92 706
92 739
92 837
92 848
92 864
92 691
92 909
92 317
92 363
92 582
92 365
92 385
92 524
92 270
92 111
92 329
92 185
92 576
93 650
93 716
93 529
93 190
93 571
93 672
93 333
93 239
93 575
93 569
93 176
93 932
93 310
93 681
93 641
93 675
93 950
93 762
93 139
93 143
93 229
93 753
93 802
93 788
93 331
93 484
93 119
93 703
93 718
93 268
93 172
93 376
93 135
93 799
93 252
93 779
93 240
93 170
93 829
93 471
94 372
94 644
94 694
94 708
94 295
94 360
94 448
94 425
94 560
94 656
94 140
94 134
94 181
94 430
94 703
94 637
94 877
94 171
94 848
94 832
94 791
94 545
94 579
94 670
94 612
94 682
94 141
94 457
94 572
94 790
94 840
94 842
94 220
94 859
94 443
95 267
95 169
95 532
95 552
95 561
95 886
95 889
95 151
95 995
95 377
95 608
95 290
95 450
95 783
95 291
95 487
95 102
95 710
95 851
95 363
95 922
95 965
95 992
95 264
95 545
95 858
95 505
96 608
96 664
96 688
96 324
96 203
96 603
96 869
96 799
96 902
96 559
96 582
96 772
96 692
96 186
96 246
96 348
96 874
96 373
96 992
96 264
96 457
96 473
96 642
96 870
96 839
96 865
97 593
97 597
97 492
97 640
97 650
97 783
97 307
97 784
97 336
97 296
97 809
97 415
97 372
97 482
97 636
97 688
97 881
97 253
97 242
97 189
97 918
97 840
97 432
97 648
97 117
97 930
97 534
97 138
97 367
97 213
97 346
97 990
97 773
97 120
97 437
97 965
97 290
97 757
97 238
97 794
97 281
97 104
97 257
97 484
97 207
97 338
97 754
97 540
97 556
97 601
97 331
97 851
97 475
97 615
97 184
97 267
97 848
97 605
97 221
97 689
98 118
98 730
98 144
98 545
98 149
98 170
98 980
98 520
98 575
98 291
98 657
98 123
98 618
98 276
98 111
98 403
98 271
98 278
98 778
98 547
98 978
98 454
98 611
98 436
98 955
98 885
98 506
98 945
98 771
98 568
98 707
98 281
98 509
98 155
98 689
98 322
99 608
99 414
99 219
99 255
99 266
99 526
99 170
99 981
99 445
99 698
99 420
99 697
99 980
99 614
99 485
99 451
99 752
99 303
99 844
99 157
99 502
99 337
99 543
99 683
99 171
99 241
99 782
99 933
99 467
99 366
99 316
99 412
99 177
99 356
99 649
99 129
99 231
99 126
99 820
99 954
99 572
99 145
99 513
99 208
99 487
99 381
99 735
99 253
99 532
99 787
99 570
99 771
99 927
99 468
99 422
99 796
99 594
99 733
99 411
99 118
99 282
99 958
99 883
99 149
99 677
99 684
99 239
99 665
100 848
100 529
100 625
100 596
100 936
100 395
100 679
100 680
100 278
100 902
100 175
100 125
100 710
100 118
100 845
100 826
100 311
100 303
100 413
100 103
100 442
100 402
100 312
100 735
100 533
100 531
100 117
100 797
100 469
100 137
100 151
100 670
100 224
100 391
100 847
100 726
100 231
100 526
100 842
100 911
100 689
100 859
100 310
101 135
101 360
101 232
101 948
101 969
101 748
101 684
101 622
101 610
101 569
101 629
101 659
101 422
101 703
101 646
101 568
101 963
101 591
101 516
101 944
101 272
101 575
101 466
101 590
101 308
101 127
101 229
101 397
101 608
101 983
101 332
101 142
101 440
101 763
101 324
101 479
101 900
101 637
101 911
101 220
101 257
101 340
102 469
102 611
102 121
102 160
102 104
102 845
102 679
102 234
102 190
102 907
102 924
102 962
102 441
102 622
102 214
102 883
102 118
102 151
102 187
102 722
102 841
102 363
102 369
102 393
102 921
102 431
102 385
102 997
102 298
102 988
102 950
103 573
103 585
103 595
103 597
103 783
103 253
103 749
103 498
103 709
103 551
103 834
103 208
103 467
103 122
103 372
103 494
103 599
103 669
103 232
103 510
103 872
103 508
103 582
103 660
103 287
103 298
103 205
103 530
103 176
103 934
103 254
104 739
104 253
104 879
104 813
104 609
104 118
104 882
104 799
104 851
104 107
104 472
104 164
104 921
104 841
104 732
104 862
104 409
104 363
104 349
104 124
104 369
104 845
104 374
104 175
104 661
104 332
104 670
104 956
104 352
104 377
104 159
104 364
104 753
104 137
104 125
104 480
104 846
104 872
104 857
104 887
104 760
104 187
104 704
104 865
104 491
104 403
104 621
104 676
104 646
104 304
104 624
104 737
104 698
104 665
104 934
104 938
104 219
104 211
104 450
104 461
104 749
104 585
104 731
104 333
104 873
104 645
104 506
104 688
104 207
104 167
104 447
104 897
104 370
104 199
104 268
104 925
104 464
104 449
104 548
104 355
104 762
104 647
104 730
104 354
104 997
104 131
104 651
104 509
104 244
104 523
104 143
104 805
105 572
105 693
105 521
105 611
105 726
105 534
105 520
105 938
105 887
105 269
105 120
105 838
105 340
106 150
106 166
106 272
106 561
106 919
106 468
106 981
106 111
106 544
106 402
106 440
106 277
106 953
106 695
106 449
106 140
106 176
106 734
106 815
106 247
106 346
107 255
107 487
107 164
107 833
107 201
107 156
107 314
107 977
107 443
107 626
107 647
107 151
107 670
107 799
107 841
107 369
107 374
107 393
107 792
107 495
107 949
107 485
107 240
107 145
107 322
107 852
107 932
108 356
108 898
108 169
108 705
108 570
108 749
108 532
108 552
108 561
108 579
108 589
108 671
108 408
108 973
108 623
108 909
108 991
108 695
108 503
108 159
108 772
108 137
108 625
108 576
108 403
108 513
108 802
108 719
108 416
108 113
108 463
108 956
108 225
108 112
108 669
108 283
108 647
108 151
108 354
108 373
108 379
108 949
108 535
108 244
108 581
108 257
109 529
109 708
109 536
109 931
109 743
109 884
109 869
109 466
109 216
109 488
109 335
109 991
109 857
109 934
109 826
109 282
109 778
109 695
109 722
109 546
109 754
109 956
109 877
109 748
109 581
109 312
109 146
109 183
109 197
109 795
109 360
109 367
109 976
109 994
109 532
109 673
109 661
109 234
109 799
109 319
109 362
109 404
109 954
109 221
109 340
109 346
109 876
110 142
110 428
110 367
110 477
110 572
110 833
110 611
110 351
110 218
110 722
110 377
110 956
110 125
110 160
110 391
110 985
110 472
110 278
110 841
110 175
110 517
110 730
110 902
110 693
110 726
110 269
110 212
110 206
110 343
110 449
110 301
110 646
110 545
110 704
110 538
110 249
110 836
110 483
110 247
110 208
110 718
110 924
110 943
110 114
110 151
110 753
110 374
110 358
110 642
110 152
110 934
110 549
110 778
111 739
111 837
111 848
111 628
111 483
111 709
111 722
111 374
111 362
111 575
111 276
111 920
111 988
111 618
111 772
111 441
111 415
111 151
111 597
111 819
111 347
111 355
111 116
111 240
111 331
111 173
111 396
111 470
111 783
111 270
111 119
111 286
111 836
111 858
111 878
111 439
111 865
112 585
112 784
112 918
112 209
112 708
112 532
112 552
112 914
112 498
112 813
112 915
112 948
112 896
112 587
112 468
112 919
112 384
112 806
112 538
112 791
112 318
112 420
112 502
112 594
112 503
112 120
112 884
112 480
112 862
112 463
112 897
112 208
112 767
112 152
112 661
112 628
112 768
112 671
112 219
112 283
112 905
112 462
112 921
112 411
112 726
112 642
112 228
112 620
113 803
113 724
113 753
113 263
113 264
113 524
113 320
113 458
113 132
113 932
113 738
113 478
113 467
113 710
113 459
113 176
113 906
113 182
113 680
113 632
113 748
113 181
113 734
113 220
113 402
113 443
113 865
114 978
114 230
114 431
114 954
114 495
114 533
114 988
114 228
114 331
114 718
114 328
114 722
114 150
114 479
114 863
114 673
114 289
114 517
114 239
114 418
114 525
114 415
114 280
114 340
114 870
114 443
114 740
115 972
115 643
115 749
115 994
115 448
115 118
115 218
115 559
115 188
115 373
115 967
115 264
115 554
115 560
115 329
115 842
115 911
115 580
115 120
115 168
115 681
116 593
116 615
116 715
116 129
116 356
116 793
116 242
116 608
116 588
116 880
116 166
116 640
116 783
116 483
116 733
116 546
116 821
116 931
116 220
116 909
116 684
116 604
116 514
116 625
116 726
116 971
116 637
116 882
116 512
116 253
116 864
116 623
116 999
116 980
116 696
116 950
117 593
117 392
117 636
117 356
117 442
117 597
117 843
117 401
117 964
117 684
117 312
117 457
117 250
117 564
117 854
117 855
117 648
117 729
117 242
117 267
117 372
117 494
117 146
117 790
117 579
117 160
117 936
117 515
117 380
117 269
117 201
117 422
117 601
117 223
117 292
118 867
118 161
118 623
118 277
118 973
118 487
118 611
118 862
118 788
118 921
118 395
118 882
118 224
118 391
118 626
118 409
118 985
118 369
118 218
118 900
118 732
118 493
118 349
118 846
118 480
118 125
118 824
118 351
118 318
118 190
118 956
118 887
118 374
118 278
118 234
118 849
118 203
118 590
118 593
118 129
118 291
118 729
118 999
118 832
118 260
118 380
118 495
118 620
118 228
118 818
118 933
118 295
118 371
118 516
118 880
118 605
118 134
118 155
118 967
118 555
118 645
118 551
118 796
118 133
118 899
118 943
118 309
118 469
118 987
118 266
118 851
118 874
118 240
118 687
118 254
118 865
119 572
119 666
119 896
119 885
119 210
119 178
119 772
119 350
119 754
119 455
119 742
119 920
119 812
119 131
119 641
119 648
119 771
119 344
119 904
119 437
119 954
119 919
119 814
119 629
119 162
119 797
119 662
119 822
119 528
119 872
119 630
119 291
119 878
120 638
120 483
120 889
120 446
120 462
120 841
120 431
120 480
120 582
120 941
120 632
120 726
120 240
120 329
120 436
120 826
120 974
120 785
120 852
120 791
120 166
120 576
120 387
120 996
120 138
120 272
120 790
120 528
120 167
120 385
120 578
120 527
120 669
120 427
120 177
120 546
120 471
120 463
120 492
120 887
120 675
120 609
120 951
120 752
120 554
120 876
120 443
120 503
121 356
121 685
121 869
121 466
121 623
121 517
121 625
121 222
121 247
121 422
121 773
121 151
121 670
121 159
121 190
121 317
121 369
121 374
121 949
121 657
121 772
121 870
121 371
121 143
122 606
122 615
122 804
122 141
122 482
122 635
122 883
122 590
122 401
122 626
122 823
122 779
122 739
122 809
122 864
122 372
122 639
122 757
122 710
122 799
122 555
122 321
122 934
122 422
123 636
123 795
123 406
123 894
123 661
123 670
123 159
123 862
123 792
123 319
123 348
123 530
123 131
123 651
123 657
123 858
123 920
123 988
123 509
123 140
123 975
123 818
123 330
123 479
124 648
124 253
124 307
124 773
124 423
124 789
124 578
124 623
124 969
124 498
124 382
124 568
124 674
124 297
124 670
124 234
124 872
124 582
124 268
124 530
124 269
124 340
124 668
125 648
125 802
125 880
125 881
125 611
125 617
125 377
125 647
125 493
125 720
125 474
125 436
125 608
125 884
125 969
125 860
125 408
125 309
125 978
125 228
125 156
125 437
125 383
125 705
125 151
125 159
125 799
125 385
125 524
125 651
125 878
125 817
125 424
125 852
125 564
126 837
126 243
126 869
126 666
126 717
126 510
126 730
126 691
126 246
126 580
126 667
126 340
126 131
126 269
126 834
126 134
126 201
126 734
126 687
127 267
127 773
127 775
127 797
127 621
127 531
127 399
127 687
127 616
127 188
127 607
127 325
127 374
127 147
127 639
127 136
127 161
127 691
127 599
127 406
127 532
127 353
127 239
127 340
127 740
128 664
128 372
128 718
128 670
128 936
128 200
128 385
128 210
128 726
128 741
128 244
128 890
128 450
128 715
128 254
128 257
128 778
128 314
128 713
129 640
129 307
129 881
129 179
129 608
129 158
129 414
129 512
129 134
129 712
129 277
129 676
129 643
129 826
129 337
129 847
129 664
129 783
129 366
129 372
129 918
129 540
129 803
129 423
129 795
129 994
129 532
129 617
129 502
129 213
129 779
129 836
129 346
129 429
130 415
130 218
130 941
130 264
130 268
130 524
130 270
130 298
130 320
130 577
130 748
130 495
130 304
130 509
130 435
130 580
130 330
131 848
131 864
131 891
131 788
131 851
131 391
131 663
131 980
131 575
131 520
131 269
131 149
131 551
131 166
131 784
131 718
131 827
131 850
131 326
131 998
131 434
131 646
131 989
131 676
131 727
131 836
131 878
131 441
131 988
131 505
131 740
132 360
132 589
132 671
132 151
132 153
132 320
132 632
132 725
132 342
132 866
132 492
132 886
132 811
132 390
132 210
132 534
132 836
132 988
132 168
133 573
133 640
133 372
133 889
133 611
133 508
133 555
133 965
133 577
133 677
133 509
133 811
133 729
133 840
133 846
133 140
133 176
133 842
133 443
133 527
133 641
133 156
133 292
134 636
134 512
134 255
134 909
134 446
134 730
134 824
134 200
134 323
134 545
134 170
134 221
134 560
134 181
134 568
134 776
134 631
134 140
134 904
134 610
134 430
134 566
134 637
134 842
134 554
134 516
134 646
134 556
134 917
134 979
134 960
134 569
134 347
134 228
134 975
134 201
134 547
134 867
134 615
134 232
134 244
134 964
134 877
134 219
134 761
134 463
134 138
134 484
134 187
134 266
134 333
134 507
134 696
134 577
134 470
134 639
134 272
134 270
134 225
134 275
134 981
134 256
134 299
134 765
134 742
134 821
134 260
134 897
134 549
134 454
134 892
134 176
134 314
135 775
135 797
135 529
135 619
135 923
135 724
135 504
135 227
135 821
135 852
135 417
135 185
135 226
135 708
135 215
135 790
135 795
135 335
135 959
135 976
135 477
135 579
135 669
135 611
135 374
135 971
135 812
135 815
135 855
135 438
135 932
136 773
136 324
136 643
136 771
136 531
136 638
136 813
136 629
136 340
136 722
136 310
136 191
136 395
136 494
136 757
136 669
136 763
136 894
136 753
136 431
136 186
136 792
136 954
136 748
136 269
136 979
136 581
136 314
136 168
137 694
137 349
137 617
137 236
137 374
137 596
137 611
137 159
137 915
137 149
137 207
137 949
137 707
137 170
137 813
137 357
137 423
137 287
137 317
137 997
137 231
137 435
137 257
138 197
138 673
138 843
138 625
138 956
138 851
138 698
138 180
138 738
138 796
138 794
138 688
138 807
138 670
138 273
138 799
138 369
138 393
138 524
138 231
138 852
138 712
138 237
138 292
139 150
139 856
139 891
139 617
139 670
139 954
139 524
139 632
139 213
139 368
139 443
139 576
139 904
139 170
139 268
139 750
139 210
139 490
139 685
139 265
139 994
139 836
139 799
139 267
139 172
139 253
139 988
139 237
139 819
139 865
140 242
140 382
140 914
140 151
140 369
140 157
140 473
140 522
140 213
140 269
140 328
140 511
140 544
140 569
140 646
140 911
140 686
140 979
140 637
140 631
140 627
140 228
140 854
140 214
140 554
140 410
140 904
140 516
140 641
140 527
140 729
140 479
140 211
140 860
140 344
140 507
140 497
140 977
140 639
140 238
140 336
140 396
140 492
140 547
140 362
140 413
140 698
140 299
140 509
140 264
140 601
140 546
140 175
140 598
140 236
140 971
140 482
140 241
140 176
140 734
140 817
140 934
140 252
141 608
141 615
141 636
141 273
141 847
141 320
141 882
141 993
141 330
141 375
141 546
141 739
141 873
141 372
141 763
141 679
141 188
141 353
141 560
141 581
142 793
142 771
142 775
142 621
142 639
142 643
142 388
142 648
142 726
142 646
142 565
142 667
142 743
142 423
142 691
142 705
142 209
142 732
142 369
142 922
142 241
142 988
142 979
143 809
143 918
143 978
143 229
143 243
143 414
143 579
143 246
143 154
143 525
143 315
143 635
143 964
143 746
143 260
143 375
143 444
143 417
143 220
143 979
143 927
143 365
143 322
143 549
143 717
143 793
143 702
143 818
143 355
143 364
143 756
143 974
143 385
143 713
143 237
143 829
144 640
144 177
144 266
144 936
144 678
144 953
144 412
144 354
144 634
144 821
144 669
144 666
144 650
144 862
144 245
144 449
144 671
144 656
144 954
144 968
144 274
144 895
144 815
144 435
144 346
144 932
145 595
145 739
145 372
145 699
145 434
145 730
145 788
145 318
145 550
145 365
145 417
145 304
145 858
145 511
145 485
145 209
145 554
145 618
145 723
145 617
145 406
145 802
145 435
145 280
146 469
146 529
146 536
146 897
146 206
146 789
146 822
146 650
146 498
146 586
146 996
146 680
146 537
146 833
146 815
146 844
146 243
146 335
146 360
146 905
146 539
146 393
146 287
146 847
146 992
146 270
146 575
146 696
147 619
147 335
147 519
147 692
147 235
147 270
147 840
147 176
147 217
147 177
147 693
147 255
147 510
147 159
147 481
147 726
147 495
147 170
147 165
147 265
147 284
147 801
147 355
148 593
148 625
148 902
148 397
148 954
148 965
148 481
148 239
148 181
148 590
148 185
148 440
148 733
148 252
148 855
148 946
148 935
148 245
148 711
148 990
148 770
148 798
148 398
148 714
148 853
148 367
148 329
148 785
148 727
148 715
148 881
148 603
148 346
148 490
148 319
148 933
148 486
148 716
148 235
148 199
148 589
148 406
148 582
148 201
148 413
148 521
148 843
148 205
148 442
148 687
148 220
148 801
148 330
148 361
148 249
149 643
149 670
149 730
149 851
149 678
149 967
149 515
149 533
149 303
149 614
149 534
149 698
149 684
149 980
149 807
149 306
149 404
149 188
149 629
149 408
149 378
149 964
149 243
149 174
149 593
149 919
149 360
149 892
149 478
149 734
149 275
149 722
149 949
149 240
149 381
149 838
149 237
150 593
150 615
150 648
150 296
150 608
150 706
150 840
150 688
150 189
150 871
150 242
150 921
150 529
150 298
150 512
150 656
150 561
150 449
150 932
150 994
150 739
150 253
150 293
150 809
150 848
150 366
150 372
150 514
150 542
150 634
150 299
150 448
150 510
150 760
150 788
150 349
150 397
150 348
150 373
150 417
150 263
150 697
150 286
150 254
150 314
151 621
151 611
151 374
151 971
151 332
151 753
151 936
151 613
151 983
151 617
151 302
151 472
151 397
151 153
151 517
151 857
151 760
151 187
151 318
151 363
151 647
151 985
151 902
151 419
151 431
151 625
151 364
151 825
151 851
151 273
151 680
151 317
151 159
151 326
151 398
151 497
151 178
151 738
151 412
151 815
151 597
151 548
151 239
151 268
151 821
151 593
151 627
151 245
151 595
151 169
151 931
151 267
151 479
151 850
151 739
151 999
151 994
151 305
151 225
151 681
151 509
151 960
151 892
151 196
151 166
151 436
151 315
151 979
151 588
151 184
151 190
151 730
151 824
151 393
151 270
151 222
151 291
151 858
151 682
151 687
151 852
151 503
151 525
152 757
152 272
152 986
152 348
152 622
152 339
152 858
152 221
152 895
152 602
152 519
152 592
152 345
152 185
152 410
152 799
152 249
152 307
152 505
152 564
152 471
153 694
153 463
153 869
153 406
153 693
153 872
153 493
153 613
153 187
153 371
153 528
153 582
153 673
153 429
153 908
153 159
153 680
153 730
153 302
153 317
153 936
153 431
153 786
153 231
153 610
153 842
153 852
153 443
153 249
153 310
154 360
154 976
154 177
154 953
154 963
154 347
154 199
154 515
154 498
154 213
154 282
154 417
154 176
154 734
154 842
155 498
155 678
155 418
155 298
155 600
155 506
155 622
155 286
155 831
155 610
155 756
155 711
155 290
155 855
155 721
155 687
155 998
155 990
155 935
155 439
155 830
155 185
155 951
155 424
155 759
155 798
155 271
155 814
155 714
155 174
155 943
155 353
155 997
155 250
155 724
155 811
155 957
155 887
155 567
155 278
155 954
155 645
155 932
155 422
155 695
155 376
155 826
155 495
155 642
155 607
155 625
155 513
155 821
155 329
155 881
155 551
155 450
155 445
155 880
155 571
155 648
155 930
155 682
155 220
155 435
155 641
155 292
156 595
156 209
156 529
156 550
156 170
156 745
156 310
156 839
156 377
156 809
156 362
156 877
156 666
156 515
156 311
156 982
156 522
156 292
156 819
156 865
156 932
156 957
157 794
157 730
157 799
157 397
157 508
157 567
157 534
157 520
157 884
157 796
157 170
157 949
157 240
157 239
157 575
157 834
157 507
157 554
157 176
157 714
157 581
157 280
158 593
158 615
158 640
158 648
158 996
158 960
158 276
158 495
158 463
158 455
158 864
158 356
158 255
158 872
158 861
158 965
158 992
158 772
158 321
158 389
158 163
158 208
158 838
158 346
158 355
158 399
158 668
159 372
159 415
159 255
159 900
159 317
159 753
159 431
159 862
159 936
159 190
159 517
159 302
159 187
159 480
159 596
159 218
159 364
159 419
159 956
159 318
159 175
159 971
159 611
159 395
159 872
159 771
159 707
159 568
159 787
159 850
159 718
159 226
159 375
159 294
159 656
159 398
159 893
159 505
159 793
159 339
159 763
159 915
159 491
159 616
159 622
159 285
159 947
159 289
159 856
159 591
159 312
159 807
159 757
159 722
159 393
159 992
159 701
159 231
159 522
159 714
159 503
160 802
160 611
160 788
160 539
160 379
160 893
160 958
160 997
160 537
160 357
160 722
160 730
160 851
160 811
160 544
160 560
160 383
161 771
161 797
161 324
161 867
161 621
161 704
161 230
161 816
161 961
161 853
161 248
161 289
161 347
161 544
161 724
161 423
161 209
161 978
161 229
161 757
161 869
161 661
161 872
161 377
161 921
161 362
161 534
161 682
161 208
161 876
162 593
162 608
162 797
162 624
162 462
162 753
162 200
162 263
162 533
162 201
162 714
162 220
162 855
162 438
162 257
163 267
163 873
163 589
163 462
163 487
163 186
163 365
163 240
163 286
163 507
163 759
163 998
163 814
163 252
163 303
163 766
163 310
163 953
163 577
163 762
163 272
163 604
163 513
163 835
163 568
163 819
164 598
164 611
164 431
164 450
164 250
164 257
164 643
164 612
164 442
164 753
164 755
164 841
164 851
164 727
164 269
164 176
164 998
164 655
165 640
165 242
165 771
165 463
165 532
165 579
165 882
165 357
165 800
165 167
165 238
165 688
165 570
165 949
165 767
165 257
165 388
165 636
165 281
165 276
165 917
165 279
165 323
165 219
165 687
165 220
165 314
165 852
165 641
166 179
166 588
166 222
166 660
166 214
166 757
166 904
166 739
166 293
166 378
166 415
166 469
166 599
166 717
166 973
166 902
166 353
166 836
166 422
166 381
166 438
166 581
166 202
166 655
167 258
167 603
167 578
167 894
167 318
167 851
167 861
167 526
167 441
167 835
167 422
167 428
167 320
167 316
167 855
167 439
167 402
167 829
168 593
168 206
168 902
168 337
168 949
168 734
168 322
168 865
168 523
168 860
168 957
168 300
168 964
168 471
168 249
168 635
168 662
168 329
168 386
168 410
168 827
168 390
168 240
168 663
168 259
168 701
168 418
168 876
168 334
168 863
168 678
168 819
168 932
169 179
169 621
169 643
169 258
169 428
169 173
169 803
169 978
169 757
169 704
169 955
169 229
169 766
169 699
169 212
169 209
169 463
169 175
169 861
169 824
169 791
169 223
169 537
169 912
169 732
169 966
169 801
169 715
169 546
169 426
169 772
169 826
169 916
169 507
169 267
169 921
169 992
169 988
169 285
169 292
170 621
170 643
170 647
170 369
170 354
170 481
170 748
170 782
170 533
170 534
170 677
170 239
170 741
170 502
170 420
170 240
170 968
170 241
170 215
170 268
170 691
170 490
170 633
170 631
170 864
170 343
170 521
170 972
170 208
170 387
170 482
170 371
170 926
170 242
170 901
170 843
170 772
170 949
170 575
170 642
170 425
170 806
170 564
171 595
171 570
171 669
171 702
171 970
171 534
171 677
171 895
171 192
171 203
171 954
171 796
171 399
171 347
171 275
171 693
171 240
171 239
171 220
171 401
172 615
172 539
172 582
172 792
172 268
172 320
172 878
172 687
172 581
172 657
172 201
172 902
172 622
172 482
172 844
172 344
172 889
172 284
172 314
172 745
173 648
173 650
173 775
173 639
173 644
173 423
173 723
173 491
173 176
173 598
173 393
173 463
173 532
173 200
173 524
173 322
174 640
174 216
174 488
174 669
174 219
174 255
174 379
174 264
174 380
174 545
174 451
174 281
174 734
174 842
174 998
174 860
175 295
175 624
175 693
175 366
175 908
175 346
175 488
175 826
175 634
175 730
175 753
175 799
175 302
175 851
175 369
175 582
175 188
175 365
175 205
175 231
175 543
175 329
175 740
176 597
176 708
176 532
176 969
176 730
176 701
176 988
176 289
176 734
176 544
176 430
176 329
176 904
176 627
176 835
176 776
176 191
176 181
176 591
176 963
176 328
176 261
176 652
176 888
176 842
176 863
176 321
176 960
176 656
176 854
176 961
176 646
176 686
176 936
176 717
176 520
176 848
176 446
176 296
176 680
176 705
176 851
176 678
176 326
176 883
176 928
176 309
176 555
176 553
176 268
176 775
176 663
176 935
176 253
176 907
176 462
176 782
176 912
176 767
176 295
176 281
176 791
176 358
176 479
176 540
176 512
176 721
176 651
176 207
176 999
176 233
176 793
176 201
176 340
176 251
177 972
177 867
177 879
177 216
177 749
177 561
177 624
177 248
177 512
177 487
177 924
177 986
177 468
177 781
177 611
177 280
177 405
177 872
177 315
177 296
177 851
177 610
177 583
177 613
177 202
177 597
177 875
177 702
177 730
177 862
177 748
177 677
177 291
177 627
177 265
177 852
177 913
178 848
178 803
178 345
178 994
178 763
178 255
178 894
178 487
178 273
178 369
178 320
178 748
178 782
178 575
178 834
178 988
178 435
178 439
178 832
178 361
178 665
178 740
179 588
179 664
179 697
179 738
179 223
179 799
179 944
179 706
179 253
179 848
179 295
179 302
179 186
179 792
179 348
179 577
179 807
179 451
179 485
179 584
179 581
179 778
179 340
179 982
180 833
180 908
180 421
180 298
180 420
180 575
180 658
180 618
180 687
180 682
180 462
180 270
180 374
180 400
180 852
180 345
180 353
180 975
180 753
180 878
180 988
181 650
181 253
181 483
181 552
181 598
181 349
181 419
181 480
181 954
181 454
181 545
181 988
181 606
181 220
181 893
181 550
181 932
181 209
181 309
181 673
181 789
181 464
181 996
181 364
181 329
181 961
181 687
181 696
181 438
181 503
182 407
182 624
182 255
182 273
182 723
182 495
182 533
182 534
182 337
182 684
182 949
182 980
182 560
182 652
182 842
182 443
182 993
182 471
183 797
183 704
183 529
183 619
183 426
183 767
183 488
183 718
183 204
183 991
183 497
183 959
183 648
183 928
183 863
183 409
183 888
183 575
183 308
183 543
183 300
183 313
183 485
183 255
183 945
183 243
183 795
183 519
183 693
183 709
183 893
183 385
183 380
183 731
183 340
183 527
183 932
184 593
184 597
184 606
184 987
184 192
184 784
184 729
184 929
184 972
184 341
184 716
184 873
184 595
184 837
184 615
184 405
184 402
184 330
184 695
184 443
184 300
184 728
184 490
184 445
184 347
184 368
184 496
184 465
184 917
184 223
184 253
184 864
184 372
184 694
184 529
184 749
184 360
184 255
184 598
184 246
184 999
184 524
184 545
184 684
184 642
184 507
184 652
184 808
184 696
184 876
184 865
185 599
185 936
185 723
185 491
185 988
185 682
185 500
185 941
185 421
185 954
185 838
185 764
185 521
185 913
185 778
185 220
185 815
185 855
185 435
185 438
185 655
185 932
186 593
186 615
186 848
186 660
186 319
186 907
186 405
186 847
186 246
186 922
186 667
186 903
186 464
186 327
186 350
186 892
186 674
186 363
186 416
186 553
186 201
186 240
186 387
186 299
186 255
186 262
186 780
186 792
186 354
186 385
186 386
186 465
186 269
186 835
186 592
186 314
187 209
187 565
187 781
187 843
187 539
187 611
187 273
187 625
187 218
187 824
187 971
187 799
187 364
187 224
187 710
187 190
187 411
187 472
187 234
187 493
187 872
187 679
187 857
187 803
187 211
187 441
187 535
187 587
187 555
187 903
187 238
187 861
187 343
187 778
187 490
187 915
187 749
187 414
187 623
187 634
187 935
187 927
187 285
187 633
187 886
187 328
187 189
187 739
187 690
187 649
187 730
187 849
187 393
187 431
187 214
187 422
187 322
187 355
188 469
188 209
188 190
188 760
188 551
188 630
188 379
188 348
188 965
188 847
188 586
188 333
188 404
188 997
188 690
188 287
188 925
188 780
188 787
188 874
188 962
188 417
188 976
188 937
188 478
188 757
188 601
188 193
188 329
188 988
188 564
188 458
188 345
188 959
188 767
188 811
188 515
188 625
188 815
188 969
188 947
188 573
188 411
188 610
188 384
188 200
188 723
188 792
188 386
188 454
188 495
188 719
188 240
188 742
188 544
188 557
188 256
189 648
189 307
189 606
189 372
189 716
189 280
189 699
189 996
189 910
189 928
189 854
189 706
189 739
189 267
189 783
189 809
189 529
189 367
189 431
189 726
189 782
189 738
189 975
189 822
189 439
190 593
190 879
190 644
190 596
190 862
190 517
190 670
190 956
190 278
190 971
190 393
190 472
190 802
190 910
190 469
190 949
190 420
190 707
190 478
190 757
190 274
190 498
190 980
190 698
190 557
190 732
190 753
190 374
190 342
190 373
190 264
190 298
190 509
190 581
190 257
190 564
190 292
190 957
191 640
191 215
191 671
191 326
191 909
191 849
191 559
191 481
191 622
191 560
191 858
191 477
191 358
191 946
191 350
191 283
191 842
191 934
191 769
191 926
191 932
192 615
192 593
192 840
192 608
192 881
192 392
192 664
192 636
192 926
192 545
192 902
192 264
192 681
192 908
192 551
192 803
192 459
192 253
192 783
192 372
192 415
192 702
192 266
192 921
192 288
192 473
192 240
192 836
192 560
192 443
192 237
192 829
193 585
193 421
193 224
193 397
193 348
193 404
193 533
193 727
193 831
193 509
193 389
193 435
193 713
193 865
194 206
194 938
194 519
194 532
194 574
194 693
194 387
194 453
194 274
194 482
194 655
194 403
194 882
194 599
194 299
194 446
194 352
194 481
194 543
194 522
194 622
194 808
194 696
194 399
194 402
195 615
195 650
195 872
195 374
195 431
195 551
195 582
195 690
195 954
195 491
195 988
195 835
195 682
195 687
195 696
195 220
195 398
195 438
195 957
196 775
196 529
196 795
196 281
196 294
196 917
196 298
196 792
196 926
196 464
196 938
196 286
196 834
196 836
196 687
196 443
197 341
197 918
197 708
197 749
197 536
197 483
197 827
197 923
197 810
197 897
197 884
197 938
197 804
197 291
197 909
197 281
197 420
197 635
197 752
197 785
197 853
197 842
197 706
197 979
197 243
197 795
197 335
197 693
197 747
197 283
197 889
197 363
197 551
197 792
197 418
197 263
197 495
197 545
197 441
197 911
197 819
198 664
198 621
198 708
198 743
198 519
198 255
198 559
198 630
198 413
198 567
198 399
198 228
198 873
198 290
198 673
198 693
198 781
198 937
198 409
198 833
198 370
198 200
198 354
198 874
198 385
198 965
198 697
198 584
198 281
198 831
198 689
198 503
199 602
199 360
199 224
199 849
199 627
199 960
199 631
199 975
199 863
199 294
199 277
199 880
199 582
199 407
199 682
199 316
199 815
199 809
199 829
199 513
199 284
199 311
199 734
199 817
199 329
199 842
199 911
199 257
199 443
200 705
200 488
200 985
200 551
200 567
200 418
200 787
200 547
200 816
200 903
200 353
200 899
200 333
200 720
200 737
200 464
200 649
200 965
200 559
200 678
200 954
200 660
200 594
200 490
200 379
200 605
200 942
200 365
200 663
200 373
200 476
200 997
200 555
200 967
200 723
200 672
200 566
200 645
200 416
200 562
200 219
200 858
200 800
200 459
200 234
200 343
200 475
200 790
200 810
200 299
200 823
200 754
200 749
200 606
200 644
200 337
200 620
200 911
200 560
200 732
200 395
200 713
200 548
200 964
200 780
200 348
200 385
200 386
200 268
200 509
200 569
200 842
201 804
201 771
201 335
201 561
201 616
201 673
201 902
201 571
201 786
201 560
201 544
201 228
201 734
201 835
201 646
201 410
201 652
201 842
201 214
201 211
201 258
201 752
201 613
201 699
201 989
201 427
201 296
201 403
201 857
201 567
201 746
201 803
201 582
201 679
201 732
201 270
201 431
201 558
201 817
202 585
202 615
202 414
202 611
202 670
202 374
202 551
202 309
202 632
202 530
202 738
202 581
202 608
202 214
202 629
202 938
202 734
202 783
202 527
202 322
202 852
202 346
202 870
202 443
203 797
203 891
203 423
203 694
203 428
203 227
203 350
203 872
203 362
203 301
203 629
203 493
203 740
203 351
203 463
203 978
203 230
203 494
203 757
203 335
203 517
203 799
203 354
203 373
203 417
203 965
203 534
203 975
203 257
204 783
204 529
204 599
204 724
204 749
204 563
204 515
204 766
204 861
204 216
204 790
204 255
204 510
204 670
204 732
204 841
204 737
204 386
204 357
204 876
205 307
205 843
205 919
205 862
205 515
205 264
205 524
205 298
205 577
205 632
205 645
205 743
205 565
205 891
205 641
205 807
205 869
205 486
205 234
205 940
205 748
205 495
205 731
205 682
206 341
206 372
206 643
206 708
206 497
206 897
206 741
206 393
206 675
206 245
206 875
206 335
206 360
206 477
206 905
206 278
206 377
206 922
206 575
206 977
206 228
206 865
207 540
207 694
207 730
207 788
207 374
207 842
207 665
207 337
207 460
207 798
207 865
207 932
207 957
208 793
208 848
208 335
208 574
208 517
208 539
208 983
208 386
208 980
208 689
208 696
208 420
208 933
208 917
208 543
208 209
208 668
208 301
208 765
208 875
208 722
208 922
208 438
209 253
209 382
209 929
209 879
209 639
209 428
209 643
209 797
209 705
209 227
209 685
209 235
209 867
209 467
209 691
209 775
209 324
209 704
209 494
209 388
209 883
209 514
209 895
209 635
209 364
209 706
209 351
209 444
209 897
209 223
209 841
209 286
209 340
209 377
209 871
209 951
209 461
209 726
209 829
209 534
209 555
209 927
209 261
209 378
209 529
209 884
209 921
209 373
209 231
209 842
209 855
209 280
209 957
210 784
210 295
210 299
210 363
210 550
210 246
210 515
210 264
210 506
210 458
210 632
210 728
210 748
210 701
210 233
210 726
210 231
210 654
210 750
210 380
210 488
210 401
210 672
210 950
210 851
210 534
210 673
210 257
210 944
210 821
210 724
210 425
210 740
210 240
210 874
210 626
210 343
210 232
210 342
210 845
210 330
210 230
210 920
210 544
210 361
211 572
211 862
211 872
211 369
211 678
211 930
211 435
211 712
211 713
211 364
211 445
211 785
211 214
211 941
211 743
211 448
211 374
211 928
211 807
211 480
211 237
211 819
211 865
211 932
212 773
212 775
212 540
212 797
212 621
212 644
212 423
212 947
212 375
212 651
212 477
212 991
212 551
212 941
212 967
212 286
212 637
212 214
212 329
212 769
212 254
213 423
213 757
213 702
213 909
213 551
213 792
213 365
213 457
213 782
213 980
213 575
213 509
213 754
213 291
213 657
213 917
213 720
213 904
213 758
213 954
213 725
213 559
213 947
213 225
213 273
213 221
213 878
213 441
213 254
213 735
213 745
213 932
214 293
214 809
214 702
214 914
214 921
214 385
214 992
214 264
214 524
214 270
214 988
214 700
214 551
214 316
214 965
214 600
214 357
214 894
214 466
214 252
214 555
214 427
214 552
214 817
214 842
214 998
214 280
215 706
215 873
215 972
215 529
215 536
215 708
215 488
215 407
215 749
215 262
215 853
215 325
215 726
215 455
215 526
215 953
215 326
215 347
215 216
215 343
215 414
215 277
215 843
215 672
215 319
215 373
215 417
215 268
215 281
215 441
215 505
215 544
215 569
215 817
215 989
215 340
216 645
216 301
216 736
216 295
216 884
216 504
216 976
216 897
216 599
216 647
216 355
216 380
216 325
216 286
216 377
216 219
216 785
216 633
216 700
216 691
216 243
216 795
216 869
216 541
216 579
216 693
216 730
216 320
216 271
217 463
217 561
217 722
217 236
217 419
217 348
217 454
217 268
217 524
217 298
217 495
217 734
217 289
217 957
218 783
218 869
218 616
218 487
218 609
218 626
218 397
218 936
218 318
218 363
218 841
218 279
218 595
218 401
218 787
218 883
218 886
218 458
218 422
218 443
218 720
218 385
218 851
218 369
218 374
218 373
218 677
218 988
218 758
218 815
218 581
218 359
219 253
219 691
219 708
219 795
219 519
219 572
219 693
219 702
219 487
219 969
219 574
219 384
219 326
219 390
219 669
219 266
219 889
219 833
219 624
219 565
219 893
219 909
219 387
219 345
219 862
219 888
219 451
219 568
219 300
219 826
219 389
219 257
219 412
219 242
219 606
219 564
219 416
219 225
219 769
219 872
219 521
219 734
219 690
219 793
219 763
219 277
219 446
219 386
219 591
219 855
219 280
220 462
220 224
220 385
220 689
220 696
220 714
220 935
220 989
220 252
220 951
220 535
220 238
220 438
220 244
220 756
220 687
220 830
220 798
220 305
220 676
220 682
220 427
220 859
220 736
220 542
220 346
220 686
220 331
220 964
220 226
220 625
220 950
220 978
220 986
220 997
220 888
220 738
220 897
220 644
220 386
220 619
220 495
220 761
220 923
220 871
220 974
220 576
220 848
220 435
220 876
220 839
221 229
221 708
221 542
221 255
221 680
221 760
221 317
221 582
221 663
221 577
221 420
221 895
221 658
221 334
221 509
221 222
221 651
221 357
221 530
221 899
221 377
221 956
221 533
221 532
221 503
221 867
221 949
221 457
221 802
221 628
221 675
221 395
221 823
221 641
221 704
221 437
221 965
221 269
221 281
221 878
221 988
221 505
221 911
221 859
221 330
221 346
221 402
222 615
222 243
222 623
222 232
222 344
222 496
222 799
222 374
222 878
222 793
222 767
222 372
222 277
222 420
222 432
222 502
222 794
222 347
222 800
222 269
222 858
222 544
222 842
222 758
222 256
222 641
222 471
223 230
223 708
223 318
223 985
223 417
223 481
223 726
223 852
223 665
223 392
223 936
223 611
223 332
223 473
223 375
223 957
224 561
224 598
224 722
224 730
224 799
224 493
224 234
224 753
224 397
224 278
224 851
224 273
224 710
224 332
224 833
224 931
224 576
224 619
224 389
224 774
224 838
224 448
224 751
224 972
224 775
224 916
224 455
224 862
224 872
224 369
224 921
224 954
224 441
224 500
224 855
224 665
225 258
225 705
225 277
225 755
225 559
225 510
225 881
225 544
225 792
225 348
225 353
225 418
225 954
225 380
225 461
225 314
225 330
226 837
226 532
226 561
226 623
226 669
226 892
226 697
226 610
226 482
226 299
226 843
226 969
226 487
226 539
226 660
226 792
226 526
226 934
226 315
227 837
227 258
227 771
227 775
227 892
227 699
227 344
227 412
227 548
227 636
227 362
227 230
227 757
227 561
227 579
227 325
227 861
227 874
227 365
227 481
227 286
227 852
227 665
228 242
228 360
228 268
228 577
228 240
228 988
228 560
228 700
228 734
228 528
228 875
228 405
228 256
228 422
228 355
228 503
228 237
229 593
229 918
229 639
229 856
229 644
229 905
229 588
229 968
229 539
229 708
229 484
229 692
229 532
229 572
229 909
229 678
229 502
229 988
230 804
230 514
230 771
230 879
230 423
230 463
230 773
230 898
230 766
230 235
230 704
230 478
230 639
230 867
230 892
230 654
230 402
230 408
230 822
230 535
230 767
230 988
230 915
230 403
230 394
230 591
230 611
230 515
230 484
230 271
230 701
230 513
230 832
230 446
230 623
230 234
230 567
230 672
230 967
230 772
230 878
230 895
230 934
230 815
230 330
230 443
230 819
231 378
231 644
231 529
231 521
231 841
231 417
231 264
231 268
231 320
231 612
231 774
231 701
231 263
231 748
231 457
231 970
231 740
231 343
231 467
231 605
231 758
231 255
231 622
231 773
231 386
231 720
231 902
231 990
231 438
231 932
232 573
232 258
232 643
232 532
232 552
232 561
232 587
232 671
232 833
232 492
232 705
232 668
232 403
232 887
232 808
232 320
232 437
232 255
232 515
232 263
232 329
232 687
232 254
232 443
233 406
233 896
233 710
233 302
233 264
233 298
233 726
233 539
233 975
233 737
233 733
233 907
233 757
233 495
233 684
233 403
233 435
234 277
234 670
234 887
234 845
234 824
234 849
234 722
234 902
234 363
234 268
234 798
234 608
234 629
234 814
234 962
234 466
234 897
234 984
234 571
234 799
234 862
234 575
234 828
235 797
235 639
235 643
235 855
235 877
235 397
235 269
235 607
235 670
235 795
235 747
235 887
235 386
235 842
235 990
235 280
235 346
235 870
235 913
235 865
236 553
236 938
236 669
236 702
236 813
236 539
236 670
236 730
236 674
236 581
236 354
236 594
236 833
236 302
236 862
236 363
236 369
236 391
236 936
236 365
236 373
236 748
236 697
236 836
236 842
236 870
237 293
237 795
237 827
237 411
237 582
237 847
237 358
237 577
237 958
237 381
237 249
237 527
237 819
237 865
237 805
237 932
237 525
237 292
237 375
237 260
237 713
237 950
237 999
237 601
237 308
237 337
237 279
237 503
237 910
237 650
237 968
237 280
237 555
237 430
237 810
237 787
237 776
237 328
237 556
237 596
237 397
237 728
237 670
237 829
237 471
238 561
238 702
238 495
238 836
238 509
238 686
238 682
238 687
238 469
238 843
238 604
238 306
238 900
238 381
238 435
238 254
238 838
238 292
239 884
239 942
239 534
239 677
239 980
239 240
239 727
239 945
239 533
239 456
239 782
239 451
239 719
239 968
239 445
239 473
239 420
239 741
239 486
239 550
239 612
239 356
239 357
239 663
239 997
239 887
239 622
239 506
239 491
239 838
239 390
239 327
239 711
239 689
239 661
239 293
239 948
239 619
239 371
239 744
239 446
239 940
239 600
239 878
239 912
239 260
239 733
239 314
239 251
240 803
240 248
240 299
240 385
240 941
240 953
240 270
240 807
240 460
240 677
240 451
240 526
240 698
240 546
240 545
240 949
240 697
240 533
240 933
240 558
240 980
240 719
240 945
240 485
240 337
240 684
240 470
240 751
240 445
240 741
240 739
240 490
240 265
240 325
240 908
240 767
240 436
240 907
240 358
240 824
240 261
240 984
240 665
240 425
240 472
240 463
240 801
240 716
240 497
240 708
240 346
240 838
240 771
240 712
240 892
240 612
240 516
240 979
240 836
240 990
240 670
240 730
240 628
240 845
240 937
240 372
240 281
240 927
240 443
240 503
241 848
241 873
241 685
241 529
241 792
241 354
241 782
241 534
241 684
241 949
241 487
241 528
241 964
241 630
241 651
241 934
241 416
241 440
241 870
241 939
241 957
242 573
242 588
242 597
242 442
242 296
242 802
242 356
242 864
242 608
242 736
242 631
242 931
242 563
242 796
242 384
242 714
242 542
242 454
242 260
242 501
242 986
242 289
242 267
242 783
242 784
242 463
242 827
242 851
242 836
242 346
242 355
242 865
243 593
243 793
243 599
243 335
243 790
243 923
243 884
243 474
243 406
243 570
243 708
243 504
243 426
243 272
243 897
243 749
243 827
243 483
243 360
243 603
243 976
243 991
243 345
243 536
243 436
243 859
243 844
243 933
243 714
243 469
243 547
243 420
243 431
243 648
243 920
243 756
243 604
243 948
243 678
243 398
243 256
243 334
243 395
243 323
243 936
243 274
243 649
243 838
243 960
243 725
243 919
243 462
243 760
243 921
243 582
243 320
243 727
243 687
243 438
243 340
243 443
243 865
244 253
244 837
244 423
244 266
244 299
244 813
244 273
244 391
244 543
244 980
244 560
244 815
244 769
244 714
244 305
244 256
244 398
244 297
244 439
244 427
244 508
244 853
244 534
244 979
244 366
244 538
244 446
244 284
244 386
244 643
244 729
244 902
244 888
244 410
244 723
244 254
244 764
244 650
244 512
244 688
244 381
244 438
244 285
244 443
245 636
245 892
245 708
245 326
245 446
245 941
245 954
245 298
245 677
245 622
245 734
245 689
245 696
245 855
245 381
245 435
245 346
245 932
246 423
246 367
246 737
246 907
246 385
246 491
246 816
246 847
246 953
246 874
246 365
246 930
246 992
246 288
246 404
246 582
246 417
246 323
246 386
246 723
246 373
246 780
246 781
246 366
246 499
246 906
246 960
246 677
246 568
246 710
246 944
246 260
246 642
246 611
246 368
246 384
246 812
246 920
246 510
246 616
246 656
246 973
246 702
246 965
246 533
246 441
246 321
246 284
246 740
246 823
247 602
247 351
247 903
247 404
247 269
247 425
247 734
247 581
247 350
247 855
247 450
247 466
247 254
247 284
247 285
247 322
247 852
247 620
248 372
248 519
248 532
248 623
248 671
248 574
248 531
248 271
248 287
248 628
248 965
248 350
248 314
248 904
248 874
248 843
248 462
248 510
248 626
248 956
248 551
248 365
248 526
248 738
248 689
248 381
248 398
249 602
249 706
249 856
249 406
249 477
249 755
249 374
249 493
249 899
249 697
249 817
249 740
249 950
249 957
250 360
250 559
250 354
250 861
250 907
250 874
250 595
250 692
250 913
250 866
250 928
250 380
250 705
250 887
250 282
250 348
250 385
250 481
250 684
250 451
250 761
250 829
251 579
251 833
251 755
251 278
251 551
251 354
251 524
251 782
251 507
251 734
251 407
251 799
251 687
251 467
251 352
251 839
251 932
252 603
252 504
252 572
252 851
252 632
252 313
252 937
252 689
252 846
252 360
252 266
252 743
252 999
252 726
252 458
252 995
252 361
252 855
252 310
253 640
253 729
253 595
253 588
253 293
253 382
253 648
253 848
253 296
253 840
253 432
253 392
253 606
253 809
253 688
253 723
253 576
253 727
253 846
253 980
253 820
253 975
253 379
253 574
253 537
253 937
253 798
253 481
253 604
253 974
253 485
253 952
253 990
253 589
253 939
253 837
253 372
253 972
253 540
253 797
253 529
253 345
253 866
253 496
253 510
253 404
253 632
253 748
253 741
253 339
253 878
253 988
253 855
253 932
254 621
254 879
254 898
254 862
254 353
254 441
254 329
254 842
254 958
254 581
254 785
254 870
254 913
254 279
254 947
254 876
254 280
254 355
254 806
254 695
254 311
254 312
254 928
254 331
254 974
254 443
254 838
254 361
254 477
254 829
254 446
254 766
254 606
254 692
254 666
254 647
254 989
254 985
254 955
254 639
254 799
254 997
254 301
254 934
254 723
254 432
254 310
254 416
254 809
254 368
254 963
254 531
254 533
254 257
254 322
254 340
254 346
255 775
255 532
255 572
255 623
255 717
255 574
255 909
255 702
255 421
255 499
255 634
255 813
255 893
255 604
255 275
255 969
255 673
255 384
255 589
255 299
255 387
255 498
255 896
255 462
255 512
255 266
255 283
255 924
255 487
255 894
255 915
255 519
255 986
255 908
255 262
255 709
255 587
255 886
255 448
255 578
255 538
255 738
255 903
255 788
255 475
255 857
255 979
255 464
255 316
255 318
255 737
255 829
255 812
255 743
255 837
255 808
255 787
255 514
255 828
255 268
255 625
255 603
255 977
255 298
255 687
255 707
255 332
255 811
255 319
255 377
255 782
255 631
255 744
255 571
255 660
255 348
255 533
255 329
256 372
256 611
256 755
256 533
256 689
256 865
256 605
256 579
256 692
256 859
256 381
257 636
257 519
257 792
257 530
257 269
257 560
257 581
257 437
257 346
257 583
257 340
257 947
257 449
257 284
257 876
257 928
257 778
257 538
257 913
257 311
257 259
257 801
257 974
257 838
257 399
257 400
257 316
257 498
257 389
257 369
257 598
257 333
257 569
257 395
257 485
257 458
257 841
257 798
257 998
257 428
257 516
257 345
257 940
257 885
257 553
257 539
257 750
257 961
257 486
257 565
257 692
257 813
257 410
257 654
257 848
257 769
257 358
257 880
257 935
257 350
257 386
257 870
257 865
258 777
258 952
258 540
258 771
258 955
258 891
258 388
258 514
258 694
258 436
258 711
258 413
258 400
258 840
258 426
258 775
258 639
258 643
258 644
258 705
258 463
258 757
258 730
258 862
258 885
258 495
258 281
258 416
258 435
258 852
258 870
259 606
259 688
259 715
259 267
259 599
259 407
259 477
259 574
259 282
259 851
259 936
259 319
259 698
259 505
259 911
259 580
259 322
259 838
259 340
259 355
259 876
260 615
260 272
260 810
260 671
260 722
260 567
260 320
260 526
260 420
260 520
260 714
260 665
260 819
260 829
260 932
260 471
261 492
261 892
261 749
261 795
261 327
261 374
261 309
261 524
261 534
261 420
261 522
261 560
261 454
261 841
261 817
261 835
261 329
261 842
261 934
261 682
261 398
261 801
261 876
261 957
262 636
262 864
262 883
262 532
262 572
262 623
262 624
262 669
262 693
262 709
262 266
262 625
262 411
262 524
262 726
262 265
262 838
262 819
262 839
262 865
262 479
263 514
263 749
263 343
263 326
263 730
263 484
263 748
263 268
263 495
263 750
263 465
263 380
263 548
263 632
263 625
263 631
263 675
263 847
263 296
263 899
263 673
263 687
263 370
263 435
263 668
263 450
263 372
263 623
263 732
263 502
263 551
263 524
263 726
263 949
263 835
263 713
264 664
264 463
264 619
264 722
264 582
264 481
264 515
264 764
264 765
264 458
264 748
264 750
264 728
264 612
264 654
264 524
264 528
264 577
264 501
264 632
264 298
264 600
264 701
264 970
264 380
264 484
264 270
264 613
264 454
264 547
264 448
264 307
264 766
264 542
264 760
264 670
264 297
264 883
264 385
264 593
264 729
264 416
264 763
264 510
264 472
264 433
264 265
264 927
264 564
264 445
264 640
264 754
264 951
264 828
264 893
264 923
264 353
264 268
264 320
264 878
264 863
264 714
264 401
264 402
265 366
265 619
265 781
265 299
265 325
265 609
265 872
265 970
265 726
265 534
265 274
265 682
265 696
265 383
265 566
265 835
265 660
265 768
265 565
266 529
266 790
266 919
266 889
266 843
266 487
266 915
266 747
266 691
266 976
266 316
266 613
266 495
266 372
266 583
266 670
266 753
266 949
266 700
266 934
266 592
266 876
266 805
266 429
267 615
267 640
267 688
267 492
267 356
267 809
267 706
267 602
267 880
267 837
267 739
267 864
267 392
267 597
267 573
267 664
267 725
267 716
267 871
267 336
267 394
267 367
267 479
267 954
267 365
267 494
267 350
267 460
267 652
267 281
267 531
267 622
267 564
267 441
267 305
267 605
267 798
267 373
267 374
267 410
267 577
267 364
267 802
267 372
267 701
267 834
267 865
268 595
268 670
268 551
268 577
268 654
268 970
268 726
268 765
268 515
268 548
268 750
268 764
268 465
268 270
268 458
268 562
268 605
268 741
268 888
268 993
268 706
268 397
268 634
268 963
268 602
268 332
268 679
268 842
268 819
268 461
268 851
268 561
268 721
268 330
268 610
268 662
268 547
268 482
268 321
268 988
268 524
268 298
268 632
268 949
268 719
268 895
268 686
268 329
268 911
268 975
268 852
268 713
269 588
269 722
269 563
269 358
269 530
269 651
269 906
269 618
269 357
269 522
269 731
269 575
269 877
269 334
269 977
269 291
269 505
269 441
269 294
269 836
269 995
269 509
269 916
269 657
269 910
269 339
269 779
269 425
269 286
269 661
269 312
269 954
269 808
269 762
269 309
269 544
269 456
269 512
269 838
269 351
269 538
269 823
269 704
269 411
269 483
269 962
269 689
269 567
269 770
269 443
269 764
269 632
269 550
269 285
269 281
269 878
269 988
269 835
269 855
270 636
270 648
270 372
270 732
270 524
270 457
270 600
270 765
270 320
270 582
270 851
270 891
270 558
270 863
270 956
270 296
270 749
270 860
270 688
270 726
270 495
270 657
271 519
271 446
271 369
271 999
271 524
271 503
271 404
271 576
272 757
272 529
272 295
272 749
272 504
272 365
272 754
272 576
272 827
272 414
272 426
272 509
272 381
272 523
272 860
272 932
273 729
273 757
273 986
273 539
273 609
273 611
273 670
273 732
273 753
273 613
273 478
273 576
273 402
273 869
273 955
273 964
273 764
273 958
273 961
273 748
273 850
273 849
273 369
273 550
273 582
273 630
273 954
273 997
273 834
273 656
273 998
274 367
274 994
274 317
274 386
274 965
274 495
274 622
274 657
274 658
274 518
274 531
274 482
274 670
274 809
274 479
274 291
274 878
274 441
274 988
274 839
275 991
275 561
275 589
275 666
275 344
275 908
275 886
275 541
275 390
275 969
275 461
275 685
275 598
275 732
275 484
275 369
275 342
275 432
275 906
275 405
275 446
275 448
275 391
275 630
275 737
275 385
275 577
275 782
275 703
275 806
275 852
275 876
275 443
275 375
275 950
276 929
276 841
276 849
276 967
276 320
276 575
276 443
276 820
276 789
276 836
276 878
276 988
276 507
276 509
276 381
276 322
277 372
277 757
277 708
277 519
277 561
277 589
277 702
277 763
277 677
277 782
277 406
277 457
277 342
277 920
277 283
277 299
277 609
277 903
277 418
277 291
277 566
277 700
277 733
277 839
278 597
278 519
278 572
278 611
278 730
278 929
278 423
278 317
278 369
278 393
278 411
278 431
278 460
278 831
278 860
279 595
279 708
279 949
279 779
279 836
279 581
279 731
279 598
279 838
279 340
279 852
279 870
279 932
280 918
280 599
280 561
280 623
280 981
280 376
280 708
280 940
280 297
280 930
280 514
280 284
280 314
280 346
280 355
280 870
280 292
281 638
281 335
281 579
281 843
281 722
281 967
281 320
281 726
281 575
281 642
281 658
281 895
281 618
281 812
281 653
281 450
281 339
281 811
281 507
281 906
281 680
281 852
281 847
281 650
281 828
281 405
281 612
281 743
281 766
281 839
281 688
281 577
281 395
281 415
281 749
281 980
281 814
281 544
281 620
281 655
281 303
281 670
281 889
281 831
281 988
281 509
281 438
281 375
282 573
282 645
282 414
282 519
282 666
282 702
282 283
282 387
282 324
282 946
282 750
282 419
282 861
282 299
282 326
282 894
282 582
282 605
282 418
282 481
282 684
282 575
282 438
282 361
283 955
283 541
283 893
283 866
283 634
283 886
283 899
283 695
283 856
283 672
283 966
283 341
283 938
283 595
283 746
283 487
283 792
283 903
283 418
283 509
283 544
283 842
283 975
284 837
284 469
284 638
284 529
284 736
284 373
284 657
284 826
284 601
284 443
284 939
284 447
284 306
284 399
284 993
284 503
284 878
284 571
284 293
284 685
284 675
284 795
284 954
284 499
284 360
284 976
284 940
284 798
284 924
284 761
284 792
284 616
284 870
284 375
285 608
285 299
285 647
285 547
285 605
285 752
285 828
285 848
285 357
285 730
285 435
285 611
285 488
285 837
285 688
285 322
285 839
286 706
286 519
286 532
286 623
286 833
286 678
286 941
286 476
286 782
286 575
286 651
286 450
286 461
286 754
286 988
286 294
286 425
286 374
286 976
286 778
286 343
286 626
286 518
286 451
286 885
286 486
286 453
286 835
286 295
286 328
286 957
286 596
286 873
286 689
286 580
286 865
286 950
287 541
287 671
287 539
287 369
287 393
287 630
287 672
287 314
287 447
287 673
287 832
287 731
287 628
287 323
287 348
287 417
287 418
287 668
287 932
288 341
288 360
288 567
288 737
288 720
288 309
288 766
288 585
288 350
288 629
288 625
288 386
288 481
288 831
288 920
288 321
288 863
288 713
289 595
289 648
289 809
289 639
289 552
289 386
289 953
289 954
289 970
289 460
289 920
289 461
289 734
289 709
289 290
289 868
289 306
289 594
289 473
289 660
289 521
289 967
289 490
289 817
289 842
289 852
289 527
290 335
290 931
290 477
290 611
290 362
290 949
290 651
290 727
290 755
290 473
290 508
290 528
290 450
290 595
290 314
291 423
291 299
291 481
291 524
291 995
291 522
291 618
291 657
291 520
291 399
291 440
291 604
291 963
291 603
291 528
291 710
291 902
291 359
291 452
291 831
291 842
291 581
291 838
291 564
292 739
292 619
292 343
292 406
292 517
292 753
292 684
292 658
292 381
292 355
292 665
292 713
292 932
292 564
292 641
292 865
292 819
292 655
292 375
292 607
292 576
292 479
292 762
292 731
292 497
292 411
292 332
292 359
292 728
292 751
292 296
292 443
292 618
292 809
292 789
292 696
292 624
292 711
292 415
292 500
293 588
293 593
293 636
293 640
293 729
293 802
293 793
293 595
293 615
293 341
293 356
293 378
293 688
293 432
293 987
293 372
293 563
293 841
293 984
293 887
293 704
293 835
293 830
293 577
293 499
293 684
293 810
293 319
293 412
293 467
293 388
293 413
293 359
293 667
293 955
293 345
293 360
293 589
293 326
293 908
293 559
293 582
293 980
293 734
293 682
293 340
294 685
294 717
294 780
294 575
294 642
294 651
294 490
294 529
294 726
294 836
294 988
294 505
294 507
294 509
294 560
295 570
295 599
295 708
295 789
295 810
295 724
295 767
295 675
295 964
295 383
295 780
295 845
295 680
295 956
295 557
295 406
295 477
295 539
295 722
295 495
295 656
295 734
295 440
295 806
296 640
296 648
296 418
296 300
296 558
296 887
296 742
296 848
296 529
296 519
296 384
296 515
296 968
296 618
296 858
296 963
296 838
296 740
296 957
297 931
297 710
297 354
297 417
297 953
297 495
297 700
297 714
297 438
298 494
298 369
298 861
298 515
298 632
298 380
298 457
298 320
298 465
298 701
298 774
298 764
298 612
298 458
298 577
298 765
298 471
298 871
298 334
298 403
298 818
298 486
298 333
298 891
298 567
298 325
298 483
298 845
298 768
298 852
298 878
298 658
298 301
298 584
298 730
298 525
298 726
298 495
298 610
298 523
299 840
299 898
299 541
299 565
299 616
299 669
299 693
299 908
299 462
299 448
299 924
299 344
299 498
299 434
299 384
299 589
299 421
299 446
299 794
299 893
299 781
299 512
299 579
299 821
299 634
299 709
299 886
299 948
299 647
299 853
299 357
299 525
299 831
299 953
299 359
299 524
299 674
299 494
299 870
299 653
299 869
299 683
299 946
299 328
299 937
299 731
299 928
299 689
299 897
299 974
299 909
299 559
299 464
299 875
299 980
299 878
299 435
299 998
299 852
299 375
300 356
300 757
300 869
300 517
300 386
300 515
300 627
300 687
300 756
300 322
300 523
300 819
300 957
301 599
301 603
301 708
301 749
301 795
301 692
301 688
301 381
301 719
301 585
301 994
301 915
301 448
301 617
301 921
301 555
301 651
301 858
301 863
301 911
301 819
301 957
302 864
302 699
302 572
302 517
302 730
302 753
302 369
302 825
302 900
302 349
302 993
302 482
302 541
302 919
302 837
302 691
302 790
302 639
302 826
302 559
302 586
302 418
302 941
302 520
302 838
302 340
302 443
303 790
303 542
303 623
303 609
303 369
303 632
303 534
303 991
303 843
303 684
303 949
303 381
303 340
303 740
304 616
304 792
304 965
304 534
304 522
304 878
304 350
304 658
304 518
304 381
304 311
304 676
304 345
304 524
304 834
304 544
304 734
304 758
304 403
305 894
305 397
305 323
305 373
305 491
305 577
305 949
305 520
305 878
305 682
305 438
305 832
305 641
306 615
306 378
306 463
306 956
306 601
306 426
306 780
306 693
306 521
306 895
307 593
307 706
307 739
307 783
307 482
307 633
307 839
307 627
307 995
307 818
307 826
307 532
307 661
307 851
307 727
307 751
307 591
307 637
307 911
307 934
307 961
307 689
307 635
307 310
308 463
308 827
308 519
308 390
308 431
308 550
308 559
308 582
308 460
308 908
308 348
308 418
308 965
308 491
308 533
308 778
308 314
309 415
309 551
309 780
309 879
309 389
309 980
309 734
309 974
309 348
309 358
309 385
309 954
309 524
309 320
309 782
309 920
309 505
309 381
309 401
309 435
309 641
310 648
310 514
310 621
310 611
310 872
310 936
310 723
310 953
310 495
310 543
310 684
310 988
310 876
310 713
310 668
310 860
310 325
310 646
310 730
310 995
310 902
310 753
310 771
310 448
310 553
310 439
310 961
310 517
310 366
310 342
310 797
310 505
310 460
310 550
310 865
310 957
311 664
311 757
311 702
311 919
311 539
311 349
311 379
311 858
311 637
311 581
311 322
311 870
312 615
312 469
312 795
312 611
312 872
312 453
312 782
312 420
312 858
312 818
312 314
312 838
312 852
312 870
313 730
313 657
313 516
313 911
313 687
313 689
313 696
313 465
313 781
313 571
313 394
313 606
314 881
314 469
314 494
314 582
314 651
314 817
314 435
314 436
314 538
314 785
314 316
314 928
314 475
314 503
314 400
314 459
314 580
314 993
314 801
314 828
314 581
314 322
314 804
314 912
314 404
314 805
314 531
314 554
314 598
314 877
314 653
314 493
314 691
314 703
314 349
314 486
314 941
314 718
314 549
314 650
314 816
314 852
314 870
314 443
315 867
315 343
315 344
315 753
315 851
315 577
315 503
315 713
315 999
315 405
315 870
315 760
316 664
316 739
316 809
316 384
316 611
316 849
316 649
316 677
316 642
316 403
316 581
316 838
316 340
316 852
317 802
317 691
317 539
317 730
317 799
317 472
317 760
317 857
317 753
317 775
317 721
317 821
317 899
317 961
317 319
317 509
317 795
317 583
317 973
317 779
317 524
317 337
317 575
317 822
318 640
318 705
318 477
318 616
318 693
318 896
318 969
318 617
318 753
318 866
318 541
318 991
318 427
318 630
318 451
318 834
318 441
318 842
318 814
319 923
319 666
319 539
319 722
319 369
319 882
319 411
319 551
319 582
319 828
319 797
319 796
319 447
319 950
319 632
319 881
319 931
319 504
319 952
319 463
319 759
319 348
319 354
319 874
319 481
319 878
319 734
319 687
319 870
319 819
320 664
320 722
320 605
320 524
320 728
320 764
320 506
320 701
320 774
320 632
320 612
320 495
320 988
320 769
320 503
320 846
320 551
320 855
320 650
320 382
320 982
320 583
320 424
320 957
320 323
320 573
320 327
320 363
320 625
320 614
320 492
320 577
320 726
320 782
320 949
320 544
320 801
320 355
320 839
321 532
321 421
321 727
321 658
321 637
321 610
321 793
321 795
321 754
321 524
321 823
321 489
321 613
321 329
321 842
321 838
321 712
322 593
322 532
322 354
322 577
322 530
322 682
322 398
322 538
322 838
322 947
322 601
322 340
322 331
322 870
322 791
322 852
322 913
322 828
322 449
322 399
322 346
322 939
322 778
322 587
322 721
322 941
322 912
322 725
322 759
322 325
322 499
322 771
322 796
322 560
322 379
322 599
322 751
322 676
322 525
322 792
322 353
322 971
322 999
322 606
322 443
322 665
322 479
323 793
323 693
323 788
323 551
323 582
323 792
323 953
323 861
323 454
323 547
323 851
323 909
323 687
323 431
323 377
323 924
323 948
323 692
323 408
323 883
323 348
323 354
323 874
323 534
323 945
323 980
323 470
323 330
324 771
324 883
324 621
324 986
324 510
324 881
324 354
324 436
324 828
324 639
324 463
324 978
324 757
324 795
324 617
324 663
324 362
324 337
324 505
324 814
324 403
324 340
324 527
325 519
325 532
325 541
325 542
325 671
325 413
325 628
325 617
325 732
325 354
325 874
325 949
325 509
325 714
325 398
325 440
325 870
326 880
326 704
326 532
326 561
326 616
326 623
326 702
326 833
326 574
326 542
326 666
326 669
326 499
326 765
326 745
326 931
326 735
326 681
326 346
326 642
326 955
326 374
326 559
326 354
326 874
326 865
327 536
327 708
327 360
327 532
327 561
327 587
327 940
327 369
327 953
327 965
327 453
327 979
328 739
328 784
328 341
328 345
328 406
328 572
328 833
328 539
328 611
328 753
328 550
328 660
328 812
328 988
328 544
328 700
328 817
328 842
328 398
328 581
328 340
328 852
328 819
329 648
329 789
329 673
329 874
329 954
329 836
329 817
329 835
329 703
329 554
329 979
329 511
329 958
329 975
329 637
329 389
329 808
329 569
329 890
329 738
329 610
329 911
329 652
329 631
329 888
329 974
329 339
329 553
329 824
329 541
329 533
329 940
329 599
329 419
329 811
329 730
329 692
329 390
329 643
329 449
329 366
329 851
329 837
329 844
329 429
329 724
329 396
329 438
330 597
330 648
330 644
330 406
330 466
330 502
330 895
330 855
330 793
330 784
330 482
330 544
330 998
330 859
330 340
330 870
330 876
330 564
331 616
331 393
331 582
331 899
331 992
331 997
331 451
331 836
331 509
331 842
331 852
331 819
332 615
332 978
332 532
332 702
332 709
332 717
332 919
332 625
332 799
332 731
332 995
332 526
332 642
332 902
332 411
332 723
332 453
332 778
333 644
333 338
333 896
333 799
333 377
333 419
333 550
333 559
333 567
333 630
333 399
333 953
333 954
333 481
333 622
333 842
333 527
334 372
334 736
334 561
334 344
334 909
334 611
334 679
334 533
334 777
334 613
334 808
334 852
334 675
335 529
335 553
335 789
335 406
335 790
335 827
335 367
335 504
335 345
335 338
335 976
335 736
335 416
335 729
335 696
335 434
335 558
335 863
335 816
335 578
335 652
335 741
335 539
335 734
335 428
335 378
335 702
335 969
335 391
335 393
335 731
335 461
336 739
336 372
336 688
336 793
336 789
336 851
336 589
336 350
336 469
336 532
336 623
336 611
336 534
336 980
336 852
336 355
336 957
337 586
337 348
337 534
337 698
337 981
337 727
337 460
337 717
337 773
337 390
337 367
337 659
337 942
337 469
337 682
337 398
337 676
337 677
337 949
337 817
337 527
337 745
338 529
338 599
338 795
338 425
338 439
338 955
338 370
338 545
338 723
338 386
338 357
338 817
338 911
338 518
338 398
338 870
338 375
339 739
339 354
339 632
339 968
339 575
339 658
339 519
339 941
339 670
339 589
339 346
339 489
339 798
339 555
339 988
339 505
339 703
339 817
339 769
339 438
339 443
339 429
340 356
340 599
340 693
340 421
340 348
340 491
340 420
340 560
340 422
340 768
340 870
340 581
340 785
340 376
340 601
340 346
340 437
340 371
340 355
340 966
340 695
340 436
340 801
340 778
340 359
340 361
340 583
340 791
340 449
340 838
340 761
340 664
340 573
340 918
340 738
340 742
340 686
340 398
340 705
340 343
340 976
340 483
340 762
340 914
340 811
340 623
340 628
340 567
340 364
340 942
340 724
340 669
340 471
340 949
340 620
340 660
340 730
340 441
341 585
341 593
341 636
341 640
341 716
341 987
341 918
341 608
341 650
341 602
341 595
341 415
341 788
341 370
341 702
341 592
341 998
341 908
341 605
341 679
341 843
341 752
341 366
341 428
341 976
341 344
341 889
341 363
341 431
341 949
341 658
341 687
341 838
341 839
342 615
342 694
342 494
342 763
342 678
342 385
342 413
342 379
342 365
342 405
342 373
342 537
342 434
342 843
342 463
342 760
342 425
342 532
342 692
342 833
342 510
342 954
342 481
343 972
343 898
343 795
343 623
343 686
343 401
343 741
343 869
343 414
343 994
343 948
343 411
343 472
343 992
343 920
343 381
343 438
343 819
344 423
344 914
344 542
344 384
344 730
344 521
344 969
344 753
344 660
344 816
344 491
344 741
344 520
344 975
345 883
345 529
345 536
345 724
345 795
345 810
345 549
345 569
345 979
345 431
345 887
345 360
345 994
345 587
345 872
345 460
345 522
345 800
345 438
345 581
346 775
346 709
346 936
346 431
346 567
346 354
346 895
346 441
346 682
346 376
346 832
346 437
346 399
346 828
346 838
346 852
346 465
346 912
346 676
346 423
346 757
346 621
346 656
346 854
346 767
346 961
346 738
346 500
346 492
346 387
346 380
346 438
346 815
346 713
346 448
346 734
346 842
346 675
347 477
347 666
347 866
347 373
347 515
347 727
347 509
347 560
347 842
348 699
348 789
348 552
348 833
348 551
348 559
348 965
348 861
348 930
348 792
348 555
348 547
348 571
348 942
348 787
348 723
348 786
348 903
348 405
348 899
348 907
348 563
348 418
348 365
348 997
348 413
348 386
348 720
348 586
348 649
348 417
348 737
348 354
348 630
348 962
348 582
348 941
348 999
348 772
348 879
348 721
348 459
348 831
348 751
348 604
348 457
348 963
348 801
348 957
348 969
348 859
348 427
348 745
348 541
348 687
348 462
348 840
348 913
348 421
348 794
348 617
348 694
348 377
348 901
348 578
348 600
348 469
348 568
348 428
348 378
348 838
348 500
348 432
348 612
348 540
348 887
348 440
348 385
348 967
348 549
348 355
348 443
349 972
349 578
349 647
349 680
349 753
349 799
349 881
349 454
349 553
349 683
349 737
349 570
349 607
349 550
349 453
349 949
349 507
349 838
349 471
350 393
350 559
350 663
350 792
350 353
350 949
350 575
350 834
350 441
350 566
350 422
350 932
350 471
351 909
351 598
351 730
351 851
351 611
351 460
351 888
351 507
351 418
351 988
351 781
351 750
351 729
351 352
351 369
351 393
351 630
351 353
351 543
351 815
351 852
352 588
352 821
352 521
352 596
352 730
352 851
352 862
352 395
352 788
352 845
352 674
352 495
352 478
352 559
352 522
352 468
352 514
352 792
352 854
352 714
352 374
352 393
352 417
352 577
352 836
352 700
352 438
353 640
353 889
353 391
353 550
353 559
353 582
353 630
353 792
353 358
353 996
353 997
353 967
353 953
353 605
353 690
353 551
353 694
353 638
353 408
353 545
353 738
353 676
353 707
353 945
353 440
353 624
353 937
353 819
353 385
353 584
353 509
353 403
353 371
354 519
354 709
354 660
354 737
354 358
354 941
354 942
354 649
354 571
354 962
354 786
354 386
354 404
354 965
354 491
354 663
354 547
354 594
354 362
354 954
354 582
354 512
354 844
354 738
354 763
354 505
354 981
354 479
354 902
354 639
354 719
354 466
354 438
354 830
354 788
354 705
354 730
354 958
354 529
354 812
354 855
354 439
354 865
355 606
355 363
355 887
355 373
355 772
355 832
355 852
355 383
355 447
355 993
355 394
355 838
355 901
355 518
355 681
355 667
355 521
355 672
355 649
355 499
355 797
355 884
355 942
355 787
355 556
355 870
356 588
356 615
356 648
356 739
356 837
356 640
356 871
356 729
356 636
356 482
356 798
356 855
356 558
356 810
356 546
356 654
356 621
356 540
356 643
356 698
356 767
356 775
356 786
356 380
356 834
356 911
357 873
357 529
357 684
357 520
357 575
357 657
357 836
357 870
357 483
357 878
357 920
357 505
357 507
357 961
357 815
358 553
358 446
358 996
358 365
358 925
358 709
358 521
358 462
358 770
358 877
358 960
358 417
358 454
358 481
358 979
359 529
359 561
359 462
359 633
359 812
359 580
359 852
359 677
359 443
360 783
360 366
360 529
360 599
360 708
360 795
360 827
360 570
360 407
360 767
360 923
360 884
360 406
360 869
360 619
360 897
360 483
360 603
360 717
360 956
360 786
360 435
360 365
360 475
360 501
360 891
360 490
360 744
360 641
360 409
360 547
360 617
360 732
360 377
360 954
360 533
360 895
360 375
361 972
361 795
361 446
361 792
361 476
361 992
361 949
361 653
361 544
361 870
361 897
361 582
361 685
361 891
361 594
361 766
361 740
361 736
361 876
361 860
362 415
362 540
362 599
362 532
362 521
362 374
362 551
362 559
362 582
362 737
362 874
362 459
362 679
362 689
362 833
362 943
362 799
362 669
362 580
362 560
362 517
362 704
362 385
362 878
362 398
362 870
363 415
363 628
363 532
363 552
363 539
363 611
363 862
363 872
363 841
363 625
363 517
363 921
363 753
363 395
363 369
363 670
363 596
363 710
363 508
363 926
363 615
363 642
363 644
363 715
363 424
363 705
363 720
363 579
363 495
363 470
363 702
363 367
363 694
363 514
363 506
363 530
363 803
363 393
363 660
363 418
363 524
363 834
363 744
363 913
364 611
364 670
364 730
364 851
364 531
364 675
364 376
364 551
364 792
364 385
364 544
364 665
365 372
365 978
365 795
365 407
365 532
365 693
365 401
365 498
365 989
365 692
365 764
365 419
365 373
365 385
365 965
365 396
366 664
366 729
366 739
366 848
366 593
366 873
366 474
366 516
366 854
366 910
366 461
366 985
366 612
366 469
366 771
366 428
366 477
366 702
366 508
366 559
366 696
366 870
366 443
367 640
367 529
367 708
367 795
367 869
367 426
367 926
367 489
367 422
367 868
367 406
367 994
367 369
367 992
367 658
367 988
367 911
367 979
368 428
368 923
368 709
368 571
368 727
368 831
368 554
368 560
368 817
368 835
368 842
368 760
368 870
368 932
369 593
369 784
369 621
369 919
369 626
369 670
369 722
369 517
369 391
369 710
369 985
369 625
369 431
369 936
369 846
369 849
369 862
369 753
369 508
369 788
369 882
369 419
369 596
369 609
369 841
369 647
369 872
369 661
369 446
369 600
369 636
369 744
369 454
369 675
369 895
369 695
369 438
369 624
369 867
369 478
369 650
369 946
369 507
369 406
369 861
369 728
369 972
369 982
369 623
369 491
369 390
369 773
369 370
369 767
369 805
369 914
369 897
369 462
369 455
369 711
369 942
369 565
369 567
369 582
369 575
369 653
369 852
370 664
370 688
370 492
370 797
370 757
370 948
370 847
370 981
370 878
370 835
370 443
370 479
371 648
371 775
371 990
371 852
371 646
371 423
371 884
371 821
371 589
371 653
371 443
371 932
372 615
372 636
372 640
372 715
372 848
372 864
372 729
372 597
372 837
372 804
372 648
372 392
372 784
372 793
372 706
372 608
372 972
372 783
372 585
372 929
372 573
372 881
372 645
372 432
372 873
372 725
372 415
372 840
372 716
372 588
372 632
372 534
372 689
372 559
372 960
372 532
372 612
372 563
372 580
372 890
372 627
372 547
372 915
372 894
372 954
372 854
372 618
372 682
372 578
372 686
372 683
372 708
372 605
372 879
372 604
372 991
372 457
372 407
372 785
372 889
372 487
372 730
372 551
372 511
372 696
372 865
372 375
373 972
373 644
373 704
373 467
373 959
373 512
373 539
373 559
373 660
373 997
373 962
373 630
373 925
373 405
373 567
373 672
373 563
373 965
373 899
373 649
373 723
373 571
373 967
373 418
373 861
373 847
373 639
373 629
373 671
373 462
373 754
373 606
373 927
373 961
373 676
373 480
373 531
373 585
373 384
373 633
373 753
373 584
373 830
373 395
373 695
373 487
373 933
373 863
373 562
373 978
373 785
373 954
373 495
373 742
374 739
374 378
374 987
374 909
374 487
374 609
374 670
374 872
374 680
374 985
374 626
374 393
374 480
374 857
374 882
374 679
374 710
374 897
374 901
374 762
374 614
374 600
374 652
374 894
374 914
374 592
374 404
374 885
374 696
374 934
374 662
374 839
374 733
374 375
374 947
374 838
374 902
374 711
374 814
374 870
374 607
375 739
375 802
375 880
375 914
375 753
375 559
375 502
375 988
375 733
375 838
375 765
375 954
375 509
375 852
375 492
375 844
375 622
375 551
375 541
376 802
376 705
376 488
376 565
376 670
376 386
376 954
376 726
376 575
376 878
376 425
376 838
376 443
376 932
377 463
377 702
377 670
377 730
377 799
377 851
377 525
377 429
377 431
377 413
377 686
378 636
378 648
378 739
378 848
378 641
378 463
378 503
378 428
378 827
378 542
378 900
378 903
378 925
378 458
378 677
378 712
379 784
379 691
379 519
379 521
379 722
379 663
379 874
379 426
379 689
379 435
379 711
379 438
379 839
380 799
380 874
380 577
380 632
380 750
380 806
380 597
380 947
380 713
380 518
380 857
380 425
380 979
380 748
380 420
380 633
380 703
380 829
381 783
381 619
381 799
381 555
381 954
381 727
381 682
381 537
381 438
381 998
381 818
381 435
381 662
381 940
381 855
381 744
381 814
381 859
381 845
381 731
381 637
381 878
381 762
381 683
381 408
381 667
381 996
381 795
381 530
381 970
381 709
381 755
381 497
381 745
382 593
382 636
382 640
382 648
382 664
382 729
382 655
382 525
382 625
382 661
382 582
382 766
382 415
382 941
382 656
382 814
383 415
383 529
383 536
383 994
383 760
383 431
383 875
383 575
383 622
383 657
383 560
383 696
383 876
383 804
383 444
383 691
383 757
383 711
383 473
383 443
384 706
384 802
384 705
384 532
384 572
384 579
384 833
384 871
384 983
384 969
384 487
384 878
384 635
385 864
385 587
385 737
385 962
385 586
385 903
385 405
385 997
385 861
385 649
385 780
385 413
385 942
385 630
385 663
385 476
385 676
385 692
385 704
385 646
385 969
385 765
385 399
385 668
385 875
385 473
385 936
385 609
385 695
385 882
385 674
385 839
385 469
385 565
385 783
385 483
385 943
385 772
385 920
385 416
385 998
386 881
386 789
386 616
386 510
386 722
386 753
386 849
386 902
386 582
386 780
386 922
386 413
386 491
386 723
386 649
386 672
386 965
386 630
386 942
386 690
386 997
386 594
386 453
386 786
386 735
386 457
386 762
386 562
386 603
386 810
386 714
386 520
386 970
386 515
386 692
386 497
386 769
386 719
386 475
386 940
386 848
386 938
386 430
386 709
386 858
386 853
386 954
386 992
386 772
386 878
386 835
386 911
386 733
387 529
387 519
387 532
387 542
387 623
387 702
387 389
387 731
387 410
387 456
387 618
387 569
387 656
387 817
387 876
388 615
388 648
388 771
388 639
388 978
388 797
388 686
388 894
388 594
388 598
388 924
388 985
388 779
388 828
388 449
388 956
388 423
388 685
388 463
388 902
388 551
388 997
388 878
388 591
388 934
388 800
388 778
389 891
389 426
389 959
389 836
389 858
389 817
389 731
389 866
389 667
389 423
389 785
389 932
390 708
390 519
390 578
390 666
390 693
390 709
390 770
390 736
390 487
390 649
390 554
390 745
391 739
391 529
391 572
391 539
391 722
391 730
391 732
391 493
391 936
391 674
391 889
391 412
391 744
391 632
391 466
391 939
391 393
391 582
391 731
391 878
391 581
392 593
392 615
392 636
392 725
392 739
392 848
392 777
392 423
392 991
392 561
392 499
392 887
392 902
392 696
392 713
393 640
393 918
393 428
393 724
393 730
393 872
393 626
393 841
393 661
393 508
393 609
393 755
393 985
393 760
393 983
393 753
393 956
393 493
393 419
393 647
393 539
393 596
393 644
393 530
393 646
393 976
393 672
393 586
393 495
393 394
393 453
393 886
393 658
393 966
393 785
393 621
393 789
393 483
393 779
393 681
393 894
393 675
393 958
393 506
393 752
393 974
393 507
393 765
393 816
393 864
393 497
393 726
393 431
393 461
393 770
394 664
394 809
394 661
394 970
394 870
394 955
394 688
394 474
394 753
394 734
394 443
395 739
395 848
395 864
395 771
395 542
395 596
395 722
395 730
395 862
395 967
395 719
395 682
395 819
396 757
396 406
396 813
396 903
396 684
396 575
396 817
396 682
396 963
397 593
397 918
397 643
397 644
397 717
397 908
397 598
397 625
397 730
397 841
397 428
397 816
397 405
397 466
397 716
397 672
397 696
397 998
398 615
398 532
398 630
398 874
398 752
398 696
398 435
398 744
398 424
398 927
398 431
398 473
398 882
398 892
398 644
398 607
398 480
398 936
398 732
398 832
398 443
398 641
399 615
399 784
399 858
399 700
399 738
399 580
399 852
399 781
399 498
399 443
400 708
400 896
400 755
400 559
400 677
400 520
400 731
400 435
400 438
400 838
401 606
401 880
401 734
401 696
401 855
401 750
401 948
401 903
401 438
402 936
402 748
402 507
402 855
402 581
402 870
402 977
402 945
402 462
402 683
402 443
403 978
403 578
403 949
403 422
403 682
403 859
403 412
403 834
403 875
403 965
403 476
403 435
404 881
404 978
404 472
404 550
404 559
404 582
404 773
404 821
404 427
404 599
404 943
404 481
404 684
404 981
405 636
405 671
405 747
405 730
405 550
405 630
405 792
405 874
405 878
405 778
406 593
406 664
406 848
406 529
406 708
406 789
406 790
406 795
406 869
406 718
406 743
406 497
406 414
406 466
406 724
406 736
406 999
406 649
406 774
406 777
406 617
406 987
406 507
406 569
406 781
406 816
406 841
406 706
406 651
406 660
406 874
406 703
407 640
407 864
407 708
407 536
407 998
407 574
407 646
407 597
407 991
407 519
407 730
407 874
407 465
407 677
407 838
407 870
407 564
407 926
408 873
408 810
408 519
408 532
408 541
408 572
408 578
408 589
408 669
408 896
408 753
408 424
408 712
409 615
409 415
409 929
409 669
409 598
409 722
409 799
409 851
409 936
409 431
409 954
409 495
409 652
409 435
409 852
409 957
410 640
410 931
410 418
410 970
410 817
410 911
411 867
411 810
411 611
411 670
411 730
411 799
411 517
411 971
411 824
411 846
411 825
411 431
411 722
411 935
411 891
411 828
411 526
411 930
411 893
411 576
411 439
411 868
411 522
411 674
412 588
412 976
412 781
412 833
412 843
412 582
412 630
412 660
412 954
412 515
412 653
412 878
412 835
413 615
413 536
413 976
413 611
413 559
413 567
413 582
413 681
413 736
413 492
413 481
413 726
413 988
413 835
413 859
413 581
413 993
414 423
414 529
414 708
414 724
414 790
414 795
414 749
414 477
414 869
414 500
414 815
414 763
414 576
414 715
414 932
414 512
414 926
414 948
414 546
414 659
414 863
414 758
414 559
414 630
414 977
415 636
415 648
415 664
415 802
415 837
415 848
415 864
415 972
415 468
415 697
415 463
415 477
415 750
415 445
415 473
415 786
415 632
415 795
415 670
415 900
415 559
416 664
416 691
416 524
416 904
416 682
416 976
416 435
416 438
416 838
417 593
417 873
417 763
417 905
417 625
417 551
417 559
417 567
417 660
417 954
417 476
417 930
417 997
417 649
417 769
417 438
417 855
417 945
417 506
417 911
417 489
417 496
417 621
417 713
417 838
418 869
418 559
418 792
418 930
418 965
418 567
418 663
418 678
418 847
418 594
418 903
418 649
418 794
418 700
418 640
418 866
418 706
418 661
418 552
418 543
418 508
418 951
418 572
418 474
418 579
418 483
418 954
419 743
419 532
419 669
419 969
419 611
419 617
419 625
419 670
419 755
419 872
419 605
419 578
419 705
419 663
419 999
419 533
419 580
419 870
420 827
420 748
420 495
420 533
420 980
420 807
420 698
420 534
420 773
420 550
420 581
420 954
420 731
420 621
420 541
420 599
420 826
420 758
420 430
420 538
420 950
421 640
421 837
421 883
421 529
421 708
421 519
421 579
421 894
421 896
421 487
421 566
421 892
421 888
421 637
421 690
421 989
421 446
421 719
421 761
421 842
421 963
421 580
421 581
421 852
422 636
422 639
422 423
422 978
422 529
422 477
422 579
422 611
422 670
422 921
422 594
422 509
422 560
422 842
422 652
422 890
422 511
422 888
422 770
422 750
422 635
422 974
422 798
422 931
422 530
422 813
422 543
422 959
422 481
422 467
422 814
422 438
423 783
423 777
423 531
423 644
423 978
423 898
423 699
423 638
423 892
423 514
423 621
423 643
423 766
423 691
423 704
423 508
423 583
423 949
423 703
423 549
423 594
423 476
423 436
423 529
423 865
423 533
423 736
423 463
423 790
423 495
423 507
423 913
423 957
424 729
424 797
424 639
424 643
424 487
424 792
424 954
424 651
424 853
424 783
424 445
424 825
425 643
425 454
425 526
425 520
425 642
425 787
425 803
425 833
425 513
425 540
425 656
425 950
426 602
426 706
426 529
426 599
426 603
426 931
426 744
426 513
426 988
426 934
426 855
426 890
426 911
426 964
426 691
426 828
426 951
426 477
426 561
426 551
426 770
427 593
427 708
427 477
427 532
427 499
427 921
427 737
427 682
427 696
427 855
427 438
427 523
428 952
428 531
428 639
428 961
428 501
428 694
428 463
428 978
428 757
428 553
428 555
428 571
428 581
428 805
428 865
429 636
429 644
429 994
429 578
429 481
429 975
429 815
429 580
429 865
429 932
429 787
429 500
429 447
429 973
429 623
429 468
429 961
429 598
429 950
430 802
430 867
430 955
430 795
430 661
430 481
430 734
430 998
430 865
431 541
431 609
431 611
431 722
431 730
431 841
431 936
431 985
431 902
431 882
431 613
431 647
431 598
431 872
431 625
431 542
431 804
431 477
431 608
431 703
431 707
431 543
431 773
431 453
431 612
431 751
431 637
431 618
431 488
431 965
431 437
431 623
431 537
431 630
432 593
432 648
432 726
432 889
432 795
432 717
432 577
432 534
432 842
432 687
432 838
432 932
433 615
433 628
433 510
433 586
433 965
433 520
433 622
433 642
433 651
433 451
433 689
433 685
433 505
433 800
434 615
434 848
434 519
434 572
434 616
434 669
434 673
434 763
434 896
434 934
434 683
434 732
434 523
434 942
434 487
434 651
434 819
435 693
435 902
435 899
435 996
435 878
435 696
435 711
435 859
435 682
435 822
435 549
435 770
435 759
435 998
435 800
435 535
435 960
435 631
435 907
435 955
435 891
435 497
435 575
435 896
435 844
435 624
435 881
435 808
435 490
435 464
435 513
435 643
435 603
435 438
435 681
436 837
436 879
436 643
436 708
436 743
436 749
436 795
436 976
436 477
436 499
436 630
436 672
436 965
436 515
436 581
437 639
437 572
437 709
437 611
437 551
437 486
437 581
437 443
437 860
438 519
438 709
438 763
438 632
438 526
438 533
438 637
438 696
438 714
438 990
438 557
438 859
438 937
438 814
438 721
438 537
438 796
438 946
438 830
438 815
438 440
438 935
438 689
438 535
438 759
438 590
438 800
438 770
438 998
438 915
438 978
438 708
438 472
438 874
438 748
438 870
438 704
438 589
438 692
438 608
438 894
438 506
438 594
438 538
438 618
438 726
438 723
438 994
438 660
438 854
438 457
438 716
438 986
438 956
438 701
438 739
438 509
438 508
438 832
438 805
439 636
439 837
439 639
439 616
439 730
439 690
439 874
439 495
439 836
439 542
439 824
439 617
439 747
439 497
439 976
439 469
439 453
439 745
439 504
440 615
440 469
440 477
440 669
440 611
440 625
440 965
440 774
440 772
440 610
440 863
440 815
440 504
440 510
440 934
440 631
440 629
440 919
440 810
440 910
440 562
440 694
440 967
440 626
440 731
440 612
440 778
441 688
441 708
441 994
441 533
441 575
441 858
441 772
441 618
441 520
441 915
441 843
441 879
441 456
441 640
441 636
441 937
441 809
441 988
441 601
442 593
442 595
442 615
442 648
442 739
442 783
442 848
442 469
442 621
442 639
442 570
442 810
442 994
442 532
442 915
442 670
442 755
442 632
442 543
442 842
442 989
443 540
443 572
443 851
443 560
443 852
443 876
443 947
443 868
443 826
443 828
443 601
443 503
443 974
443 581
443 449
443 583
443 768
443 592
443 778
443 825
443 797
443 734
443 700
443 526
443 917
443 515
443 714
443 861
443 730
443 549
443 651
443 591
443 824
443 599
443 577
443 819
443 743
443 813
443 653
443 555
443 820
443 931
443 958
443 932
444 809
444 773
444 460
444 522
444 895
444 503
444 665
444 713
445 640
445 469
445 771
445 723
445 992
445 782
445 534
445 949
445 915
445 836
445 878
445 560
446 532
446 572
446 623
446 909
446 919
446 692
446 498
446 893
446 604
446 973
446 850
446 835
446 484
446 555
446 619
446 568
446 488
446 548
446 969
446 487
446 559
446 878
446 505
446 631
446 817
447 588
447 529
447 708
447 616
447 833
447 582
447 684
447 544
447 778
447 852
447 713
448 884
448 488
448 532
448 561
448 624
448 623
448 973
448 468
448 987
448 555
448 628
448 466
448 726
448 586
448 839
448 875
448 533
448 461
448 580
449 519
449 680
449 997
449 748
449 949
449 911
449 601
449 832
450 640
450 867
450 694
450 708
450 724
450 532
450 670
450 508
450 632
450 575
450 622
450 895
451 783
451 691
451 552
451 737
451 454
451 491
451 949
451 807
451 724
451 579
451 650
451 766
451 550
451 760
451 496
451 865
451 641
452 867
452 722
452 472
452 567
452 481
452 575
452 835
452 581
452 838
452 852
452 876
452 665
453 588
453 739
453 866
453 551
453 919
453 500
453 992
454 593
454 739
454 867
454 666
454 894
454 510
454 551
454 567
454 954
454 903
454 899
454 630
454 947
454 986
454 697
454 500
454 937
454 949
454 845
454 580
454 595
454 619
454 910
454 811
454 486
454 566
454 696
454 635
455 732
455 847
455 949
455 575
455 658
455 871
455 986
455 988
455 509
455 601
456 636
456 851
456 526
456 543
456 684
456 949
456 807
456 964
456 646
456 988
456 512
456 601
456 520
456 852
457 666
457 582
457 780
457 997
457 820
457 726
457 748
457 855
457 829
457 471
458 626
458 862
458 515
458 524
458 632
458 514
458 823
458 749
458 779
458 636
458 726
458 748
458 495
459 757
459 462
459 799
459 874
459 714
459 852
459 870
459 479
460 621
460 909
460 915
460 533
460 534
460 684
460 949
460 817
460 556
460 525
460 738
460 842
460 855
460 839
460 957
461 539
461 753
461 567
461 626
461 912
461 509
462 519
462 542
462 572
462 616
462 693
462 487
462 866
462 468
462 914
462 709
462 493
462 832
462 989
462 830
462 590
462 560
463 775
463 694
463 699
463 705
463 771
463 644
463 467
463 856
463 638
463 643
463 621
463 883
463 691
463 797
463 892
463 891
463 485
463 928
463 515
463 487
463 578
463 584
463 837
463 949
463 717
463 624
463 845
463 640
463 521
463 669
463 890
463 645
463 990
463 727
463 483
463 675
463 575
463 744
463 496
463 931
463 782
463 505
463 689
464 621
464 639
464 978
464 969
464 710
464 551
464 559
464 678
464 965
464 568
464 533
464 700
464 842
464 682
464 581
465 797
465 938
465 496
465 524
465 577
465 632
465 853
465 868
465 740
465 761
465 995
465 517
465 833
465 818
465 769
465 495
465 622
465 855
465 635
466 708
466 749
466 536
466 923
466 709
466 562
466 537
466 561
466 477
466 649
466 515
466 518
467 775
467 644
467 527
467 702
467 757
467 749
467 794
467 831
467 836
467 712
468 664
468 729
468 531
468 529
468 519
468 623
468 537
468 771
468 485
468 684
469 593
469 615
469 636
469 640
469 864
469 573
469 664
469 918
469 881
469 848
469 804
469 731
469 819
469 861
469 966
469 720
469 481
469 845
469 886
469 830
469 799
469 742
469 610
469 696
469 815
469 913
469 503
470 809
470 795
470 488
470 786
470 885
470 953
470 632
470 726
470 782
470 534
470 949
470 649
470 626
470 622
470 852
470 576
471 650
471 664
471 887
471 847
471 622
471 858
471 714
471 865
471 957
471 707
471 757
471 629
471 900
471 851
471 971
471 977
471 667
471 656
471 722
471 785
472 869
472 611
472 920
472 949
472 583
472 895
472 998
473 784
473 771
473 777
473 730
473 481
473 949
473 630
473 990
473 567
473 503
473 975
473 891
474 694
474 529
474 619
474 708
474 635
474 937
474 515
474 968
474 892
474 858
474 532
474 849
474 983
474 582
474 920
474 934
474 979
474 865
475 645
475 978
475 603
475 710
475 563
475 847
475 575
475 817
475 842
475 855
475 870
476 531
476 639
476 965
476 894
476 526
476 481
476 911
476 963
476 682
476 818
477 739
477 848
477 529
477 599
477 603
477 790
477 795
477 976
477 488
477 959
477 504
477 901
477 624
477 776
477 668
477 984
477 955
477 867
477 947
477 487
477 596
477 559
477 970
477 543
477 522
477 560
477 819
478 848
478 771
478 777
478 867
478 621
478 691
478 699
478 897
478 645
478 912
478 678
478 905
478 612
478 669
478 582
478 740
479 802
479 638
479 680
479 630
479 577
479 831
479 836
479 505
479 682
479 865
479 935
479 549
479 725
479 644
479 701
479 710
479 589
479 723
479 818
479 696
480 715
480 531
480 955
480 616
480 611
480 670
480 730
480 799
480 648
480 817
480 782
480 658
480 582
480 835
480 876
481 794
481 843
481 710
481 559
481 567
481 582
481 792
481 954
481 992
481 490
481 965
481 563
481 649
481 847
481 967
481 816
481 861
481 751
481 950
481 851
481 525
481 524
481 917
481 610
481 849
481 541
481 858
481 527
481 998
481 854
481 654
481 774
481 702
482 606
482 615
482 739
482 809
482 864
482 639
482 670
482 934
482 855
482 870
483 771
483 529
483 603
483 619
483 708
483 795
483 765
483 851
483 773
483 692
483 563
484 965
484 515
484 726
484 519
484 897
484 940
484 732
484 748
484 495
484 949
484 592
485 487
485 941
485 632
485 526
485 533
485 534
485 949
485 641
485 864
485 506
485 776
485 742
485 826
485 637
485 890
485 581
485 523
486 691
486 533
486 534
486 684
486 692
486 711
486 656
486 740
487 671
487 747
487 624
487 542
487 578
487 948
487 905
487 589
487 889
487 634
487 498
487 919
487 914
487 616
487 702
487 763
487 541
487 510
487 604
487 608
487 939
487 997
487 667
487 697
487 657
487 796
487 807
487 705
487 953
487 987
487 895
487 556
487 511
487 614
487 509
487 746
487 533
487 940
487 769
487 537
487 751
487 947
487 967
487 543
487 558
487 576
487 740
488 795
488 903
488 591
488 919
488 899
488 980
488 741
488 911
488 564
488 713
488 740
489 879
489 599
489 541
489 702
489 680
489 799
489 936
489 559
489 954
489 714
489 865
490 809
490 775
490 797
490 737
490 954
490 965
490 992
490 560
490 957
491 492
491 669
491 559
491 899
491 830
491 766
491 757
491 618
491 769
491 840
491 945
491 696
492 593
492 602
492 606
492 640
492 739
492 784
492 848
492 864
492 918
492 654
492 911
492 830
492 692
492 981
492 704
492 541
492 702
492 755
492 682
492 829
493 650
493 763
493 872
493 724
493 496
493 844
493 549
493 967
493 658
493 865
494 784
494 699
494 705
494 775
494 639
494 540
494 644
494 872
494 824
494 958
494 779
494 518
494 728
494 611
494 532
494 577
494 834
494 560
494 700
494 549
495 524
495 632
495 600
495 764
495 506
495 515
495 701
495 750
495 612
495 726
495 847
495 938
495 588
495 700
495 736
495 522
495 581
495 945
495 759
495 695
495 788
495 558
495 821
495 727
495 589
495 919
495 619
495 901
495 534
495 496
495 756
495 567
495 618
495 622
495 734
495 712
496 884
496 579
496 623
496 669
496 896
496 874
496 979
496 710
496 723
496 954
496 726
496 622
496 852
497 705
497 757
497 529
497 553
497 708
497 795
497 849
497 579
497 658
498 593
498 918
498 891
498 519
498 532
498 552
498 669
498 673
498 702
498 586
498 965
498 696
498 832
498 860
498 932
499 848
499 864
499 532
499 616
499 624
499 702
499 982
499 535
499 611
499 567
499 533
499 858
500 773
500 572
500 551
500 554
500 817
500 794
500 998
500 852
500 712
501 532
501 661
501 515
501 726
501 748
501 642
501 689
501 838
501 876
502 636
502 915
502 661
502 533
502 677
502 684
502 980
502 768
502 871
502 803
502 831
502 863
502 906
502 810
502 988
502 934
502 635
503 669
503 919
503 617
503 970
503 998
503 838
503 852
503 826
503 768
503 846
503 799
503 627
503 571
503 760
503 920
503 942
503 929
503 829
503 865
504 553
504 599
504 708
504 580
504 728
504 811
504 519
504 542
504 934
504 993
504 655
505 579
505 624
505 670
505 851
505 965
505 999
505 726
505 520
505 622
505 651
505 858
505 906
505 853
505 731
505 584
505 988
505 895
505 657
505 742
505 531
505 706
505 674
505 698
505 982
505 952
505 672
505 884
505 917
505 542
505 946
505 547
505 909
505 752
505 797
505 705
505 565
505 768
505 628
505 669
505 979
505 733
505 746
506 929
506 542
506 732
506 954
506 524
506 577
506 632
506 970
506 726
506 786
506 723
506 651
506 580
507 643
507 561
507 578
507 524
507 878
507 988
507 575
507 530
507 836
507 779
507 772
507 520
507 910
507 908
507 620
507 996
507 539
507 716
507 544
507 843
507 946
507 611
507 857
507 825
507 793
507 690
507 911
507 838
508 864
508 639
508 561
508 617
508 732
508 799
508 824
508 634
508 522
508 573
508 970
508 685
508 524
508 920
508 577
508 632
508 865
509 647
509 862
509 752
509 622
509 658
509 836
509 878
509 642
509 742
509 575
509 651
509 895
509 910
509 772
509 977
509 633
509 858
509 584
509 851
509 796
509 869
509 551
509 912
509 918
509 697
509 666
509 549
509 769
509 602
509 641
509 719
509 738
509 774
510 739
510 529
510 708
510 512
510 519
510 541
510 552
510 909
510 692
510 893
510 948
510 919
510 579
510 908
510 977
510 721
510 879
510 869
510 660
510 867
510 962
510 639
510 820
510 836
510 934
510 815
510 713
511 739
511 724
511 795
511 519
511 866
511 534
511 677
511 544
511 587
511 726
511 717
511 850
511 549
511 832
511 897
511 964
511 784
511 712
512 793
512 616
512 878
512 869
512 882
512 710
512 860
512 711
512 519
512 532
512 578
512 598
512 949
512 580
512 870
513 898
513 693
513 564
513 878
513 770
513 902
513 957
514 883
514 705
514 955
514 879
514 876
514 834
514 667
514 775
514 621
514 757
514 736
514 838
514 745
514 805
515 866
515 788
515 577
515 524
515 765
515 856
515 640
515 929
515 914
515 729
515 864
515 611
515 973
515 627
515 908
515 670
515 936
515 837
515 824
515 984
515 726
515 748
515 895
515 738
515 913
516 615
516 636
516 552
516 833
516 670
516 732
516 792
516 777
516 817
516 665
517 884
517 872
517 964
517 716
517 670
517 730
517 753
517 799
517 851
517 660
517 954
517 949
517 697
517 682
517 855
517 665
518 702
518 737
518 772
518 613
518 849
518 696
518 655
519 708
519 894
519 634
519 763
519 709
519 587
519 604
519 924
519 673
519 919
519 948
519 886
519 671
519 552
519 821
519 896
519 633
519 774
519 937
519 802
519 837
519 859
519 795
519 874
519 605
519 580
519 721
519 944
519 911
519 967
519 984
519 586
519 650
519 927
519 848
519 663
519 717
519 851
519 992
519 534
519 961
519 975
519 806
519 819
520 831
520 657
520 754
520 910
520 618
520 906
520 772
520 570
520 675
520 595
520 521
520 670
520 891
520 530
520 651
520 878
520 817
521 615
521 640
521 732
521 619
521 725
521 617
521 625
521 730
521 799
521 902
521 921
521 726
522 705
522 896
522 577
522 995
522 988
522 831
522 910
522 756
522 565
522 880
522 795
522 825
522 600
522 917
522 651
522 858
522 920
522 814
523 704
523 757
523 788
523 551
523 726
523 545
523 820
523 823
523 847
523 781
523 629
523 870
523 867
523 865
523 932
523 957
524 540
524 701
524 528
524 548
524 750
524 654
524 726
524 764
524 632
524 612
524 728
524 799
524 723
524 620
524 927
524 656
524 542
524 846
524 986
524 529
524 814
524 830
524 588
524 645
524 824
524 727
524 781
524 988
524 865
524 736
524 874
524 567
524 546
524 577
524 748
525 593
525 810
525 565
525 632
525 833
525 712
525 819
525 957
526 702
526 717
526 833
526 726
526 545
526 582
526 986
526 924
526 974
526 770
526 967
526 699
526 935
526 653
526 534
526 949
526 963
526 870
526 876
526 829
526 957
527 599
527 794
527 872
527 842
527 975
527 707
527 880
527 667
527 870
527 618
527 740
527 865
527 932
527 957
528 739
528 638
528 969
528 730
528 841
528 551
528 780
528 668
528 632
528 748
528 622
528 822
529 918
529 643
529 931
529 884
529 938
529 570
529 718
529 790
529 789
529 827
529 923
529 724
529 619
529 994
529 869
529 553
529 897
529 767
529 976
529 603
529 795
529 749
529 959
529 978
529 673
529 703
529 623
529 674
529 941
529 532
529 893
529 944
529 945
529 600
529 999
529 744
529 910
529 563
529 915
529 916
529 669
529 818
529 708
529 611
529 730
529 551
529 690
529 792
529 748
529 817
529 714
529 926
530 664
530 709
530 999
530 831
530 916
530 858
530 836
530 732
530 891
530 624
530 681
530 954
530 727
530 634
530 629
530 932
530 798
530 575
530 818
531 848
531 775
531 955
531 797
531 561
531 857
531 621
531 639
531 643
531 949
531 734
531 819
531 839
532 892
532 757
532 991
532 578
532 886
532 973
532 673
532 813
532 624
532 889
532 969
532 747
532 794
532 905
532 914
532 763
532 587
532 634
532 948
532 781
532 572
532 604
532 756
532 937
532 851
532 871
532 713
532 934
532 632
532 674
532 989
532 641
532 630
532 932
532 998
532 777
532 942
532 629
532 876
532 826
532 722
532 633
532 870
532 740
533 685
533 969
533 563
533 677
533 546
533 844
533 545
533 558
533 543
533 683
533 949
533 534
533 807
533 751
533 968
533 933
533 981
533 931
533 776
533 556
533 941
533 906
533 777
533 710
533 566
533 616
533 986
533 940
533 723
533 871
533 715
534 722
534 761
534 807
534 945
534 751
534 697
534 727
534 546
534 558
534 968
534 741
534 677
534 684
534 543
534 545
534 624
534 930
534 875
534 679
534 713
534 816
534 626
534 703
534 909
534 937
534 882
534 557
534 685
534 843
534 869
534 840
534 879
534 542
534 537
534 745
534 731
534 894
534 948
534 949
535 593
535 669
535 902
535 965
535 632
535 622
535 911
535 958
535 682
535 696
535 714
535 819
535 829
536 585
536 767
536 736
536 722
536 895
536 697
536 599
536 708
536 795
536 869
536 994
536 717
536 617
536 825
536 841
536 862
536 936
536 954
536 832
537 606
537 879
537 862
537 999
537 658
537 560
537 855
538 938
538 753
538 559
538 567
538 875
538 632
538 581
538 838
538 852
539 873
539 574
539 722
539 846
539 680
539 596
539 732
539 799
539 900
539 736
539 549
539 620
539 754
539 954
539 867
539 586
539 611
539 670
539 862
539 582
539 780
539 878
539 696
539 740
540 775
540 773
540 644
540 621
540 794
540 633
540 761
540 856
540 898
540 643
540 691
540 694
540 594
540 734
540 682
541 595
541 542
541 717
541 693
541 866
541 624
541 886
541 896
541 698
541 738
541 933
541 590
541 891
541 858
541 654
541 719
541 671
541 763
541 799
541 847
541 911
541 859
542 636
542 848
542 685
542 708
542 889
542 794
542 589
542 565
542 854
542 838
542 988
542 630
542 624
542 753
542 755
542 967
542 858
542 659
542 975
542 687
542 580
542 805
543 664
543 725
543 604
543 653
543 949
544 739
544 705
544 742
544 772
544 934
544 646
544 700
544 629
544 560
544 703
544 988
544 634
544 644
544 599
544 919
544 893
544 900
544 817
544 911
544 576
545 864
545 803
545 730
545 807
545 692
545 929
545 769
545 995
545 761
545 858
545 713
545 865
546 775
546 708
546 799
546 782
546 949
546 998
546 580
546 712
547 881
547 797
547 708
547 609
547 594
547 787
547 564
547 983
547 896
547 821
547 751
547 572
547 678
547 723
547 792
547 577
547 701
547 697
547 575
548 570
548 577
548 632
548 778
549 994
549 896
549 831
549 692
549 682
550 664
550 795
550 671
550 611
550 851
550 551
550 792
550 874
550 967
550 925
550 720
550 979
550 612
550 591
550 897
550 566
550 647
550 745
550 892
550 614
550 746
550 811
550 559
550 567
550 649
550 642
550 878
550 817
550 681
551 669
551 660
551 792
551 965
551 953
551 907
551 720
551 954
551 737
551 582
551 996
551 874
551 885
551 605
551 861
551 663
551 667
551 890
551 858
551 611
551 766
551 980
551 982
551 775
551 713
551 791
551 580
551 653
551 774
551 800
551 971
551 597
551 559
551 945
552 616
552 909
552 561
552 626
552 772
552 991
552 783
552 777
552 636
552 572
552 666
552 669
552 980
552 633
553 931
553 789
553 708
553 767
553 614
553 561
553 839
553 860
553 812
553 851
553 912
553 772
553 646
553 891
553 869
553 623
553 889
553 609
553 582
553 641
554 708
554 741
554 700
554 863
554 609
554 838
554 735
554 986
554 721
554 911
554 934
554 557
555 804
555 999
555 788
555 958
555 947
555 786
555 874
555 954
555 878
555 560
556 611
556 874
556 949
556 658
556 858
556 560
556 696
556 713
557 636
557 918
557 621
557 821
557 954
557 968
557 575
557 779
557 688
557 682
557 687
557 696
557 714
558 671
558 969
558 722
558 730
558 788
558 894
558 798
558 684
558 949
558 911
558 714
558 876
559 795
559 763
559 670
559 816
559 792
559 847
559 720
559 678
559 660
559 962
559 594
559 737
559 992
559 953
559 663
559 996
559 780
559 786
559 597
559 560
559 939
559 743
559 755
559 664
559 850
559 826
559 756
559 807
559 932
559 809
559 740
559 674
559 665
559 622
559 568
559 700
559 799
559 630
559 954
559 965
560 572
560 697
560 575
560 633
560 812
560 566
560 934
560 734
560 659
560 568
560 944
560 890
560 863
560 835
560 569
560 686
560 637
560 911
560 817
560 854
560 961
560 739
560 773
560 828
560 871
560 561
560 999
560 861
560 708
560 825
560 583
560 630
560 936
560 796
560 712
560 675
560 996
560 759
560 827
560 832
560 706
560 963
561 864
561 669
561 781
561 915
561 924
561 666
561 692
561 717
561 973
561 747
561 794
561 886
561 623
561 574
561 709
561 634
561 851
561 768
561 954
561 923
561 724
561 819
561 891
561 853
561 787
561 960
561 679
561 564
561 733
561 782
561 621
561 920
561 693
561 755
561 651
562 902
562 582
562 649
562 725
562 851
562 820
562 748
562 980
562 731
562 988
563 869
563 574
563 872
563 881
563 896
563 906
563 582
563 792
563 874
563 592
563 576
563 865
563 957
564 691
564 878
564 766
564 639
564 890
564 725
564 616
564 865
564 932
564 957
565 739
565 848
565 699
565 724
565 984
565 864
565 676
565 728
565 855
565 577
565 742
565 958
565 852
565 745
566 797
566 680
566 677
566 782
566 735
566 623
566 734
566 842
566 911
567 775
567 781
567 930
567 996
567 660
567 586
567 885
567 907
567 867
567 691
567 892
567 852
567 807
567 831
567 721
567 736
567 883
567 965
567 981
568 699
568 782
568 834
568 836
568 911
568 934
568 975
568 838
569 715
569 710
569 788
569 684
569 627
569 835
569 599
569 968
569 918
569 752
569 951
569 721
569 817
569 842
569 975
570 593
570 602
570 935
570 697
570 886
570 599
570 869
570 658
570 689
570 852
570 805
571 809
571 685
571 667
571 999
571 975
571 988
571 994
571 742
571 736
571 737
571 954
571 992
571 684
571 761
571 895
571 817
571 581
572 588
572 739
572 599
572 976
572 948
572 693
572 587
572 574
572 919
572 669
572 924
572 973
572 886
572 908
572 843
572 922
572 990
572 984
572 768
572 755
572 750
572 585
572 707
572 597
572 799
572 909
572 660
572 953
572 878
573 881
573 972
573 688
573 987
573 965
573 900
573 911
573 593
573 595
573 615
573 648
573 664
573 848
573 841
573 872
573 656
573 675
574 636
574 640
574 843
574 924
574 761
574 726
574 730
574 967
574 729
574 701
574 669
574 693
574 763
574 760
574 949
574 700
575 784
575 630
575 910
575 772
575 995
575 754
575 895
575 812
575 779
575 653
575 831
575 642
575 584
575 887
575 799
575 843
575 965
575 613
575 723
575 868
575 893
575 817
575 608
575 770
575 619
575 651
575 658
575 836
575 858
575 878
575 988
576 650
576 625
576 824
576 600
576 651
576 878
576 696
576 800
576 608
576 682
576 660
576 919
576 797
576 829
576 957
577 615
577 664
577 639
577 827
577 670
577 851
577 997
577 774
577 970
577 612
577 750
577 765
577 818
577 738
577 793
577 681
577 893
577 854
577 735
577 739
577 847
577 972
577 957
577 724
577 703
577 733
577 814
577 855
577 838
578 621
578 604
578 671
578 932
578 895
578 645
578 702
578 763
578 843
578 792
578 682
578 829
579 978
579 708
579 931
579 669
579 948
579 624
579 781
579 909
579 668
579 632
579 861
579 594
579 651
579 680
579 642
579 742
579 738
580 739
580 599
580 795
580 869
580 626
580 714
580 830
580 742
580 773
580 835
580 933
580 759
580 581
580 852
581 851
581 980
581 703
581 901
581 832
581 947
581 982
581 868
581 876
581 966
581 826
581 762
581 943
581 661
581 925
581 742
581 888
581 717
581 954
581 606
581 933
581 712
581 779
581 852
582 851
582 787
582 816
582 847
582 999
582 941
582 967
582 861
582 780
582 690
582 996
582 792
582 997
582 723
582 649
582 586
582 741
582 827
582 911
582 699
582 849
582 898
582 871
582 966
582 921
582 772
582 620
582 829
583 775
583 611
583 872
583 902
583 651
583 700
583 734
583 778
583 870
583 735
584 606
584 864
584 623
584 630
584 660
584 965
584 829
584 687
584 599
584 975
584 658
584 878
584 988
584 859
584 870
585 725
585 615
585 608
585 733
585 592
585 636
585 848
585 699
586 640
586 927
586 945
586 656
586 788
586 954
586 659
587 639
587 894
587 694
587 597
587 990
587 814
587 847
587 650
587 997
587 623
587 624
587 813
587 755
587 941
587 957
588 881
588 783
588 693
588 916
588 593
588 615
588 636
588 645
588 664
588 809
588 671
588 737
589 739
589 681
589 661
589 662
589 616
589 717
589 979
590 664
590 757
590 878
590 934
590 815
591 864
591 835
591 734
591 800
591 619
591 671
591 817
591 842
591 934
592 605
592 826
592 755
592 872
592 957
593 597
593 783
593 929
593 648
593 987
593 650
593 840
593 793
593 602
593 837
593 804
593 595
593 645
593 729
593 640
593 802
593 631
593 898
593 763
593 902
593 930
593 707
593 657
593 967
593 682
593 926
593 866
593 792
593 614
593 739
593 864
593 777
593 827
593 689
594 848
594 647
594 709
594 630
594 992
594 726
594 779
594 934
594 829
595 725
595 650
595 837
595 602
595 809
595 929
595 867
595 596
595 917
595 877
595 841
595 615
595 640
595 706
595 739
595 848
595 864
595 918
595 757
595 813
595 992
595 738
595 859
595 806
595 852
596 715
596 978
596 783
596 688
596 683
596 618
596 804
596 799
596 874
596 620
597 896
597 858
597 961
597 615
597 636
597 640
597 664
597 739
597 643
597 600
597 949
597 852
598 775
598 647
598 900
598 777
598 601
598 912
598 885
598 809
598 702
598 803
598 611
598 799
598 841
598 851
598 632
598 911
599 648
599 864
599 736
599 749
599 869
599 718
599 959
599 931
599 740
599 984
599 791
599 793
599 910
599 795
599 994
599 666
599 788
599 965
600 773
600 923
600 976
600 717
600 874
600 993
600 748
600 812
600 682
600 832
601 648
601 736
601 678
601 913
601 901
601 873
601 860
601 923
601 799
601 877
601 772
601 795
601 740
601 604
601 929
601 655
602 648
602 651
602 611
602 615
602 640
602 664
602 739
602 848
602 864
602 897
602 702
602 829
603 848
603 775
603 718
603 938
603 869
603 918
603 710
603 741
603 613
603 673
603 928
603 797
603 795
603 630
603 726
603 855
604 757
604 865
604 706
604 707
604 812
604 616
604 813
604 843
604 625
604 852
604 957
605 606
605 730
605 760
605 663
605 672
605 723
605 738
605 832
606 783
606 837
606 833
606 607
606 787
606 636
606 729
606 848
606 972
606 639
606 699
606 673
606 936
606 761
606 838
607 775
607 816
607 835
607 934
607 829
608 650
608 760
608 673
608 739
608 670
608 836
609 763
609 813
609 626
609 679
609 891
609 909
609 898
609 670
609 753
609 667
610 833
610 804
610 962
610 949
610 700
610 870
611 645
611 648
611 725
611 799
611 755
611 710
611 887
611 788
611 921
611 882
611 824
611 670
611 647
611 900
611 849
611 703
611 831
611 735
611 801
611 939
611 906
611 654
611 836
611 757
611 821
611 810
611 615
611 833
611 802
611 946
611 722
611 730
611 922
611 677
611 657
612 797
612 732
612 748
612 949
612 852
613 840
613 869
613 931
613 624
613 894
613 730
613 799
613 726
613 658
613 682
613 733
614 706
614 795
614 723
614 949
614 980
614 934
615 664
615 972
615 784
615 840
615 804
615 725
615 715
615 688
615 881
615 706
615 645
615 918
615 802
615 739
615 636
615 809
615 793
615 848
615 729
615 650
615 936
615 803
615 969
615 755
615 966
615 698
615 861
615 692
615 690
615 872
615 950
615 787
615 661
615 967
615 722
615 794
615 734
615 978
615 876
615 723
615 818
615 788
615 640
615 660
615 657
615 878
615 961
616 924
616 624
616 919
616 986
616 693
616 833
616 651
616 761
616 990
616 796
616 873
616 726
616 671
616 702
616 788
616 949
616 642
616 759
617 972
617 777
617 749
617 857
617 846
617 661
617 956
617 670
617 861
617 916
617 898
617 980
617 711
617 836
617 755
617 660
617 684
617 949
617 658
618 783
618 693
618 629
618 904
618 651
618 878
618 876
618 819
619 802
619 803
619 766
619 959
619 772
619 942
619 870
619 831
619 686
619 763
619 708
619 795
619 919
619 788
620 632
620 714
620 814
620 722
620 836
620 829
620 865
620 957
621 739
621 771
621 867
621 879
621 638
621 699
621 952
621 777
621 925
621 665
621 865
621 809
621 658
621 772
621 985
621 644
621 757
621 679
621 630
621 920
621 977
621 668
622 994
622 909
622 647
622 730
622 684
622 920
622 779
622 754
622 858
622 836
622 811
622 651
622 876
622 979
622 970
622 778
622 752
622 983
622 855
622 874
622 653
622 895
622 770
623 789
623 908
623 986
623 634
623 709
623 909
623 833
623 624
623 969
623 924
623 667
623 811
623 660
623 753
623 745
623 627
623 740
623 773
623 699
623 809
623 975
623 737
623 842
623 963
623 852
624 884
624 909
624 799
624 958
624 745
624 836
624 820
624 727
624 912
624 929
624 835
624 806
624 657
624 921
624 684
625 987
625 669
625 825
625 730
625 817
625 640
625 723
625 656
625 940
625 783
625 676
625 670
625 722
625 899
625 949
625 920
625 740
625 957
626 699
626 666
626 683
626 670
626 722
626 949
626 769
627 799
627 769
627 664
627 733
627 842
627 696
627 714
627 668
627 713
627 829
628 775
628 777
628 643
628 867
628 638
628 717
628 946
628 774
628 699
628 968
629 669
629 862
629 842
629 926
630 688
630 729
630 851
630 999
630 720
630 907
630 992
630 663
630 787
630 667
630 777
630 686
630 706
630 933
630 935
630 994
630 695
630 823
630 781
630 660
630 954
630 835
630 832
631 804
631 799
631 653
631 876
631 713
632 833
632 748
632 875
632 728
632 764
632 925
632 878
632 980
632 882
632 713
632 768
632 700
632 935
632 811
632 794
632 800
632 988
632 817
632 979
632 838
633 840
633 693
633 975
633 986
633 863
633 876
634 767
634 662
634 769
634 796
634 702
634 709
634 700
634 870
635 795
635 670
635 678
635 684
635 832
635 893
635 939
635 831
636 871
636 715
636 650
636 987
636 725
636 793
636 664
636 880
636 918
636 640
636 848
636 654
636 813
636 946
636 996
636 874
636 914
636 736
636 781
636 853
636 638
636 856
636 816
636 819
636 709
636 656
636 751
636 876
636 836
636 739
636 864
636 929
636 810
636 965
636 726
637 761
637 641
637 893
637 700
637 734
637 817
637 842
637 911
638 809
638 685
638 880
638 641
638 643
638 694
638 757
638 973
638 786
638 980
638 877
638 993
639 771
639 867
639 978
639 952
639 704
639 892
639 691
639 856
639 918
639 743
639 714
639 755
639 794
639 643
639 909
640 645
640 871
640 809
640 739
640 880
640 706
640 732
640 825
640 693
640 805
640 955
640 833
640 798
640 839
640 731
640 838
640 654
640 794
640 908
640 748
640 684
640 687
641 879
641 795
641 884
641 938
641 895
641 655
641 757
641 658
641 772
641 782
641 910
641 829
641 957
642 699
642 708
642 971
642 877
642 754
642 839
642 787
642 652
642 850
642 830
642 672
642 653
642 858
642 878
642 870
643 891
643 704
643 757
643 705
643 644
643 898
643 690
643 941
643 670
643 692
643 732
643 900
643 711
643 863
643 954
643 694
643 647
643 858
643 674
643 696
644 891
644 705
644 685
644 856
644 757
644 699
644 958
644 815
644 940
644 882
644 664
644 668
644 753
644 862
644 956
644 674
644 682
645 688
645 802
645 929
645 922
645 681
645 996
645 648
645 837
645 732
645 874
645 738
645 934
645 689
645 855
646 693
646 647
646 920
646 817
646 714
646 822
646 832
646 870
646 681
647 848
647 699
647 757
647 896
647 887
647 841
647 691
647 836
647 894
647 736
647 795
647 732
647 799
647 902
647 690
647 847
647 726
647 949
647 842
647 682
648 987
648 664
648 848
648 650
648 706
648 972
648 957
648 680
648 824
648 834
648 882
648 663
648 921
648 728
648 756
648 965
648 973
648 739
648 784
648 954
648 700
648 870
649 699
649 696
649 792
649 954
649 658
649 814
649 665
649 819
650 951
650 850
650 747
650 664
650 848
650 864
650 799
650 945
650 778
650 957
651 795
651 893
651 737
651 878
651 916
651 779
651 657
651 931
651 786
651 673
651 823
651 714
651 678
651 941
651 691
651 658
651 834
651 858
651 838
651 829
652 955
652 763
652 895
652 809
652 757
652 783
652 835
652 842
652 682
653 843
653 839
653 939
653 873
653 998
653 657
653 834
653 988
653 776
653 817
654 952
654 734
654 911
654 696
655 879
655 757
655 938
655 713
656 879
656 978
656 795
656 874
656 759
656 946
656 771
656 975
656 829
657 790
657 661
657 690
657 658
657 742
657 810
657 697
657 883
657 976
657 958
657 710
657 928
657 847
657 886
657 893
657 858
657 878
657 895
657 814
657 932
658 831
658 995
658 867
658 881
658 967
658 785
658 661
658 834
658 878
658 776
658 842
658 963
659 726
659 717
659 865
659 881
659 734
659 817
659 911
660 753
660 755
660 737
660 999
660 907
660 874
660 690
660 667
660 899
660 683
660 940
660 936
660 870
660 841
660 695
660 746
660 780
660 792
660 696
661 716
661 670
661 722
661 936
661 949
661 740
662 797
662 786
662 841
662 708
662 682
662 855
663 739
663 848
663 810
663 789
663 788
663 880
663 673
663 890
663 954
663 945
663 961
663 975
663 815
663 681
664 725
664 804
664 848
664 864
664 987
664 688
664 715
664 802
664 924
664 747
664 975
664 746
664 706
664 955
664 693
664 690
664 748
664 835
664 842
665 743
665 991
665 820
665 713
665 740
665 802
665 733
665 947
665 781
665 774
665 884
665 839
665 865
665 957
666 739
666 867
666 866
666 813
666 702
666 693
666 914
666 865
666 898
666 931
666 996
666 776
666 669
666 671
666 722
666 824
666 965
666 988
666 904
667 705
667 670
667 973
667 965
667 742
667 950
668 965
668 817
668 884
668 928
668 738
668 957
669 706
669 821
669 692
669 671
669 894
669 948
669 818
669 971
669 694
669 968
669 940
669 678
669 693
669 748
669 817
669 876
670 848
670 898
670 841
670 799
670 710
670 983
670 872
670 753
670 921
670 824
670 760
670 851
670 857
670 837
670 913
670 907
670 834
670 741
670 768
670 750
670 957
670 997
670 766
670 901
670 765
670 802
670 683
670 853
670 763
670 676
670 785
670 726
671 891
671 915
671 702
671 988
671 927
671 981
671 895
671 881
671 806
671 693
671 730
671 696
671 870
672 929
672 795
672 982
672 786
672 992
672 817
672 735
673 833
673 969
673 866
673 893
673 695
673 917
673 876
673 957
673 798
673 693
673 763
673 953
673 954
673 682
673 758
673 860
674 729
674 730
674 799
674 885
674 822
674 957
674 714
674 934
675 739
675 988
675 689
675 768
675 878
675 889
675 990
675 732
675 713
675 819
675 932
675 957
676 864
676 743
676 896
676 874
676 677
676 696
677 693
677 894
677 727
677 782
677 904
677 840
677 888
677 880
677 816
677 976
677 812
677 949
677 878
677 734
677 842
678 802
678 881
678 794
678 718
678 901
678 792
678 992
678 738
678 958
678 682
678 822
679 915
679 946
679 841
679 851
680 915
680 900
680 887
680 971
680 835
680 919
680 896
680 917
680 719
680 799
680 965
680 748
680 950
681 938
681 817
681 685
681 782
681 945
681 876
681 895
681 956
681 819
681 839
681 865
681 957
682 909
682 851
682 989
682 943
682 940
682 998
682 800
682 984
682 711
682 696
682 937
682 818
682 951
682 805
682 959
682 707
682 862
682 933
682 930
682 761
682 986
682 809
682 964
683 848
683 864
683 797
683 704
683 922
683 949
683 687
684 688
684 827
684 748
684 698
684 782
684 949
684 945
684 730
684 978
684 774
684 875
684 786
684 794
684 768
684 822
684 806
684 932
685 775
685 757
685 694
685 729
685 756
685 705
685 722
685 954
685 806
686 883
686 925
686 697
686 814
686 886
686 738
687 781
687 851
687 983
687 748
687 822
687 935
687 770
687 946
687 814
687 998
687 740
687 700
687 972
687 688
687 706
687 739
687 900
687 855
687 819
687 865
688 846
688 809
688 848
688 693
688 763
688 794
688 842
689 766
689 752
689 895
689 796
689 855
689 769
689 798
689 721
689 814
689 884
689 959
689 791
689 998
690 794
690 830
690 954
691 775
691 797
691 704
691 952
691 856
691 879
691 873
691 861
691 788
691 940
691 694
691 841
691 696
692 795
692 872
692 936
692 965
692 834
692 878
692 700
692 855
693 709
693 794
693 886
693 924
693 718
693 825
693 732
693 826
693 853
693 874
693 742
693 778
694 783
694 797
694 757
694 775
694 883
694 802
694 961
694 835
694 989
694 828
694 715
694 700
694 699
694 708
694 795
694 732
694 874
694 727
694 738
694 911
695 771
695 988
696 953
696 954
696 703
696 940
696 711
696 855
696 714
696 998
696 814
696 818
696 758
696 744
696 722
696 932
696 950
696 747
696 752
696 776
696 742
696 704
696 947
696 803
696 859
696 993
697 941
697 875
697 949
697 709
697 864
697 870
697 904
697 980
697 714
697 806
697 932
697 950
698 908
698 874
698 949
698 873
698 734
698 889
698 759
698 858
698 989
699 771
699 775
699 757
699 769
699 847
699 783
699 844
699 861
699 727
699 799
699 965
699 838
699 913
700 730
700 921
700 965
700 979
700 808
700 904
700 842
700 821
700 746
700 756
700 866
700 705
700 751
700 898
700 893
700 911
700 934
701 739
701 869
701 760
701 983
701 870
701 852
701 829
701 932
702 864
702 973
702 889
702 813
702 909
702 894
702 821
702 794
702 908
702 760
702 875
702 788
702 871
702 985
702 874
702 834
702 988
703 999
703 772
703 983
703 717
703 817
703 842
703 913
703 713
704 864
704 892
704 999
704 726
705 775
705 777
705 892
705 766
705 879
705 952
705 891
705 867
705 861
705 738
705 788
705 901
705 814
705 923
705 834
705 982
705 865
706 739
706 829
706 877
706 715
706 864
706 763
706 855
706 801
706 876
707 753
707 734
707 814
707 713
707 740
707 819
708 848
708 767
708 795
708 789
708 827
708 994
708 749
708 743
708 810
708 912
708 787
708 754
708 984
708 806
708 882
708 928
708 807
708 913
708 819
709 874
709 965
709 997
709 988
710 821
710 722
710 730
711 959
711 954
711 877
711 911
711 826
711 855
711 832
712 795
712 786
712 954
712 748
712 842
712 806
712 762
712 995
712 800
712 772
712 931
713 855
713 870
713 964
713 926
713 850
713 805
713 740
713 865
713 882
713 928
713 750
713 793
713 948
713 908
713 977
713 949
713 770
713 791
713 887
713 837
713 818
713 819
713 932
714 975
714 946
714 989
714 943
714 984
714 822
714 950
714 726
714 745
714 900
714 746
714 945
714 797
714 876
714 965
714 765
714 971
714 848
715 802
715 972
715 882
715 883
715 851
715 885
715 848
715 841
715 817
715 950
716 755
716 968
716 779
716 725
716 902
716 836
716 963
716 939
717 821
717 751
717 864
717 956
717 748
717 778
717 932
718 775
718 862
718 795
718 994
718 965
718 719
718 836
718 877
718 993
718 957
719 915
719 824
719 967
719 949
719 754
719 820
719 961
719 870
719 932
720 747
720 874
720 934
721 730
721 968
721 734
721 855
722 872
722 887
722 862
722 985
722 845
722 851
722 812
722 919
722 803
722 922
722 951
722 794
722 828
722 730
722 726
722 836
722 838
722 876
723 837
723 788
723 816
723 772
723 792
723 874
723 965
723 878
723 842
723 735
724 911
724 886
724 929
724 782
724 795
724 994
724 849
724 748
725 754
725 776
725 757
725 755
725 854
725 966
725 744
725 739
725 848
725 936
725 920
725 855
726 775
726 799
726 851
726 765
726 764
726 970
726 774
726 804
726 893
726 892
726 943
726 959
726 841
726 912
726 838
726 888
726 974
726 812
726 917
726 988
726 934
727 949
727 739
727 814
727 803
727 878
727 819
728 767
728 792
728 992
728 991
728 748
728 911
728 852
729 784
729 848
729 801
729 778
729 739
729 793
729 864
729 755
730 983
730 846
730 921
730 862
730 857
730 841
730 971
730 845
730 851
730 872
730 792
730 733
730 961
730 801
730 827
730 870
730 812
730 925
730 913
730 835
730 937
730 753
730 799
731 795
731 923
731 813
731 866
731 870
732 760
732 900
732 808
732 750
732 832
732 931
732 827
732 938
732 799
732 872
732 734
732 770
732 815
732 876
733 824
733 941
733 877
733 989
733 937
733 988
733 739
733 926
733 829
733 794
733 997
733 825
733 911
733 832
734 835
734 934
734 808
734 917
734 854
734 879
734 910
734 761
734 773
734 795
734 817
734 957
735 809
735 856
735 799
735 975
735 855
735 932
735 957
736 793
736 934
736 898
736 795
736 949
736 838
737 795
737 999
737 855
737 943
737 881
737 980
737 875
737 814
737 960
737 831
737 988
737 870
738 833
738 799
738 831
738 809
738 988
738 784
738 791
738 817
738 911
738 950
739 848
739 880
739 918
739 873
739 804
739 783
739 787
739 764
739 803
739 930
739 891
739 986
739 975
739 841
739 947
739 898
739 774
739 950
740 972
740 981
740 805
740 762
740 969
740 821
740 995
740 927
740 965
740 829
740 932
740 957
741 972
741 773
741 894
741 841
741 782
741 949
741 784
741 829
742 793
742 809
742 942
742 849
742 895
742 988
742 842
742 855
742 932
743 991
743 795
743 994
743 967
743 814
744 848
744 763
744 843
744 753
744 792
744 938
744 855
744 957
745 773
745 775
745 936
745 961
745 986
745 946
745 903
745 868
745 819
745 865
745 932
745 957
746 780
746 772
746 876
746 810
746 932
747 872
747 990
747 965
747 911
748 774
748 935
748 805
748 954
748 776
748 773
748 836
748 767
748 973
748 963
748 952
748 956
748 988
749 931
749 767
749 844
749 962
749 789
749 795
749 860
750 992
750 761
750 988
751 851
751 980
752 967
752 976
752 832
753 936
753 857
753 825
753 971
753 787
753 844
753 838
753 976
753 817
753 810
753 843
753 941
753 779
753 911
754 841
754 858
754 988
754 870
755 873
755 869
755 845
755 759
755 872
755 885
755 992
756 792
756 961
756 914
756 855
756 957
757 848
757 891
757 892
757 856
757 766
757 803
757 797
757 811
757 911
757 868
757 934
757 806
757 881
757 910
757 847
757 974
757 984
757 841
758 922
758 980
758 834
758 988
758 840
759 874
759 954
759 763
760 915
760 862
760 975
760 838
760 876
761 775
761 965
761 936
761 878
761 898
761 838
761 932
762 842
762 855
762 865
763 781
763 973
763 908
763 791
763 880
763 828
763 922
763 842
764 795
764 905
764 872
764 949
764 865
765 809
765 781
765 954
765 965
765 920
766 775
766 797
766 998
766 869
766 931
766 799
766 965
766 772
767 880
767 873
767 790
768 803
768 874
768 940
768 852
768 865
769 851
769 965
769 980
769 988
769 913
770 851
770 992
770 895
770 794
770 789
770 817
770 855
770 932
771 898
771 810
771 919
771 773
771 775
771 931
771 833
771 904
771 818
772 795
772 898
772 870
772 834
773 797
773 905
773 999
773 949
774 987
774 799
774 825
774 851
774 942
774 993
774 961
774 932
775 879
775 777
775 922
775 850
775 866
775 983
775 845
775 842
776 827
776 839
776 842
776 950
777 952
777 962
777 988
777 850
777 879
778 923
778 994
778 872
778 817
778 818
778 784
778 880
778 867
778 922
778 864
778 836
779 795
779 840
779 834
779 836
779 878
779 988
780 794
780 902
780 813
780 981
780 950
780 792
780 954
780 858
780 842
780 860
782 922
782 949
782 897
782 822
782 828
782 800
782 812
783 799
783 958
783 788
783 793
783 965
783 876
784 918
784 980
784 962
784 799
784 817
784 998
785 871
785 790
785 869
785 986
785 812
785 932
786 866
786 912
786 965
786 878
786 957
787 793
787 891
787 954
787 993
788 848
788 986
788 851
788 988
789 897
789 904
789 894
789 906
789 808
789 992
789 795
789 827
789 968
789 932
790 884
790 808
790 873
790 967
790 795
790 869
790 841
790 792
790 899
790 831
790 988
790 814
790 932
791 813
791 908
791 925
791 842
792 869
792 999
792 899
792 997
792 861
792 882
792 984
792 979
792 801
792 988
792 911
793 873
793 818
793 848
793 921
793 992
793 860
794 886
794 844
794 862
794 921
795 864
795 869
795 931
795 923
795 810
795 827
795 819
795 974
795 816
795 813
795 939
795 836
795 965
795 870
796 899
796 965
796 950
797 891
797 803
797 879
797 955
797 952
797 842
797 870
797 867
797 909
798 959
798 817
798 822
799 985
799 887
799 846
799 845
799 936
799 900
799 882
799 806
799 922
799 810
799 898
799 928
799 954
799 842
799 968
799 991
799 847
799 966
799 945
800 988
800 925
800 819
800 865
801 815
801 855
801 878
801 994
801 943
801 838
802 881
802 926
802 949
802 988
802 944
803 891
803 988
803 817
803 842
803 870
804 847
804 916
804 848
804 883
804 810
804 981
804 988
805 864
805 929
805 874
805 846
805 951
805 957
806 931
806 858
806 984
807 994
807 913
807 980
807 814
808 842
809 972
809 941
809 927
809 811
809 848
809 953
809 911
809 838
809 852
810 959
810 948
810 994
810 852
810 870
811 869
811 851
811 858
811 878
812 929
812 988
812 839
813 994
813 922
813 940
813 845
813 977
813 975
814 848
814 835
814 876
814 936
814 824
815 848
815 954
815 940
815 818
815 886
815 847
815 932
816 965
816 992
816 988
816 932
817 976
817 854
817 961
817 934
817 975
817 852
817 938
817 977
817 865
817 836
817 953
817 832
818 934
818 932
818 855
819 985
819 852
819 850
819 829
819 964
819 862
819 967
819 919
819 983
819 882
819 957
820 829
821 898
821 855
821 896
821 882
821 842
822 841
822 998
823 836
823 988
823 934
823 870
823 909
823 943
823 999
824 860
824 995
824 851
825 848
825 898
825 975
825 980
826 836
826 878
826 961
826 859
826 832
826 876
827 864
827 888
827 868
827 949
827 839
828 838
828 852
829 950
829 850
829 911
829 879
829 865
830 887
830 992
830 836
830 926
831 910
831 977
831 876
831 889
831 918
831 834
831 878
831 839
831 865
832 965
832 989
832 928
832 899
832 949
832 922
832 978
833 848
833 924
833 999
833 908
833 851
833 912
834 877
834 982
834 887
834 920
834 988
834 838
835 900
835 863
835 933
835 868
835 973
836 987
836 981
836 920
836 988
836 910
836 911
836 840
836 878
837 871
837 949
837 969
838 978
838 882
838 965
838 949
838 842
838 852
838 870
838 966
838 893
838 877
838 887
838 940
838 952
839 851
839 872
839 944
839 932
840 872
840 848
840 862
840 913
841 955
841 867
841 869
842 944
842 854
842 904
842 888
842 934
842 890
842 975
842 863
842 911
842 958
842 879
842 969
842 933
842 892
843 905
843 938
843 872
843 899
843 963
844 896
844 980
844 998
845 851
845 861
845 932
846 978
846 943
846 851
846 965
846 997
847 864
847 951
848 918
848 880
848 871
848 873
848 909
848 889
848 913
848 947
848 967
848 928
848 935
848 995
848 916
848 924
848 891
849 954
850 882
850 932
851 983
851 985
851 900
851 956
851 887
851 931
851 905
851 965
851 993
851 903
851 955
851 921
851 855
852 975
852 876
852 966
852 913
852 901
852 928
852 947
852 993
852 982
852 870
852 939
852 873
852 958
852 977
852 865
852 943
852 938
853 861
853 874
853 899
853 922
853 878
853 865
853 932
854 934
855 943
855 989
855 935
855 946
855 949
855 900
855 961
855 987
855 904
855 902
855 911
855 963
855 868
855 918
856 964
856 898
857 986
858 916
858 989
858 973
858 892
859 975
859 951
859 942
860 922
860 909
861 969
861 920
861 954
861 998
861 876
861 957
862 882
862 971
862 902
862 964
862 994
862 930
863 969
863 988
863 873
863 934
863 957
864 929
864 987
864 899
864 933
864 896
865 872
865 954
865 926
865 957
865 914
865 938
865 981
865 935
865 985
865 873
867 898
867 879
867 883
867 955
867 977
867 928
867 978
867 967
867 920
868 903
868 967
868 998
868 870
868 876
869 929
869 938
869 903
869 995
869 872
870 947
870 966
870 901
870 993
870 939
870 927
870 908
870 996
870 942
870 990
871 896
871 914
871 903
871 949
872 992
872 932
874 881
874 954
874 912
874 965
874 919
874 946
874 931
874 876
874 967
875 905
876 988
876 974
876 993
876 955
876 891
876 906
876 973
876 957
877 997
877 878
877 988
878 916
878 988
878 920
878 910
878 995
878 932
878 948
878 907
878 946
878 917
878 959
879 900
879 887
879 980
879 977
880 982
880 892
880 991
880 915
881 926
881 897
881 980
882 921
882 954
882 979
883 892
883 978
883 991
884 967
884 992
885 959
885 935
885 965
887 973
888 978
888 893
888 975
889 909
890 954
890 911
891 892
891 970
891 968
891 979
891 934
892 952
892 893
892 956
892 915
892 957
893 994
893 974
893 954
894 908
894 906
894 910
894 911
895 968
895 898
895 936
895 902
895 988
895 932
897 929
897 954
897 908
898 931
898 958
899 942
899 941
899 992
900 909
900 963
900 921
900 999
901 934
902 955
902 914
902 978
902 963
903 952
903 968
905 931
905 921
906 988
907 921
907 965
908 968
908 909
908 970
908 949
908 998
909 986
909 965
909 943
909 969
911 994
911 988
911 917
911 956
911 922
912 986
912 941
913 967
913 961
914 933
914 954
914 957
915 992
915 963
916 967
916 970
916 988
917 932
918 976
918 955
918 956
919 976
919 996
919 968
920 944
920 964
920 935
920 938
920 988
921 959
922 934
922 957
923 930
923 948
923 968
923 957
924 945
928 936
928 949
930 943
930 954
930 965
931 946
931 961
932 965
932 949
932 957
933 949
936 974
938 959
938 968
941 967
942 980
942 998
944 975
945 949
945 977
946 957
948 965
949 981
949 959
949 950
950 953
951 988
952 978
952 962
953 959
953 999
957 988
957 970
957 976
959 985
960 963
961 997
962 976
962 980
965 967
965 997
965 992
965 986
965 985
965 975
969 987
970 989
972 988
973 994
974 996
977 998
985 988
987 998
988 995
991 994
