0 108
0 667
0 217
0 489
0 708
0 69
0 850
0 118
0 349
0 436
0 51
0 710
0 816
0 885
0 495
0 236
0 410
0 357
0 87
0 348
0 32
0 878
0 852
0 563
0 388
0 156
0 120
0 390
0 603
0 364
0 101
0 805
0 843
0 821
0 458
0 345
0 587
0 164
0 172
0 243
0 64
0 15
0 656
0 128
0 283
0 685
0 54
0 318
0 641
0 347
0 22
0 269
0 330
0 763
0 131
0 333
0 678
0 806
1 394
1 470
1 358
1 585
1 623
1 291
1 939
1 73
1 166
1 80
1 446
1 205
1 67
1 200
1 630
1 922
1 184
1 297
1 547
1 290
1 190
1 212
1 588
1 284
1 957
1 819
1 241
1 353
1 47
1 845
1 889
1 665
1 306
1 857
1 991
1 380
1 595
1 34
1 787
1 579
1 154
1 169
1 842
1 849
1 404
1 828
1 996
2 12
2 745
2 62
2 703
2 178
2 823
2 482
2 961
2 872
2 937
2 964
2 460
2 706
2 143
2 174
2 148
2 724
2 615
2 720
2 933
2 361
2 486
2 601
2 64
2 513
2 396
2 552
2 222
2 531
2 285
2 366
2 525
2 108
2 682
2 688
2 738
2 758
2 795
2 810
2 817
2 827
2 342
2 919
2 927
2 419
2 454
2 558
2 820
2 90
2 368
2 651
2 298
3 108
3 214
3 982
3 618
3 334
3 994
3 399
3 920
3 156
3 57
3 211
3 251
3 385
3 732
3 526
3 6
3 634
3 377
3 620
3 815
3 422
3 805
3 33
3 453
3 799
3 668
3 152
3 242
3 936
3 414
3 87
3 939
3 565
3 710
3 756
3 159
3 950
3 162
3 290
3 729
3 136
3 41
3 610
3 109
3 243
3 631
4 584
4 639
4 552
4 627
4 35
4 234
4 777
4 847
4 539
4 577
4 770
4 281
4 546
4 782
4 931
4 736
4 255
4 593
4 954
4 157
4 450
4 347
4 368
4 566
4 41
4 916
4 485
4 458
4 573
4 585
4 624
4 625
4 623
4 753
4 809
4 305
4 863
4 392
4 942
4 475
4 105
4 533
4 448
4 94
4 323
4 28
4 451
5 54
5 785
5 202
5 518
5 506
5 473
5 728
5 471
5 672
5 631
5 254
5 752
5 221
5 652
5 45
5 199
5 213
5 986
5 868
5 873
5 537
5 762
5 349
5 416
5 216
5 859
5 899
6 318
6 341
6 711
6 653
6 694
6 541
6 193
6 323
6 14
6 385
6 778
6 815
6 53
6 610
6 109
6 765
7 524
7 893
7 17
7 133
7 117
7 522
7 667
7 223
7 71
7 611
7 811
7 908
7 802
7 40
7 562
7 102
7 882
7 228
7 887
7 208
7 636
7 619
7 211
8 316
8 919
8 835
8 275
8 13
8 232
8 321
8 881
8 571
8 577
8 899
8 667
8 914
8 555
8 932
8 329
8 202
8 473
8 761
8 169
8 967
8 284
8 455
8 94
8 298
9 102
9 19
9 939
9 183
9 436
9 90
9 172
9 528
9 999
9 532
9 628
9 471
9 58
9 76
9 106
9 119
9 751
9 842
9 994
9 995
9 997
9 563
9 570
9 621
9 163
9 675
9 132
10 54
10 977
10 749
10 588
10 205
10 246
10 946
10 267
10 716
10 527
10 905
10 367
10 548
10 704
10 462
10 230
10 110
10 656
10 820
10 331
10 587
10 23
10 932
10 213
10 910
10 413
10 822
10 658
10 680
10 543
10 683
10 60
10 522
10 137
10 468
10 735
10 118
10 842
10 991
10 176
10 163
10 620
11 188
11 514
11 19
11 881
11 999
11 741
11 712
11 963
11 359
11 879
11 13
11 259
11 934
11 99
11 511
11 771
11 211
11 894
11 796
11 654
11 275
11 329
11 597
11 742
11 378
11 475
11 73
11 58
11 105
11 965
12 706
12 482
12 703
12 724
12 827
12 854
12 271
12 460
12 937
12 316
12 419
12 758
12 578
12 576
12 434
12 745
12 738
12 729
12 342
12 794
12 682
12 688
12 454
12 265
12 785
12 977
12 824
12 501
12 754
12 927
12 856
12 929
12 722
12 158
12 338
12 615
12 969
12 810
12 964
12 435
12 872
12 148
12 914
12 44
12 442
12 153
12 418
12 256
12 234
12 521
12 707
12 250
12 33
12 294
12 91
12 274
12 425
12 131
12 74
12 88
12 572
12 739
12 890
12 189
12 337
12 211
12 121
12 986
12 431
12 436
12 933
12 978
12 443
12 54
12 62
12 607
12 174
12 720
12 817
12 919
12 952
12 257
12 982
12 480
12 820
12 70
12 801
12 180
12 254
13 745
13 654
13 85
13 244
13 597
13 468
13 513
13 605
13 321
13 879
13 202
13 741
13 769
13 322
13 877
13 413
13 916
13 834
13 512
13 708
13 51
13 55
13 961
13 692
13 161
13 381
13 209
13 47
13 457
13 580
13 378
13 490
13 242
13 762
13 484
13 963
13 329
13 742
13 881
13 993
13 567
13 119
13 147
13 335
13 309
13 805
13 610
14 755
14 562
14 505
14 604
14 35
14 498
14 87
14 210
14 226
14 808
14 240
14 50
14 97
14 910
14 466
14 227
14 311
14 701
14 132
14 52
14 938
14 307
14 945
14 911
14 550
14 538
14 987
14 211
14 145
14 949
14 723
14 56
14 260
14 493
14 775
14 542
14 391
14 923
14 899
14 715
14 760
14 940
14 478
14 933
14 409
14 763
14 221
14 16
14 904
14 504
14 766
14 284
14 687
14 206
14 473
14 835
14 812
14 726
14 357
14 859
14 558
14 657
14 276
14 281
14 866
15 40
15 102
15 753
15 300
15 885
15 94
15 536
15 723
15 33
15 263
15 137
15 839
15 641
15 177
15 30
15 528
15 254
15 788
15 889
15 431
15 800
15 463
15 663
15 302
15 598
15 568
15 37
15 313
15 470
15 991
15 435
15 689
15 205
15 646
15 905
15 744
15 936
15 259
15 437
15 970
15 526
15 329
15 357
15 643
15 304
15 649
15 395
15 875
16 460
16 534
16 402
16 276
16 353
16 770
16 637
16 782
16 546
16 449
16 573
16 111
16 624
16 812
16 887
16 807
16 921
16 469
16 378
16 300
16 625
16 187
16 942
16 567
16 851
16 653
16 234
16 967
16 753
16 519
16 115
16 838
16 873
16 404
16 459
16 186
16 271
16 401
16 934
16 117
16 350
16 792
16 168
16 150
16 103
16 282
16 89
16 165
16 332
16 135
16 339
16 146
16 55
16 82
16 107
16 623
16 639
16 681
16 747
16 305
16 475
16 371
16 396
16 481
16 116
17 454
17 520
17 524
17 98
17 139
17 102
17 233
17 893
17 505
17 475
17 134
17 576
17 376
17 453
17 138
17 562
17 882
17 439
17 228
17 244
17 981
17 995
17 127
17 935
17 498
17 120
17 511
17 556
17 243
17 64
18 521
18 793
18 182
18 224
18 425
18 68
18 395
18 221
18 886
18 982
18 846
18 771
18 206
18 589
18 289
18 443
18 247
18 877
18 662
18 223
18 791
18 752
18 463
18 974
18 107
18 352
18 100
18 544
18 668
18 734
18 222
18 252
18 318
18 337
18 417
18 667
18 537
18 850
18 66
18 684
18 710
18 270
18 36
18 240
19 927
19 734
19 654
19 275
19 741
19 879
19 321
19 202
19 705
19 489
19 85
19 963
19 837
19 916
19 468
19 245
19 232
19 877
19 219
19 712
19 834
19 322
19 244
19 121
19 345
19 829
19 247
19 952
19 378
19 334
19 271
19 169
19 994
19 370
19 569
19 320
19 958
19 363
19 178
19 308
19 873
19 894
19 863
19 547
19 71
19 106
19 196
19 821
19 412
19 992
19 120
19 481
19 949
19 137
20 720
20 827
20 811
20 424
20 851
20 414
20 67
20 729
20 748
20 450
20 762
20 864
20 284
20 957
20 630
20 649
20 603
20 46
20 86
20 857
20 944
20 225
21 54
21 703
21 869
21 813
21 382
21 167
21 786
21 886
21 676
21 400
21 339
21 160
21 250
21 340
21 880
21 144
21 668
21 673
21 182
21 695
21 188
21 221
21 734
21 755
21 257
21 825
21 318
21 835
21 326
21 979
21 102
21 159
21 681
21 255
21 475
21 80
21 452
21 710
21 404
21 448
21 923
21 949
21 556
22 367
22 602
22 670
22 288
22 416
22 412
22 649
22 693
22 396
22 399
22 301
22 427
22 983
22 360
22 168
22 127
22 898
22 324
22 282
22 146
22 821
22 185
22 441
22 907
22 748
22 186
22 698
22 662
22 804
22 509
22 141
22 772
22 636
22 672
22 710
22 264
22 965
22 687
22 491
22 844
22 699
22 444
22 404
22 655
22 926
22 485
22 972
22 128
22 638
22 203
22 848
22 229
22 647
22 151
22 920
22 590
22 308
22 473
22 758
22 451
22 887
22 953
22 948
22 353
22 351
22 235
22 325
22 979
22 103
22 765
22 942
22 644
22 732
22 431
22 579
22 833
22 914
22 521
22 196
22 134
22 143
22 88
22 142
22 397
22 93
22 74
22 313
22 706
22 449
22 780
22 302
22 419
22 944
22 574
22 686
22 935
22 992
22 180
22 345
22 930
22 718
22 701
23 654
23 205
23 436
23 662
23 535
23 660
23 162
23 286
23 892
23 309
23 50
23 567
23 875
24 578
24 773
24 529
24 100
24 632
24 539
24 292
24 733
24 766
24 842
24 185
24 396
24 140
24 884
24 654
24 45
24 272
24 966
24 739
24 109
24 460
24 796
24 595
24 600
24 621
24 646
24 648
24 714
24 888
24 892
24 930
24 975
24 496
24 511
24 832
25 134
25 520
25 523
25 524
25 876
25 117
25 893
25 421
25 139
25 249
25 667
25 297
25 390
25 141
25 253
25 710
25 187
25 488
25 40
25 304
25 562
25 819
25 591
25 402
25 228
25 244
25 880
25 957
25 77
25 126
25 180
25 975
25 565
25 620
26 819
26 471
26 519
26 639
26 842
26 849
26 912
26 269
26 130
26 364
26 220
26 603
26 101
26 32
26 376
26 357
26 964
26 704
26 565
26 859
26 891
26 93
26 922
26 206
26 507
26 936
26 36
26 120
26 885
26 121
26 372
26 701
27 721
27 515
27 518
27 652
27 341
27 868
27 476
27 241
27 464
27 981
27 473
27 433
27 506
27 530
27 213
27 744
27 480
27 402
27 356
27 469
27 557
27 927
27 546
27 310
27 99
27 89
27 985
27 614
27 29
27 545
27 934
27 735
27 645
27 798
28 795
28 419
28 589
28 652
28 349
28 901
28 930
28 536
28 538
28 808
28 260
28 466
28 701
28 923
28 307
28 211
28 155
28 150
28 210
28 311
28 987
28 629
28 261
28 938
28 171
28 949
28 493
28 911
28 683
28 153
28 550
28 52
28 42
28 775
28 899
28 467
28 954
28 798
28 640
28 240
28 601
28 84
28 95
28 185
28 821
28 180
28 468
28 626
28 464
28 110
28 602
28 123
28 63
28 256
28 837
28 990
28 107
28 275
28 889
28 324
28 983
28 890
28 281
28 838
28 942
28 87
28 132
28 561
29 108
29 460
29 979
29 228
29 464
29 43
29 531
29 767
29 506
29 530
29 652
29 476
29 433
29 336
29 511
29 999
29 387
29 417
29 116
29 681
29 436
29 103
29 575
29 213
29 986
29 873
29 694
29 842
29 994
29 790
29 298
30 873
30 479
30 255
30 334
30 231
30 586
30 674
30 263
30 115
30 349
30 376
30 683
30 415
30 561
31 607
31 633
31 894
31 519
31 637
31 997
31 450
31 904
31 649
31 737
31 64
31 229
31 959
31 833
31 457
31 988
31 555
31 718
31 298
31 391
31 243
32 435
32 460
32 825
32 480
32 633
32 617
32 142
32 736
32 70
32 440
32 636
32 647
32 498
32 535
32 563
32 330
32 978
32 87
32 603
32 120
32 867
32 763
32 806
33 81
33 728
33 552
33 567
33 255
33 446
33 751
33 390
33 387
33 538
33 944
33 687
33 517
33 585
33 849
33 403
33 851
33 368
33 41
33 620
33 109
33 243
33 631
34 795
34 734
34 326
34 277
34 959
34 988
34 72
34 757
34 196
34 697
34 84
34 609
34 990
34 947
34 426
34 173
34 339
34 238
34 847
34 964
34 557
34 646
34 309
34 497
35 914
35 919
35 874
35 45
35 546
35 577
35 809
35 475
35 378
35 300
35 807
35 747
35 442
35 970
35 565
35 376
35 954
35 394
35 971
35 55
35 639
35 159
35 305
35 334
35 851
35 863
35 880
35 392
35 735
35 959
35 763
36 54
36 465
36 711
36 494
36 519
36 59
36 58
36 912
36 156
36 816
36 535
36 120
36 364
36 231
36 852
36 376
36 410
36 533
36 862
36 269
36 867
36 101
36 763
36 130
36 596
36 885
36 909
36 350
36 428
36 139
36 601
36 705
36 604
36 95
36 55
36 258
36 453
36 152
36 290
36 605
36 312
36 47
36 804
36 39
36 819
36 108
36 744
36 330
36 978
36 87
36 603
36 121
36 375
36 631
36 598
37 703
37 402
37 433
37 868
37 740
37 980
37 642
37 216
37 566
37 325
37 263
37 415
37 694
37 844
37 228
37 912
37 75
37 765
38 724
38 824
38 929
38 68
38 715
38 728
38 517
38 272
38 537
38 48
38 998
38 384
38 324
38 253
38 483
38 284
38 230
38 491
38 201
38 46
38 711
38 207
38 352
38 865
38 612
38 358
38 488
38 632
38 348
38 600
38 131
38 448
39 125
39 968
39 882
39 506
39 618
39 187
39 276
39 115
39 569
39 546
39 345
39 415
39 215
39 742
39 961
39 671
39 932
39 567
39 623
39 142
39 749
39 782
39 841
39 334
39 863
39 475
39 606
39 725
39 127
39 498
39 87
39 675
39 193
39 815
39 806
40 720
40 520
40 778
40 524
40 522
40 534
40 380
40 507
40 439
40 233
40 562
40 529
40 218
40 98
40 523
40 591
40 746
40 370
40 217
40 49
40 893
40 512
40 125
40 221
40 848
40 861
40 342
40 93
40 951
40 899
40 352
40 295
40 445
40 723
40 808
40 41
40 197
40 102
40 882
40 133
40 402
40 228
40 998
40 255
40 75
40 684
40 901
40 992
40 600
40 691
40 132
41 271
41 785
41 755
41 882
41 628
41 749
41 884
41 483
41 699
41 455
41 497
41 136
41 109
41 251
41 611
41 732
41 631
41 610
41 385
41 634
41 53
41 832
41 262
41 124
41 92
41 401
41 812
41 663
41 603
41 108
41 206
41 817
41 44
41 345
41 405
41 432
41 534
41 305
41 43
41 390
41 814
41 551
41 851
41 149
41 172
41 815
41 503
41 366
41 243
41 373
42 544
42 834
42 85
42 414
42 475
42 498
42 541
42 372
42 193
42 260
42 261
42 536
42 538
42 542
42 629
42 949
42 723
42 211
42 263
42 553
42 765
43 589
43 351
43 934
43 575
43 506
43 213
43 447
43 336
43 707
43 809
43 143
43 45
43 199
43 981
43 341
43 473
43 480
43 868
43 639
43 650
43 187
43 305
43 766
43 842
43 672
43 270
43 975
43 261
43 243
44 827
44 781
44 442
44 93
44 237
44 61
44 267
44 558
44 548
44 946
44 947
44 587
44 58
44 231
44 650
44 67
44 669
44 139
44 491
44 313
44 331
44 850
44 733
44 367
44 118
44 646
44 511
44 240
44 839
45 134
45 443
45 322
45 652
45 934
45 873
45 530
45 575
45 633
45 154
45 518
45 744
45 433
45 379
45 743
45 341
45 635
45 545
45 400
45 648
45 328
45 892
45 978
45 714
45 786
45 494
45 763
45 591
45 258
45 640
45 213
45 480
45 868
45 766
46 986
46 358
46 494
46 807
46 863
46 829
46 323
46 309
46 774
46 181
46 194
46 857
46 951
46 74
46 800
46 947
46 370
46 855
46 120
46 297
46 989
46 890
46 188
46 559
46 560
46 586
46 116
46 675
46 294
46 298
46 375
46 418
46 996
46 497
46 542
46 568
47 976
47 574
47 247
47 727
47 537
47 618
47 279
47 655
47 85
47 49
47 145
47 784
47 642
47 711
47 865
47 740
47 358
47 762
47 639
47 807
47 687
47 935
47 498
47 666
47 52
48 158
48 517
48 537
48 993
48 752
48 272
48 950
48 652
48 842
48 844
48 215
48 711
48 584
48 612
48 622
48 639
48 147
48 399
48 603
48 540
48 299
48 805
49 827
49 221
49 520
49 778
49 523
49 421
49 505
49 98
49 228
49 423
49 207
49 755
49 162
49 113
49 563
49 562
49 133
49 762
49 83
49 298
49 857
49 542
50 576
50 795
50 914
50 776
50 656
50 427
50 498
50 621
50 418
50 260
50 538
50 132
50 938
50 945
50 493
50 209
50 739
50 569
50 853
50 399
50 195
50 725
50 843
50 310
50 153
50 155
50 949
50 211
50 987
51 961
51 257
51 369
51 807
51 826
51 557
51 99
51 371
51 197
51 595
51 334
51 198
51 981
51 815
51 697
51 833
51 208
51 725
51 599
51 203
51 671
51 323
52 785
52 755
52 529
52 304
52 55
52 205
52 548
52 983
52 749
52 609
52 235
52 57
52 473
52 723
53 417
53 102
53 654
53 740
53 585
53 614
53 127
53 718
53 542
53 805
53 124
53 453
53 109
53 366
53 503
53 251
53 484
53 622
53 161
53 473
53 799
53 958
53 682
53 371
53 111
53 755
53 497
53 290
53 595
53 610
53 620
53 243
54 720
54 460
54 578
54 374
54 293
54 490
54 338
54 148
54 342
54 917
54 929
54 952
54 977
54 482
54 454
54 688
54 613
54 722
54 872
54 419
54 682
54 576
54 827
54 158
54 795
54 823
54 738
54 961
54 265
54 927
54 316
54 174
54 108
54 400
54 724
54 434
54 914
54 178
54 607
54 435
54 143
54 754
54 937
54 706
54 588
54 279
54 346
54 847
54 844
54 855
54 808
54 689
54 910
54 507
54 714
54 397
54 295
54 640
54 756
54 934
54 351
54 398
54 789
54 373
54 941
54 622
54 637
54 851
54 137
54 385
54 62
54 402
54 753
54 381
54 942
54 947
54 985
54 371
54 104
54 675
54 718
54 132
54 556
55 62
55 823
55 936
55 819
55 361
55 492
55 300
55 82
55 841
55 694
55 708
55 195
55 552
55 539
55 583
55 860
55 681
55 895
55 546
55 863
55 871
55 770
55 475
55 948
55 449
55 990
55 670
55 243
55 419
55 885
55 563
55 671
55 643
55 714
55 972
55 821
55 690
55 909
55 928
55 329
55 271
55 591
55 886
55 824
55 311
55 585
55 617
55 107
55 624
55 809
55 378
55 392
55 967
55 716
55 412
55 992
56 417
56 202
56 776
56 476
56 624
56 284
56 208
56 821
56 555
56 294
56 610
56 788
56 275
56 93
56 697
56 449
56 141
56 629
56 949
56 987
56 240
56 598
57 982
57 402
57 997
57 543
57 348
57 888
57 160
57 138
57 266
57 930
57 177
57 773
57 539
57 774
57 594
57 595
57 121
57 140
57 286
57 892
57 975
57 472
57 683
57 502
58 745
58 715
58 886
58 361
58 546
58 704
58 830
58 346
58 940
58 280
58 83
58 76
58 579
58 606
58 970
58 423
58 172
58 980
58 686
58 665
58 814
58 751
58 602
58 189
58 580
58 985
58 801
58 238
58 66
58 126
58 452
58 861
58 223
58 995
58 409
58 436
58 90
58 75
58 368
58 883
58 183
58 614
58 406
58 764
58 941
58 119
58 403
58 564
58 343
58 787
58 826
58 451
58 672
58 923
58 294
58 145
58 234
58 201
58 521
58 435
58 214
58 207
58 123
58 577
58 398
58 541
58 79
58 559
58 598
58 708
58 849
58 859
58 913
58 670
58 906
58 594
58 341
58 828
58 539
58 511
58 199
58 939
58 134
58 660
58 96
58 106
58 766
58 842
58 349
58 994
58 997
58 655
58 784
58 311
59 721
59 530
59 577
59 290
59 939
59 297
59 212
59 547
59 319
59 542
59 518
59 133
59 391
59 992
59 345
59 696
59 550
59 366
60 688
60 326
60 100
60 865
60 650
60 796
60 735
60 766
60 994
60 790
60 399
60 549
60 436
60 237
60 595
60 121
60 646
60 140
60 278
60 888
60 892
60 975
60 511
60 261
60 97
61 143
61 174
61 521
61 289
61 85
61 219
61 711
61 352
61 334
61 267
61 200
61 331
61 850
61 733
61 735
61 118
61 208
61 441
61 983
61 510
61 857
61 798
61 211
62 525
62 724
62 482
62 253
62 952
62 738
62 615
62 501
62 338
62 342
62 108
62 795
62 929
62 265
62 143
62 961
62 490
62 576
62 435
62 977
62 810
62 706
62 919
62 856
62 758
62 271
62 794
62 729
62 578
62 872
62 937
62 964
62 927
62 400
62 827
62 720
62 917
62 613
62 817
62 824
62 174
62 293
62 178
62 745
62 969
62 754
62 854
62 682
62 722
62 823
62 124
62 593
62 716
62 779
62 995
62 323
62 431
62 430
62 514
62 151
62 359
62 587
62 367
62 915
62 102
62 565
62 782
62 70
62 321
62 799
62 188
62 548
62 455
62 225
62 732
62 461
62 735
62 216
62 339
62 667
62 299
62 634
62 947
62 403
62 979
62 263
62 607
62 158
62 688
62 914
62 460
62 417
62 475
62 230
62 665
62 335
62 560
62 832
63 165
63 667
63 173
63 681
63 255
63 959
63 285
63 783
63 540
63 930
63 179
63 296
63 953
63 266
63 962
63 372
63 616
63 66
63 890
63 768
63 881
63 194
63 292
63 247
63 107
63 477
63 595
63 600
63 121
63 180
63 888
63 892
63 975
63 511
63 373
64 531
64 981
64 612
64 630
64 564
64 965
64 992
64 641
64 263
64 137
64 663
64 177
64 494
64 493
64 254
65 174
65 688
65 668
65 726
65 425
65 868
65 517
65 537
65 829
65 693
65 903
65 513
65 711
65 740
65 967
65 648
65 685
65 930
65 560
65 566
65 640
66 969
66 893
66 942
66 564
66 883
66 280
66 614
66 189
66 616
66 403
66 826
66 940
66 223
66 608
66 580
66 315
66 80
66 728
66 781
66 302
66 99
66 218
66 792
66 930
66 75
66 90
66 106
66 119
66 126
66 766
66 842
66 343
66 349
66 368
66 994
66 995
66 229
66 455
66 978
66 888
66 86
66 857
66 393
66 875
67 589
67 604
67 361
67 708
67 284
67 291
67 547
67 297
67 200
67 80
67 212
67 630
67 190
67 867
67 839
67 105
67 552
67 981
67 875
67 734
67 988
67 385
67 379
67 77
67 70
67 590
67 270
67 790
67 848
67 104
67 586
67 675
68 253
68 544
68 424
68 874
68 719
68 215
68 811
68 134
68 760
68 721
68 405
68 351
68 532
68 781
68 846
68 478
68 188
68 420
68 204
68 221
68 289
68 695
68 657
68 715
68 125
68 370
68 434
68 299
68 700
68 863
68 262
68 129
68 902
68 565
68 399
68 925
68 298
68 826
68 663
68 197
68 569
68 676
68 690
68 182
68 734
68 318
68 835
68 425
68 761
68 406
68 992
68 388
68 536
68 933
69 454
69 167
69 778
69 82
69 111
69 159
69 475
69 267
69 656
69 946
69 820
69 962
69 264
69 483
69 735
69 230
69 367
69 229
70 914
70 521
70 676
70 755
70 189
70 995
70 403
70 787
70 436
70 349
70 830
70 604
70 193
70 222
70 305
70 529
70 75
70 96
70 614
70 105
70 343
70 368
70 994
70 710
70 992
70 586
70 538
71 754
71 664
71 676
71 936
71 998
71 585
71 809
71 905
71 267
71 656
71 946
71 331
71 527
71 477
71 962
71 119
71 157
71 178
71 871
71 567
71 218
71 724
71 807
71 716
71 733
71 735
71 83
71 609
71 909
71 892
71 918
71 815
72 919
72 482
72 771
72 876
72 934
72 986
72 807
72 616
72 751
72 277
72 557
72 652
72 96
72 599
72 286
72 94
72 171
72 211
73 961
73 482
73 726
73 625
73 291
73 547
73 939
73 184
73 957
73 144
73 983
73 873
73 370
73 740
73 605
73 630
73 360
73 416
73 235
73 448
73 975
73 481
74 936
74 868
74 198
74 946
74 602
74 450
74 687
74 867
74 780
74 299
74 411
74 586
74 689
74 718
74 248
74 294
74 418
75 810
75 125
75 326
75 993
75 894
75 579
75 436
75 403
75 883
75 826
75 616
75 842
75 980
75 564
75 614
75 759
75 423
75 238
75 349
75 994
75 189
75 119
75 83
75 126
75 580
75 766
75 787
75 440
75 406
75 96
75 106
75 172
75 995
75 500
75 175
75 606
75 90
75 751
75 343
75 764
75 105
75 940
75 368
75 377
75 419
75 561
75 643
75 710
75 620
75 143
75 892
75 775
75 552
75 323
75 859
75 770
75 461
75 184
75 147
75 334
75 517
75 681
75 568
75 348
75 347
75 197
75 209
75 254
75 885
75 193
75 668
75 98
75 602
75 801
75 920
75 511
75 177
76 715
76 755
76 252
76 537
76 747
76 851
76 564
76 579
76 751
76 995
76 223
76 970
76 368
76 436
76 980
76 121
76 973
76 522
76 512
76 254
76 203
76 98
76 474
76 573
76 899
76 338
76 371
76 602
76 90
76 106
76 842
76 985
76 994
76 997
76 483
76 844
76 763
76 595
76 950
77 165
77 811
77 425
77 113
77 796
77 789
77 547
77 588
77 291
77 290
77 184
77 426
77 922
77 284
77 80
77 824
77 613
77 821
77 866
77 892
77 877
77 755
77 85
77 847
77 670
77 296
78 794
78 854
78 771
78 741
78 232
78 753
78 284
78 291
78 547
78 939
78 184
78 957
78 446
78 630
78 709
78 965
78 87
78 121
78 646
78 484
78 663
78 177
79 937
79 224
79 740
79 305
79 291
79 826
79 698
79 448
79 323
79 320
79 408
79 220
79 948
79 939
79 844
79 512
79 627
79 604
79 764
79 94
79 718
79 248
79 298
79 306
79 857
79 923
79 429
80 342
80 215
80 326
80 421
80 513
80 515
80 575
80 939
80 184
80 404
80 658
80 630
80 833
80 495
80 780
80 136
80 503
81 516
81 869
81 369
81 846
81 125
81 442
81 719
81 394
81 767
81 469
81 600
81 195
81 144
81 188
81 204
81 726
81 734
81 252
81 257
81 289
81 811
81 813
81 835
81 425
81 979
81 753
81 90
81 368
81 655
81 680
82 293
82 524
82 728
82 577
82 967
82 276
82 942
82 831
82 489
82 346
82 821
82 297
82 250
82 903
82 111
82 639
82 681
82 753
82 756
82 255
82 334
82 378
82 392
82 475
82 270
82 848
82 935
82 455
82 101
82 586
82 260
83 803
83 981
83 352
83 552
83 564
83 368
83 500
83 343
83 826
83 614
83 126
83 406
83 580
83 751
83 980
83 686
83 941
83 616
83 175
83 606
83 830
83 223
83 183
83 339
83 579
83 440
83 766
83 242
83 639
83 530
83 653
83 542
83 587
83 298
83 387
83 528
83 772
83 649
83 497
83 651
83 271
83 730
83 84
83 450
83 96
83 106
83 842
83 994
83 997
83 371
83 229
83 120
83 231
83 763
83 595
83 892
83 930
83 259
83 818
83 493
84 919
84 102
84 744
84 622
84 378
84 436
84 833
84 450
84 592
84 703
84 930
84 422
84 107
84 581
84 130
84 599
84 790
84 427
84 498
84 299
84 344
84 620
84 561
84 839
85 522
85 769
85 514
85 654
85 413
85 329
85 489
85 513
85 742
85 553
85 923
85 331
85 748
85 692
85 744
85 881
85 569
85 841
85 426
85 599
85 508
85 590
85 396
85 269
85 739
86 795
86 520
86 842
86 151
86 427
86 112
86 642
86 345
86 559
86 122
86 227
86 376
86 237
86 650
86 94
86 675
87 143
87 668
87 673
87 597
87 741
87 232
87 480
87 847
87 297
87 630
87 940
87 354
87 269
87 533
87 156
87 330
87 388
87 978
87 852
87 867
87 390
87 495
87 130
87 376
87 236
87 112
87 350
87 357
87 220
87 878
87 596
87 120
87 535
87 862
87 667
87 352
87 705
87 778
87 492
87 255
87 228
87 676
87 392
87 285
87 620
87 884
87 528
87 968
87 931
87 509
87 367
87 917
87 199
87 774
87 132
87 725
87 763
87 286
87 481
87 689
87 556
88 823
88 182
88 204
88 289
88 848
88 496
88 437
88 696
88 486
88 680
88 943
88 398
88 303
88 209
88 267
88 260
88 426
88 516
88 907
88 220
88 766
88 94
88 161
88 675
88 689
88 298
88 323
88 996
88 875
89 419
89 742
89 865
89 572
89 636
89 843
89 737
89 904
89 621
89 679
89 635
89 919
89 604
89 552
89 468
89 450
89 838
89 651
89 666
89 685
89 286
89 345
89 372
89 930
90 265
90 755
90 967
90 184
90 558
90 579
90 602
90 250
90 940
90 606
90 995
90 243
90 864
90 215
90 623
90 386
90 524
90 780
90 713
90 378
90 698
90 96
90 119
90 766
90 343
90 368
90 270
90 935
90 236
90 299
90 345
90 298
90 263
91 316
91 400
91 435
91 425
91 654
91 761
91 753
91 905
91 801
91 120
91 163
91 888
91 586
91 160
91 351
91 997
91 144
91 607
91 415
91 675
91 689
91 718
91 298
91 857
91 996
92 516
92 520
92 402
92 202
92 877
92 635
92 567
92 159
92 812
92 863
92 475
92 203
92 319
92 815
92 708
92 907
92 225
92 503
92 620
92 366
92 634
93 754
93 919
93 583
93 142
93 195
93 736
93 809
93 931
93 297
93 656
93 946
93 820
93 438
93 733
93 118
93 349
93 675
93 295
93 387
93 568
94 927
94 523
94 681
94 452
94 176
94 790
94 714
94 285
94 298
94 459
94 913
94 593
94 838
94 689
94 928
94 774
94 897
94 309
94 152
94 418
94 560
94 428
94 408
94 437
94 295
94 996
94 181
94 924
94 974
94 103
94 375
94 661
94 445
94 678
94 194
94 900
94 393
94 559
94 566
94 107
94 114
94 362
94 544
94 579
94 493
94 852
94 128
94 933
94 795
94 922
94 473
94 901
94 119
94 829
94 514
94 496
94 946
94 754
94 115
94 920
94 957
94 595
94 197
94 674
94 675
94 718
94 323
94 857
94 538
95 525
95 734
95 575
95 473
95 604
95 753
95 814
95 980
95 935
95 156
95 685
95 299
95 586
95 305
95 116
95 675
95 718
95 248
95 294
95 723
95 243
96 419
96 289
96 835
96 351
96 654
96 708
96 782
96 809
96 884
96 861
96 349
96 172
96 814
96 250
96 105
96 985
96 614
96 608
96 106
96 602
96 579
96 423
96 759
96 468
96 969
96 416
96 720
96 437
96 604
96 890
96 502
96 746
96 326
96 976
96 123
96 267
96 353
96 297
96 724
96 132
96 196
96 842
96 368
96 994
96 710
96 600
97 657
97 221
97 874
97 522
97 887
97 789
97 168
97 301
97 404
97 412
97 330
97 180
97 260
97 798
97 542
97 701
97 507
97 912
97 300
97 464
97 333
97 398
97 715
97 189
97 879
97 255
97 132
97 391
97 949
97 987
97 325
98 520
98 524
98 117
98 133
98 233
98 249
98 421
98 778
98 529
98 534
98 228
98 315
98 102
98 952
98 180
98 744
98 514
98 800
98 501
98 636
98 515
98 266
98 491
98 827
98 882
98 135
98 505
98 352
98 488
98 814
98 829
98 888
98 122
98 674
99 719
99 562
99 480
99 868
99 247
99 624
99 812
99 751
99 842
99 543
99 557
99 457
99 208
99 592
99 725
99 599
99 483
99 390
99 121
99 162
99 285
99 226
100 795
100 257
100 228
100 597
100 433
100 575
100 981
100 341
100 213
100 480
100 868
100 623
100 102
100 222
100 124
100 947
100 101
100 815
100 620
100 254
101 148
101 158
101 856
101 741
101 341
101 303
101 842
101 603
101 862
101 120
101 290
101 291
101 260
101 806
101 956
101 382
101 295
101 114
102 520
102 778
102 524
102 562
102 819
102 529
102 876
102 249
102 432
102 802
102 421
102 534
102 591
102 133
102 218
102 315
102 893
102 667
102 402
102 233
102 304
102 226
102 937
102 141
102 420
102 803
102 829
102 781
102 558
102 195
102 533
102 588
102 307
102 350
102 882
102 505
102 494
102 847
102 412
102 116
102 261
102 987
103 525
103 927
103 935
103 330
103 892
103 559
103 586
103 810
103 329
103 116
103 696
103 193
103 248
103 418
103 996
104 835
104 882
104 530
104 931
104 946
104 985
104 655
104 601
104 956
104 730
104 975
104 310
104 180
104 643
104 179
104 828
104 138
104 333
104 595
104 193
104 230
104 369
104 720
104 229
104 513
104 284
104 900
104 239
104 277
104 396
104 619
104 621
104 646
104 648
104 140
104 286
104 296
104 888
104 448
104 481
104 510
104 511
105 795
105 134
105 204
105 394
105 569
105 580
105 602
105 183
105 223
105 766
105 614
105 764
105 452
105 616
105 995
105 842
105 751
105 814
105 343
105 280
105 985
105 238
105 861
105 406
105 172
105 826
105 136
105 670
105 305
105 237
105 536
105 778
105 932
105 641
105 543
105 689
105 962
105 827
105 931
105 196
105 325
105 853
105 621
105 405
105 119
105 126
105 801
105 349
105 994
105 997
105 901
105 975
105 481
105 153
105 385
105 631
106 425
106 858
106 731
106 334
106 606
106 608
106 564
106 764
106 172
106 861
106 766
106 368
106 970
106 940
106 814
106 994
106 842
106 991
106 343
106 787
106 238
106 980
106 409
106 985
106 997
106 941
106 500
106 801
106 883
106 349
106 826
106 686
106 250
106 126
106 423
106 624
106 317
106 191
106 828
106 890
106 113
106 170
106 544
106 569
106 688
106 993
106 788
106 778
106 998
106 160
106 743
106 670
106 566
106 395
106 706
106 567
106 754
106 155
106 509
106 823
106 740
106 640
106 314
106 892
106 930
107 795
107 351
107 575
107 471
107 880
107 653
107 637
107 639
107 681
107 851
107 853
107 386
107 884
107 389
107 334
107 863
107 736
107 791
107 552
107 860
107 708
107 779
107 447
107 840
107 841
107 519
107 626
107 624
107 546
107 353
107 492
107 948
107 567
107 747
107 921
107 475
107 807
107 145
107 413
107 311
107 164
107 870
107 988
107 675
107 822
107 502
107 522
107 263
107 742
107 652
107 435
107 813
107 448
107 344
107 192
107 141
107 955
107 994
107 849
107 972
107 801
107 889
107 810
107 749
107 753
107 782
107 305
107 847
107 392
107 931
107 784
107 901
107 180
107 333
107 560
107 900
107 924
107 640
107 641
108 607
108 919
108 952
108 754
108 434
108 158
108 977
108 525
108 419
108 817
108 427
108 240
108 276
108 877
108 712
108 193
108 174
108 738
108 795
108 827
108 961
108 454
108 460
108 755
108 425
108 244
108 537
108 492
108 826
108 346
108 994
108 543
108 130
108 388
108 857
109 807
109 230
109 935
109 885
109 643
109 140
109 503
109 325
109 114
109 453
109 832
109 385
109 366
109 136
109 251
109 422
109 610
109 730
109 313
109 858
109 339
109 891
109 379
109 662
109 219
109 703
109 795
109 399
109 741
109 670
109 700
109 405
109 243
110 615
110 729
110 271
110 182
110 793
110 315
110 505
110 470
110 558
110 946
110 716
110 733
110 735
110 481
110 620
110 243
111 519
111 475
111 622
111 948
111 847
111 626
111 424
111 912
111 537
111 332
111 397
111 624
111 639
111 681
111 708
111 749
111 753
111 884
111 378
111 392
111 446
111 339
111 368
111 997
111 542
112 738
112 942
112 269
112 533
112 330
112 603
112 120
112 953
112 241
112 147
112 362
112 885
112 763
112 286
112 152
112 683
113 754
113 544
113 874
113 520
113 522
113 537
113 574
113 711
113 727
113 865
113 618
113 632
113 330
113 131
113 845
113 149
113 996
113 765
114 977
114 252
114 825
114 326
114 513
114 546
114 708
114 334
114 184
114 200
114 587
114 149
114 675
114 260
114 556
114 815
114 225
114 610
114 602
114 130
114 967
114 448
114 343
114 760
114 936
114 243
114 631
115 823
115 927
115 490
115 618
115 494
115 539
115 583
115 971
115 275
115 373
115 983
115 757
115 639
115 708
115 198
115 749
115 753
115 782
115 796
115 863
115 208
115 710
115 646
116 824
116 589
116 275
116 202
116 753
116 414
116 587
116 602
116 317
116 661
116 332
116 320
116 323
116 897
116 387
116 486
116 194
116 398
116 678
116 913
116 259
116 256
116 250
116 499
116 768
116 488
116 537
116 769
116 550
116 209
116 686
116 791
116 787
116 179
116 180
116 196
116 517
116 268
116 675
116 689
116 691
116 718
116 248
116 857
116 900
116 538
116 815
117 720
117 204
117 478
117 524
117 591
117 882
117 556
117 296
117 332
117 133
117 505
117 475
117 203
117 750
117 620
118 827
118 770
118 548
118 946
118 820
118 504
118 587
118 558
118 947
118 267
118 237
118 367
118 850
118 572
118 855
118 246
118 905
118 735
118 462
118 477
118 704
118 656
118 184
118 469
118 832
118 203
118 940
118 746
118 197
118 624
118 902
118 363
118 383
118 722
118 275
118 757
118 502
118 554
118 185
118 692
118 286
118 448
119 715
119 835
119 315
119 752
119 656
119 183
119 830
119 608
119 997
119 883
119 861
119 346
119 686
119 766
119 498
119 165
119 989
119 512
119 713
119 334
119 672
119 965
119 384
119 983
119 569
119 357
119 424
119 751
119 842
119 349
119 368
119 985
119 994
119 995
119 510
120 607
120 969
120 289
120 979
120 244
120 199
120 603
120 862
120 596
120 269
120 533
120 410
120 236
120 390
120 563
120 348
120 156
120 357
120 376
120 867
120 350
120 624
120 470
120 305
120 562
120 186
120 696
120 944
120 896
120 936
120 339
120 142
120 422
120 580
120 811
120 953
120 878
120 763
120 648
120 707
121 287
121 673
121 188
121 681
121 595
121 601
121 619
121 286
121 707
121 973
121 554
121 843
121 904
121 258
121 888
121 472
121 975
121 692
121 299
121 496
121 216
121 138
121 953
121 179
121 285
121 499
121 283
121 600
121 792
121 335
121 648
121 971
121 131
121 266
121 333
121 646
121 163
121 363
121 540
121 345
121 859
121 963
121 578
121 145
121 896
121 935
121 908
121 189
121 126
121 217
121 225
121 939
121 997
121 294
121 431
121 289
121 309
121 885
121 380
121 367
121 456
121 187
121 652
121 137
121 566
121 459
121 389
121 174
121 678
121 685
121 930
121 511
121 240
122 615
122 827
122 221
122 778
122 650
122 386
122 475
122 267
122 127
122 603
122 140
122 660
122 913
122 355
122 265
122 223
122 458
122 697
122 196
122 489
122 372
122 529
122 161
122 675
122 696
122 718
122 248
122 298
122 765
123 158
123 927
123 673
123 903
123 652
123 708
123 392
123 766
123 867
123 376
123 595
123 600
123 131
123 888
123 930
123 975
123 511
123 689
123 718
123 629
124 607
124 919
124 532
124 755
124 936
124 506
124 711
124 475
124 549
124 510
124 696
124 556
124 815
124 832
124 225
124 631
125 785
125 516
125 589
125 715
125 869
125 170
125 713
125 519
125 134
125 144
125 658
125 664
125 668
125 719
125 252
125 257
125 318
125 351
125 417
125 281
125 378
125 392
125 995
125 147
125 162
125 296
125 975
125 248
126 434
126 779
126 841
126 378
126 386
126 579
126 602
126 995
126 189
126 842
126 587
126 678
126 358
126 862
126 476
126 770
126 366
126 464
126 299
126 794
126 751
126 766
126 368
126 229
126 401
126 978
126 659
126 671
126 481
126 559
126 954
127 719
127 779
127 277
127 208
127 282
127 312
127 485
127 645
127 693
127 141
127 264
127 308
127 185
127 128
127 848
127 710
127 687
127 829
127 935
127 401
127 647
127 168
127 684
127 186
127 324
127 965
127 455
127 920
127 844
127 487
127 703
127 130
127 958
127 622
127 154
127 905
127 482
127 767
127 516
127 347
127 285
127 688
127 717
127 714
127 421
127 517
127 923
127 655
127 772
127 270
127 821
127 328
127 396
127 399
127 926
127 427
127 441
127 542
128 188
128 773
128 351
128 478
128 574
128 208
128 757
128 636
128 185
128 509
128 176
128 907
128 710
128 645
128 401
128 180
128 578
128 736
128 811
128 620
128 514
128 758
128 537
128 746
128 266
128 587
128 495
128 698
128 203
128 772
128 270
128 790
128 399
128 404
128 412
128 926
128 935
128 427
128 498
128 481
129 607
129 329
129 976
129 622
129 851
129 709
129 892
129 136
129 325
129 302
129 636
129 327
129 453
129 686
129 799
129 332
129 152
129 644
129 263
129 137
130 745
130 144
130 726
130 811
130 442
130 506
130 716
130 735
130 147
130 955
130 879
130 305
130 749
130 652
130 156
130 978
130 862
130 231
130 857
130 415
131 786
131 465
131 524
131 858
131 147
131 748
131 555
131 595
131 600
131 619
131 621
131 932
131 975
131 899
131 497
131 589
131 194
131 139
131 444
131 723
131 646
131 162
131 286
131 296
131 859
131 892
131 930
131 675
131 391
131 663
132 531
132 762
132 753
132 378
132 995
132 457
132 670
132 168
132 301
132 324
132 427
132 260
132 467
132 798
132 311
132 640
132 538
132 911
132 542
132 683
132 155
132 210
132 397
132 273
132 145
132 938
132 240
132 701
132 391
132 923
132 150
132 910
132 346
132 854
132 399
132 327
132 841
132 490
132 870
132 162
132 941
132 877
132 236
132 856
132 852
132 617
132 298
132 496
132 304
132 953
132 805
132 515
132 903
132 794
132 804
132 949
132 211
132 620
133 758
133 419
133 222
133 523
133 524
133 522
133 591
133 882
133 896
133 217
133 421
133 893
133 507
133 218
133 439
133 402
133 802
133 325
133 255
133 470
133 573
133 359
133 945
133 391
133 651
133 810
133 313
133 337
133 870
133 940
133 186
133 514
133 717
133 581
133 334
133 997
133 636
133 168
133 901
133 595
133 375
133 240
134 342
134 589
134 204
134 813
134 465
134 676
134 690
134 835
134 516
134 982
134 668
134 222
134 394
134 382
134 673
134 252
134 803
134 958
134 846
134 968
134 442
134 289
134 864
134 395
134 224
134 760
134 773
134 874
134 721
134 369
134 793
134 771
134 544
134 726
134 521
134 326
134 903
134 257
134 466
134 895
134 686
134 889
134 205
134 290
134 518
134 661
134 434
134 588
134 863
134 261
134 378
134 447
134 357
134 180
134 236
134 178
134 960
134 999
134 475
134 404
134 753
134 570
134 163
134 221
134 734
134 811
134 886
134 417
134 979
134 514
134 321
134 986
134 708
134 710
134 554
134 674
134 631
135 706
135 460
135 520
135 524
135 522
135 562
135 591
135 882
135 802
135 212
135 514
135 502
135 433
135 841
135 429
135 574
135 957
135 483
135 687
135 324
135 603
135 960
135 298
135 620
135 415
136 754
136 490
136 851
136 368
136 997
136 592
136 899
136 954
136 251
136 225
136 631
136 815
136 890
136 526
136 944
136 254
136 201
136 545
136 411
136 197
136 329
136 498
136 454
136 765
136 381
137 435
137 144
137 858
137 546
137 662
137 138
137 586
137 503
137 644
137 263
137 822
137 451
137 902
137 177
137 933
137 274
137 797
137 663
137 431
137 313
137 528
137 302
137 875
137 908
137 788
137 430
137 512
137 261
137 940
137 683
137 421
137 962
137 722
137 368
137 322
137 377
137 866
137 446
137 680
137 455
137 156
137 802
137 429
137 628
137 811
137 325
138 690
138 222
138 370
138 769
138 916
138 545
138 552
138 931
138 498
138 601
138 621
138 754
138 846
138 740
138 806
138 676
138 750
138 546
138 140
138 685
138 299
138 845
138 892
138 930
138 511
139 576
139 914
139 793
139 524
139 522
139 562
139 315
139 882
139 922
139 675
139 973
139 833
139 402
139 432
139 233
139 879
139 650
139 700
139 306
139 775
140 144
140 473
140 392
140 733
140 994
140 646
140 601
140 619
140 960
140 333
140 496
140 510
140 792
140 971
140 411
140 836
140 659
140 730
140 780
140 335
140 258
140 707
140 783
140 643
140 216
140 179
140 310
140 600
140 671
140 651
140 286
140 541
140 299
140 660
140 642
140 319
140 540
140 656
140 788
140 866
140 280
140 900
140 877
140 826
140 152
140 911
140 512
140 942
140 238
140 821
140 269
140 721
140 521
140 699
140 909
140 141
140 425
140 314
140 171
140 612
140 214
140 456
140 175
140 713
140 888
140 892
140 930
140 511
140 565
140 683
141 589
141 257
141 522
141 468
141 475
141 995
141 625
141 687
141 710
141 790
141 324
141 396
141 399
141 404
141 412
141 935
141 427
141 441
141 533
141 885
142 228
142 567
142 624
142 863
142 255
142 812
142 626
142 584
142 268
142 605
142 731
142 749
142 851
142 880
142 378
142 392
142 475
142 790
142 541
142 888
142 311
143 576
143 607
143 174
143 342
143 724
143 738
143 917
143 525
143 178
143 794
143 703
143 810
143 720
143 490
143 827
143 482
143 952
143 374
143 435
143 460
143 823
143 454
143 682
143 856
143 961
143 434
143 338
143 927
143 937
143 316
143 754
143 271
143 817
143 824
143 148
143 785
143 287
143 400
143 419
143 600
143 719
143 267
143 984
143 757
143 818
143 540
143 851
143 771
143 950
143 972
143 259
143 250
143 806
143 310
143 243
143 202
143 404
143 978
143 687
143 169
143 993
143 268
143 884
143 987
143 218
143 355
143 489
143 706
143 745
143 795
143 919
143 442
143 650
143 753
143 801
143 826
143 203
144 544
144 589
144 424
144 786
144 695
144 793
144 337
144 760
144 721
144 420
144 803
144 326
144 221
144 395
144 394
144 405
144 351
144 835
144 382
144 182
144 224
144 903
144 874
144 318
144 521
144 719
144 289
144 442
144 417
144 456
144 734
144 968
144 690
144 356
144 657
144 958
144 465
144 215
144 516
144 658
144 165
144 425
144 982
144 811
144 676
144 936
144 478
144 204
144 458
144 846
144 864
144 979
144 726
144 845
144 913
144 202
144 593
144 878
144 972
144 254
144 549
144 725
144 566
144 535
144 539
144 261
144 281
144 489
144 908
144 279
144 260
144 956
144 457
144 363
144 399
144 278
144 674
144 777
144 509
144 603
144 645
144 995
144 992
144 694
144 659
144 798
144 619
144 293
144 170
144 813
144 825
144 886
144 514
144 341
144 624
144 404
144 410
144 559
144 298
145 676
145 726
145 382
145 639
145 967
145 751
145 821
145 441
145 978
145 261
145 536
145 311
145 391
145 949
145 211
145 240
145 484
146 690
146 318
146 632
146 851
146 548
146 636
146 589
146 335
146 629
146 777
146 715
146 203
146 790
146 901
146 396
146 399
146 912
146 926
146 427
146 441
146 949
146 243
147 817
147 435
147 964
147 482
147 544
147 726
147 803
147 986
147 378
147 614
147 833
147 277
147 697
147 595
147 387
147 206
147 830
147 732
147 744
147 959
147 457
147 599
147 684
147 935
147 181
148 615
148 688
148 578
148 513
148 693
148 262
148 230
148 720
148 758
148 817
148 919
148 927
148 454
148 460
148 589
148 518
148 622
148 284
148 710
148 427
148 509
148 496
148 560
149 615
149 817
149 825
149 654
149 475
149 367
149 354
149 270
149 455
149 511
149 586
149 307
149 311
149 362
149 675
149 689
149 718
149 294
149 298
149 418
150 668
150 690
150 895
150 392
150 343
150 450
150 888
150 393
150 261
150 542
150 829
150 949
150 211
150 620
151 695
151 881
151 681
151 736
151 884
151 477
151 557
151 457
151 636
151 655
151 497
151 943
151 204
151 372
151 698
151 710
151 790
151 901
151 404
151 926
151 441
151 992
151 498
152 322
152 539
152 749
152 957
152 543
152 396
152 412
152 603
152 235
152 430
152 499
152 781
152 801
152 980
152 639
152 812
152 808
152 248
152 857
152 260
153 979
153 982
153 522
153 881
153 711
153 569
153 653
153 782
153 905
153 821
153 441
153 511
153 586
153 689
153 538
153 311
153 899
153 227
153 923
153 261
153 211
153 463
153 571
153 282
153 411
153 506
153 572
153 912
153 959
153 700
153 858
153 158
153 977
153 634
153 842
153 834
153 949
153 987
154 188
154 825
154 518
154 652
154 530
154 531
154 873
154 934
154 331
154 214
154 321
154 876
154 168
154 545
154 575
154 981
154 341
154 986
154 633
154 470
154 884
154 438
154 888
154 511
154 536
155 454
155 242
155 580
155 599
155 906
155 427
155 551
155 273
155 340
155 562
155 303
155 851
155 313
155 497
155 948
155 349
156 222
156 681
156 736
156 831
156 452
156 360
156 926
156 269
156 533
156 535
156 330
156 410
156 779
156 797
156 737
156 936
156 329
156 276
156 337
156 564
156 667
156 603
156 867
156 163
157 817
157 881
157 234
157 840
157 212
157 701
157 544
157 673
157 859
157 290
157 547
157 426
157 184
157 446
157 718
157 210
158 613
158 482
158 754
158 178
158 964
158 919
158 872
158 265
158 501
158 682
158 615
158 810
158 977
158 490
158 745
158 817
158 854
158 827
158 435
158 218
158 450
158 776
158 849
158 734
158 637
158 519
158 275
158 942
158 264
158 571
158 515
158 160
158 690
158 715
158 318
158 425
158 981
158 624
158 681
158 670
158 270
158 859
158 262
159 585
159 639
159 650
159 807
159 573
159 577
159 779
159 187
159 414
159 382
159 529
159 472
159 749
159 753
159 777
159 782
159 796
159 809
159 334
159 884
159 378
159 381
159 616
159 427
159 992
159 296
159 319
160 653
160 704
160 655
160 595
160 600
160 316
160 997
160 982
160 163
160 685
160 713
160 216
160 345
160 888
160 448
160 481
160 298
160 723
161 361
161 656
161 848
161 619
161 648
161 398
161 287
161 595
161 880
161 579
161 252
161 749
161 675
161 696
161 193
161 248
161 323
161 900
161 418
162 607
162 824
162 380
162 746
162 776
162 993
162 891
162 368
162 600
162 621
162 333
162 783
162 960
162 642
162 685
162 180
162 601
162 542
162 712
162 910
162 525
162 724
162 587
162 455
162 667
162 623
162 305
162 409
162 892
162 930
162 950
162 975
162 675
162 556
163 961
163 639
163 475
163 540
163 496
163 962
163 685
163 595
163 730
163 692
163 411
163 285
163 932
163 707
163 975
163 950
163 363
163 555
163 438
163 476
163 903
163 208
163 395
163 696
163 308
163 657
163 202
163 581
163 216
163 372
163 888
163 511
164 214
164 442
164 864
164 405
164 356
164 417
164 721
164 551
164 574
164 977
164 787
164 778
164 676
164 167
164 188
164 715
164 755
164 318
164 835
164 351
164 886
164 425
164 520
164 184
164 324
164 920
164 455
164 857
164 225
164 644
165 589
165 657
165 658
165 420
165 958
165 224
165 365
165 379
165 965
165 676
165 167
165 726
165 221
165 257
165 351
165 442
165 982
165 413
165 575
165 757
165 707
165 586
165 675
166 722
166 745
166 544
166 979
166 361
166 753
166 789
166 284
166 547
166 264
166 366
166 703
166 308
166 712
166 306
166 966
166 630
166 608
166 441
166 509
166 619
166 481
166 949
167 460
167 668
167 676
167 544
167 382
167 673
167 715
167 695
167 658
167 721
167 516
167 369
167 815
167 234
167 286
167 279
167 561
167 703
167 824
167 328
167 365
167 734
167 786
167 351
167 417
167 425
167 522
167 868
167 537
167 622
167 637
167 753
167 985
167 994
167 821
167 549
167 643
167 685
167 586
167 691
167 629
168 271
168 275
168 196
168 636
168 662
168 472
168 210
168 216
168 698
168 710
168 270
168 396
168 404
168 412
168 935
168 685
168 692
169 224
169 936
169 802
169 380
169 471
169 519
169 681
169 731
169 492
169 883
169 340
169 994
169 538
169 910
169 642
169 807
169 305
169 851
169 863
169 378
169 392
169 475
169 588
169 267
169 647
169 285
169 955
169 815
169 890
170 961
170 221
170 771
170 505
170 639
170 681
170 756
170 841
170 472
170 723
170 903
170 936
170 857
170 403
170 933
170 749
170 753
170 334
170 847
170 851
170 863
170 884
170 392
170 475
170 995
170 376
170 595
170 180
170 430
170 586
170 415
171 370
171 865
171 184
171 957
171 655
171 699
171 790
171 410
171 718
171 921
171 888
171 225
171 949
171 610
171 243
172 305
172 826
172 339
172 840
172 465
172 981
172 466
172 852
172 849
172 766
172 842
172 343
172 349
172 368
172 994
172 995
172 920
172 502
172 806
173 517
173 679
173 488
173 865
173 891
173 362
173 632
173 207
173 494
173 537
173 762
173 348
173 908
173 603
173 629
173 703
173 422
173 200
173 297
173 711
173 584
173 740
173 361
173 618
173 884
173 192
173 655
173 270
173 314
173 427
173 909
173 960
173 511
173 398
174 607
174 271
174 460
174 287
174 872
174 374
174 482
174 952
174 722
174 995
174 214
174 237
174 700
174 523
174 889
174 511
174 853
174 178
174 754
174 817
174 823
174 342
174 919
174 419
174 435
174 454
174 421
174 877
174 392
174 297
174 608
174 349
174 498
174 179
174 897
174 955
174 503
175 214
175 811
175 825
175 425
175 522
175 654
175 587
175 564
175 602
175 533
175 965
175 751
175 368
175 980
175 994
175 995
175 710
175 992
175 621
175 299
175 930
175 923
175 211
175 385
176 803
176 835
176 893
176 518
176 649
176 655
176 498
176 926
176 983
176 950
176 519
176 984
176 624
176 698
176 710
176 772
176 784
176 790
176 324
176 404
176 412
176 935
176 441
176 455
176 992
176 481
176 689
176 553
177 293
177 929
177 188
177 880
177 184
177 704
177 346
177 349
177 450
177 644
177 415
177 806
177 313
177 875
177 254
177 663
177 568
177 797
177 561
177 431
177 908
177 774
177 464
177 936
177 876
177 252
177 336
177 531
177 885
177 468
177 869
177 689
177 692
177 382
177 854
177 768
178 682
178 729
178 207
178 524
178 269
178 387
178 903
178 745
178 754
178 795
178 342
178 856
178 914
178 919
178 419
178 454
178 460
178 591
178 322
178 213
178 441
178 180
178 892
178 323
178 240
179 607
179 927
179 981
179 820
179 196
179 609
179 541
179 601
179 646
179 671
179 685
179 197
179 832
179 348
179 596
179 374
179 701
179 180
179 296
179 372
179 975
179 510
180 182
180 591
180 292
180 636
180 563
180 595
180 600
180 646
180 666
180 496
180 551
180 286
180 975
180 258
180 448
180 671
180 472
180 792
180 411
180 601
180 285
180 335
180 713
180 531
180 988
180 794
180 312
180 506
180 265
180 944
180 488
180 574
180 492
180 502
180 470
180 586
180 845
180 888
180 892
180 481
180 415
181 766
181 508
181 603
181 570
181 559
181 675
181 689
181 691
181 951
181 849
181 433
181 496
181 898
181 409
181 698
181 193
181 718
181 248
181 298
181 857
181 418
181 723
182 589
182 668
182 417
182 215
182 544
182 356
182 982
182 874
182 676
182 912
182 548
182 925
182 913
182 740
182 188
182 715
182 204
182 726
182 257
182 289
182 318
182 835
182 337
182 351
182 424
182 652
182 281
182 404
182 498
182 987
183 781
183 741
183 475
183 946
183 614
183 423
183 995
183 686
183 516
183 495
183 885
183 517
183 907
183 302
183 833
183 227
183 751
183 766
183 801
183 842
183 349
183 368
183 535
183 601
183 845
183 892
183 975
183 696
184 521
184 337
184 752
184 624
184 789
184 284
184 291
184 327
184 200
184 297
184 922
184 190
184 957
184 939
184 588
184 547
184 283
184 707
184 277
184 217
184 963
184 763
184 738
184 601
184 199
184 630
184 751
184 790
184 844
184 399
184 857
185 690
185 222
185 963
185 638
185 662
185 844
185 989
185 925
185 498
185 412
185 647
185 282
185 804
185 672
185 965
185 710
185 645
185 186
185 972
185 411
185 783
185 934
185 252
185 294
185 345
185 648
185 438
185 398
185 466
185 535
185 358
185 203
185 270
185 790
185 821
185 360
185 901
185 396
185 404
185 427
185 441
185 992
185 689
186 676
186 835
186 351
186 334
186 190
186 636
186 655
186 747
186 592
186 272
186 601
186 706
186 710
186 270
186 790
186 821
186 324
186 906
186 926
186 441
186 780
186 930
186 248
186 375
187 224
187 257
187 213
187 539
187 577
187 953
187 655
187 195
187 234
187 756
187 782
187 809
187 305
187 884
187 392
187 901
187 455
187 862
187 601
187 973
187 298
187 323
187 923
188 419
188 544
188 668
188 690
188 719
188 478
188 771
188 734
188 864
188 206
188 803
188 222
188 589
188 755
188 382
188 214
188 326
188 395
188 394
188 351
188 715
188 443
188 813
188 799
188 658
188 846
188 356
188 252
188 521
188 835
188 825
188 221
188 619
188 426
188 235
188 650
188 732
188 354
188 377
188 402
188 974
188 466
188 268
188 682
188 877
188 608
188 636
188 256
188 787
188 708
188 191
188 845
188 883
188 318
188 417
188 413
188 392
188 483
188 698
188 203
188 376
188 960
188 496
188 924
188 987
189 919
189 961
189 318
189 705
189 230
189 602
189 887
189 239
189 370
189 751
189 368
189 452
189 994
189 997
189 670
189 949
189 385
190 706
190 824
190 927
190 289
190 341
190 517
190 789
190 957
190 280
190 657
190 453
190 630
190 867
190 892
190 975
190 629
191 715
191 802
191 228
191 514
191 879
191 624
191 625
191 639
191 746
191 827
191 354
191 749
191 305
191 863
191 392
191 942
191 995
191 601
191 510
191 987
191 225
192 490
192 275
192 728
192 361
192 567
192 305
192 884
192 368
192 557
192 959
192 225
192 903
192 377
192 687
192 681
192 196
192 208
192 599
192 815
192 631
193 682
193 813
193 424
193 520
193 402
193 341
193 762
193 764
193 772
193 600
193 285
193 559
193 586
193 689
193 566
193 428
193 393
193 818
193 201
193 918
193 718
193 487
193 640
193 935
193 571
193 817
193 614
193 947
193 638
193 652
193 684
193 585
193 837
193 469
193 451
193 616
193 294
193 944
194 793
194 903
194 873
194 632
194 624
194 782
194 319
194 675
194 371
194 818
194 323
194 857
194 900
194 996
194 536
195 755
195 585
195 624
195 681
195 770
195 386
195 567
195 626
195 276
195 779
195 614
195 517
195 346
195 794
195 986
195 806
195 927
195 558
195 921
195 475
195 291
195 203
195 550
196 613
196 434
196 715
196 326
196 874
196 424
196 198
196 557
196 700
196 959
196 833
196 457
196 695
196 824
196 781
196 319
196 490
196 767
196 951
196 208
196 599
196 784
196 878
196 987
197 265
197 524
197 868
197 506
197 711
197 584
197 851
197 616
197 368
197 557
197 457
197 208
197 599
197 347
197 496
197 996
197 629
197 701
198 794
198 454
198 881
198 480
198 858
198 894
198 585
198 627
198 942
198 727
198 427
198 275
198 795
198 749
198 807
198 733
198 926
198 689
198 691
198 309
198 225
199 703
199 720
199 515
199 518
199 652
199 433
199 728
199 767
199 506
199 241
199 464
199 273
199 397
199 452
199 265
199 568
199 867
199 908
199 594
199 341
199 213
199 473
199 480
199 868
199 352
199 281
199 733
199 649
199 685
199 372
199 888
199 818
199 857
199 385
199 366
200 919
200 382
200 468
200 519
200 789
200 284
200 547
200 939
200 957
200 966
200 918
200 852
200 569
200 492
200 493
200 950
200 472
200 923
200 723
200 788
201 817
201 318
201 757
201 687
201 693
201 330
201 555
201 345
201 559
201 586
201 675
201 689
201 991
202 769
202 654
202 329
202 244
202 916
202 468
202 963
202 219
202 741
202 742
202 597
202 908
202 938
202 435
202 463
202 270
202 889
202 872
202 879
202 865
202 762
202 990
202 718
202 620
203 874
203 858
203 242
203 716
203 980
203 710
203 491
203 487
203 340
203 427
203 693
203 636
203 772
203 829
203 288
203 989
203 485
203 314
203 312
203 282
203 672
203 404
203 590
203 699
203 804
203 821
203 662
203 972
203 264
203 920
203 709
203 898
203 983
203 748
203 790
203 844
203 424
203 690
203 243
203 310
203 900
203 316
203 516
203 450
203 931
203 249
203 951
203 849
203 371
203 696
203 214
203 476
203 346
203 345
203 813
203 527
203 795
203 306
203 324
203 901
203 412
203 935
203 498
203 974
204 690
204 424
204 657
204 664
204 958
204 337
204 425
204 773
204 471
204 393
204 711
204 422
204 513
204 654
204 734
204 289
204 318
204 835
204 351
204 442
204 520
204 993
204 361
204 863
204 826
204 349
204 396
204 404
204 651
204 671
204 278
204 960
204 586
204 857
204 987
204 225
205 607
205 917
205 460
205 837
205 777
205 789
205 284
205 291
205 547
205 939
205 922
205 630
205 957
205 689
205 740
205 894
205 541
205 537
205 831
205 501
205 665
205 412
205 992
205 595
205 511
205 298
205 857
206 525
206 544
206 589
206 676
206 690
206 935
206 310
206 218
206 534
206 214
206 257
206 289
206 318
206 835
206 351
206 417
206 442
206 228
206 571
206 321
206 992
206 603
206 541
206 216
206 372
206 211
207 835
207 768
207 711
207 494
207 279
207 584
207 484
207 228
207 506
207 771
207 357
207 425
207 604
207 993
207 358
207 267
207 208
207 427
207 992
207 862
207 663
208 454
208 581
208 922
208 557
208 959
208 457
208 599
208 866
208 697
208 700
208 483
208 609
208 508
208 371
208 757
208 543
208 355
208 833
208 988
208 725
208 372
208 908
208 804
208 689
208 228
208 225
208 911
208 497
208 802
208 429
208 783
208 592
208 857
208 538
209 706
209 318
209 577
209 770
209 796
209 334
209 946
209 645
209 847
209 909
209 718
209 293
209 713
209 270
209 790
209 821
209 396
209 912
209 412
209 926
209 935
209 427
209 455
209 992
209 643
209 536
210 919
210 329
210 681
210 564
210 602
210 448
210 260
210 949
210 211
210 355
210 634
210 987
211 927
211 952
211 947
211 595
211 713
211 536
211 391
211 949
211 307
211 923
211 938
211 397
211 899
211 911
211 723
211 493
211 629
211 226
211 542
211 808
211 987
211 798
211 775
211 640
211 538
211 945
211 273
211 910
211 954
211 467
211 227
211 815
211 350
211 944
211 547
211 356
211 768
211 335
211 958
211 916
211 868
211 902
211 675
211 333
211 789
211 271
211 994
211 507
211 334
211 513
211 436
211 434
211 860
211 998
211 556
212 690
212 213
212 582
212 753
212 255
212 931
212 284
212 297
212 446
212 294
212 630
212 487
212 975
212 510
212 641
213 607
213 786
213 518
213 530
213 241
213 575
213 531
213 652
213 433
213 545
213 473
213 981
213 868
213 873
213 776
213 633
213 934
213 744
213 635
213 762
213 393
213 238
213 394
213 264
213 941
213 754
213 327
213 736
213 295
213 358
213 524
213 224
213 889
213 646
213 782
213 334
213 378
213 462
213 710
213 430
213 550
213 805
214 668
214 673
214 715
214 903
214 275
214 852
214 725
214 755
214 811
214 813
214 318
214 326
214 886
214 976
214 392
214 436
214 985
214 535
214 900
214 815
215 720
215 668
215 690
215 719
215 417
215 442
215 677
215 331
215 423
215 499
215 233
215 755
215 803
215 813
215 318
215 835
215 424
215 863
215 492
215 821
215 416
215 225
216 402
216 341
216 891
216 915
216 602
216 343
216 541
216 600
216 646
216 411
216 310
216 666
216 962
216 651
216 950
216 333
216 256
216 856
216 227
216 637
216 482
216 631
216 985
216 745
216 597
216 355
216 565
216 859
216 481
216 818
216 418
216 974
216 538
217 817
217 520
217 523
217 304
217 562
217 882
217 819
217 583
217 680
217 466
217 871
217 368
217 807
217 334
217 884
217 608
217 481
217 243
218 516
218 668
218 520
218 524
218 522
218 562
218 882
218 402
218 575
218 624
218 305
218 588
218 630
218 399
218 551
218 621
218 372
218 975
218 261
219 803
219 382
219 425
219 514
219 654
219 916
219 513
219 834
219 877
219 440
219 760
219 961
219 897
219 423
219 685
219 741
219 742
219 879
219 881
219 790
219 926
219 441
219 619
219 646
219 259
220 914
220 337
220 868
220 891
220 847
220 548
220 388
220 603
220 479
220 684
220 648
220 873
220 945
220 995
220 448
220 231
220 878
220 323
220 949
221 607
221 521
221 589
221 676
221 690
221 958
221 786
221 982
221 424
221 420
221 405
221 369
221 443
221 781
221 719
221 658
221 816
221 791
221 613
221 711
221 735
221 632
221 681
221 618
221 472
221 855
221 464
221 421
221 734
221 793
221 318
221 835
221 351
221 305
221 498
221 714
221 345
221 956
222 525
222 589
222 715
222 719
222 734
222 442
222 726
222 903
222 405
222 755
222 695
222 465
222 381
222 722
222 548
222 368
222 245
222 747
222 431
222 257
222 318
222 835
222 326
222 351
222 886
222 458
222 979
222 863
222 942
222 970
222 995
222 324
222 651
222 319
222 411
222 975
222 674
223 516
223 896
223 439
223 879
223 272
223 623
223 681
223 579
223 580
223 935
223 236
223 410
223 263
223 840
223 773
223 751
223 980
223 892
223 899
224 589
224 676
224 690
224 719
224 527
224 289
224 811
224 825
224 318
224 835
224 351
224 417
224 936
224 478
224 735
224 472
224 675
225 810
225 982
225 562
225 981
225 585
225 639
225 994
225 912
225 892
225 472
225 536
225 556
225 944
225 610
225 484
225 832
225 344
225 373
225 281
225 282
225 525
225 577
225 651
225 253
225 259
225 302
225 769
225 701
225 863
225 269
225 243
225 631
225 474
226 835
226 756
226 942
226 547
226 399
226 536
226 538
226 987
226 468
226 610
227 435
227 726
227 318
227 329
227 865
227 740
227 998
227 368
227 978
227 600
227 646
227 260
227 899
227 949
227 806
228 703
228 253
228 813
228 524
228 522
228 591
228 882
228 402
228 523
228 505
228 432
228 249
228 315
228 529
228 677
228 380
228 570
228 369
228 865
228 880
228 272
228 409
228 398
228 838
228 622
228 994
228 231
228 930
228 900
228 391
228 788
228 765
229 754
229 562
229 733
229 842
229 698
229 455
229 308
229 301
229 288
229 498
229 992
229 323
229 243
229 481
229 536
229 270
229 790
229 821
229 324
229 360
229 396
229 404
229 412
229 926
229 427
229 451
229 875
230 435
230 454
230 326
230 577
230 946
230 572
230 735
230 331
230 947
230 246
230 462
230 656
230 483
230 562
230 620
230 343
230 281
230 945
230 743
230 801
230 436
230 533
230 669
230 718
231 823
231 289
231 334
231 801
231 997
231 390
231 269
231 603
231 376
231 350
231 867
231 878
231 415
231 712
231 685
231 834
231 576
231 510
231 610
231 818
231 763
231 666
231 538
232 421
232 654
232 837
232 322
232 597
232 512
232 489
232 513
232 717
232 881
232 712
232 245
232 877
232 244
232 535
232 706
232 354
232 482
232 604
232 625
232 509
232 910
232 879
232 384
232 362
232 617
232 630
232 656
232 238
232 710
232 264
232 298
232 306
232 497
233 318
233 522
233 562
233 882
233 402
233 421
233 520
233 802
233 431
233 883
233 602
233 462
233 636
233 757
233 300
233 952
233 546
233 609
233 594
233 346
233 901
233 396
233 596
233 319
233 243
234 720
234 351
234 624
234 948
234 447
234 695
234 344
234 590
234 511
234 310
234 807
234 305
234 863
234 378
234 957
234 665
234 240
235 534
235 741
235 624
235 346
235 450
235 784
235 790
235 603
235 862
235 867
235 392
235 468
235 363
235 868
235 957
235 763
235 689
235 262
236 734
236 425
236 520
236 626
236 708
236 281
236 946
236 452
236 638
236 710
236 603
236 862
236 652
236 987
236 995
236 256
236 640
236 360
236 885
236 595
237 803
237 835
237 417
237 837
237 623
237 381
237 527
237 656
237 946
237 733
237 999
237 546
237 636
237 274
237 557
237 511
237 556
237 484
238 734
238 677
238 581
238 884
238 921
238 606
238 240
238 545
238 928
238 384
238 751
238 766
238 801
238 842
238 368
238 980
238 994
238 995
238 404
238 601
239 817
239 585
239 623
239 860
239 378
239 477
239 687
239 301
239 559
239 586
239 674
239 689
239 718
239 298
239 857
239 974
239 996
240 745
240 400
240 886
240 863
240 710
240 533
240 600
240 718
240 536
240 538
240 949
240 723
240 397
240 467
240 273
240 938
240 665
240 518
240 618
240 586
240 959
240 283
240 613
240 561
240 393
241 786
241 432
241 575
241 981
241 341
241 986
241 868
241 669
241 801
241 961
241 584
241 921
241 862
241 565
241 631
242 419
242 435
242 721
242 244
242 623
242 749
242 492
242 720
242 710
242 665
242 756
242 255
242 796
242 807
242 809
242 334
242 863
242 884
242 967
242 339
242 997
242 878
242 286
242 974
243 919
243 676
243 257
243 351
243 895
243 906
243 600
243 646
243 956
243 987
243 556
243 344
243 526
243 453
243 611
243 890
243 815
243 422
243 502
243 944
243 832
243 429
243 251
243 377
243 633
243 798
243 471
243 979
243 647
243 995
243 718
243 382
243 277
243 279
243 753
243 897
243 780
243 403
243 737
243 954
244 795
244 589
244 799
244 811
244 835
244 769
244 654
244 705
244 322
244 468
244 741
244 879
244 245
244 321
244 699
244 874
244 582
244 581
244 710
244 686
244 464
244 993
244 433
244 632
244 392
244 967
244 396
244 310
244 415
245 424
245 505
245 512
245 654
245 881
245 490
245 776
245 977
245 631
245 545
245 341
245 362
245 585
245 747
245 863
245 368
245 557
245 599
245 710
245 912
245 965
245 596
245 845
245 930
245 493
246 961
246 575
246 756
246 386
246 905
246 656
246 548
246 946
246 850
246 735
246 445
246 691
246 786
246 315
246 368
246 689
246 248
246 663
246 415
246 800
247 729
247 421
247 537
247 574
247 711
247 584
247 858
247 479
247 865
247 998
247 361
247 618
247 904
247 720
247 762
247 582
247 880
247 267
247 396
247 404
247 412
247 323
247 620
248 688
248 823
248 919
248 690
248 734
248 522
248 623
248 381
248 670
248 772
248 935
248 559
248 675
248 718
248 661
248 974
248 680
248 418
248 838
248 565
248 295
248 818
248 750
248 320
248 398
248 593
248 294
248 689
248 309
248 387
248 375
248 428
248 774
248 259
248 861
248 414
248 392
248 499
248 871
248 427
248 791
248 519
248 848
248 777
248 562
248 840
248 614
248 715
248 491
248 902
248 961
248 708
248 830
248 612
248 780
248 789
248 992
248 435
248 714
248 857
248 561
249 589
249 520
249 778
249 523
249 524
249 522
249 529
249 304
249 876
249 882
249 402
249 667
249 746
249 753
249 284
249 985
249 725
249 684
249 710
249 965
249 909
249 783
249 950
249 415
250 927
250 257
250 591
250 837
250 517
250 966
250 580
250 614
250 784
250 637
250 757
250 842
250 343
250 349
250 368
250 995
250 997
250 396
250 975
250 418
250 610
250 797
251 265
251 668
251 690
251 835
251 417
251 277
251 697
251 693
251 920
251 427
251 992
251 320
251 857
251 385
251 815
251 832
251 325
251 561
251 474
252 544
252 690
252 726
252 734
252 813
252 719
252 382
252 369
252 835
252 698
252 649
252 538
252 994
252 410
252 862
252 747
252 501
252 289
252 351
252 602
252 368
252 906
252 920
252 286
252 345
252 859
253 525
253 578
253 607
253 706
253 720
253 745
253 810
253 314
253 487
253 591
253 265
253 823
253 827
253 460
253 531
253 851
253 906
253 859
253 309
253 631
253 634
253 765
254 342
254 919
254 786
254 846
254 524
254 573
254 749
254 753
254 884
254 985
254 270
254 263
254 663
254 415
254 800
254 644
254 875
254 431
254 765
254 568
254 902
254 339
254 470
254 605
254 594
254 921
254 349
254 397
254 879
254 865
254 353
254 473
254 604
254 904
254 968
254 895
254 827
254 471
254 665
255 318
255 896
255 633
255 569
255 585
255 623
255 639
255 681
255 708
255 753
255 779
255 853
255 756
255 807
255 583
255 637
255 812
255 809
255 353
255 915
255 841
255 840
255 731
255 519
255 303
255 791
255 871
255 469
255 300
255 281
255 582
255 449
255 617
255 521
255 394
255 457
255 607
255 834
255 467
255 536
255 936
255 904
255 566
255 424
255 544
255 559
255 574
255 740
255 525
255 865
255 699
255 395
255 662
255 772
255 782
255 334
255 851
255 863
255 392
255 995
255 543
255 390
255 410
255 296
255 319
255 924
256 512
256 976
256 622
256 681
256 757
256 649
256 689
256 691
256 718
256 857
257 724
257 823
257 460
257 668
257 676
257 734
257 869
257 864
257 465
257 516
257 874
257 982
257 726
257 318
257 793
257 417
257 351
257 695
257 903
257 760
257 382
257 356
257 544
257 781
257 664
257 442
257 936
257 846
257 673
257 425
257 719
257 631
257 697
257 505
257 965
257 871
257 533
257 694
257 764
257 259
257 490
257 578
257 924
257 956
257 665
257 670
257 398
257 581
257 890
257 913
257 289
257 813
257 835
257 424
257 865
257 766
257 595
257 586
257 391
257 923
258 668
258 351
258 520
258 305
258 343
258 427
258 600
258 969
258 299
258 481
258 511
258 311
258 683
259 351
259 654
259 358
259 450
259 636
259 645
259 965
259 570
259 930
259 956
259 586
259 674
259 675
259 689
259 872
259 658
259 466
259 375
259 910
259 987
259 274
260 919
260 426
260 656
260 696
260 391
260 273
260 550
260 307
260 723
260 640
260 466
260 311
260 493
260 938
260 469
260 572
260 847
260 785
260 296
260 604
260 964
260 711
260 416
260 828
260 615
260 994
260 536
260 949
260 987
260 366
260 451
261 265
261 482
261 524
261 711
261 352
261 519
261 782
261 851
261 378
261 687
261 309
261 311
261 493
261 938
261 923
261 595
261 702
261 263
261 896
261 404
261 370
261 962
261 314
261 981
261 624
261 538
261 542
261 723
261 805
262 607
262 919
262 734
262 351
262 999
262 976
262 922
262 930
262 774
262 987
262 552
262 739
262 287
262 526
262 815
262 503
263 525
263 745
263 939
263 595
263 451
263 806
263 765
263 788
263 822
263 302
263 933
263 641
263 431
263 875
263 949
263 690
263 350
263 368
263 655
263 419
263 786
263 270
263 602
263 519
263 623
263 783
263 411
263 399
263 415
263 568
264 289
264 803
264 863
264 733
264 684
264 710
264 693
264 925
264 758
264 478
264 705
264 978
264 278
264 969
264 994
264 678
264 899
264 790
264 848
264 901
264 396
264 912
264 404
264 926
264 427
264 441
264 992
264 498
264 600
264 692
264 675
264 393
264 974
264 808
265 607
265 706
265 729
265 722
265 342
265 738
265 854
265 400
265 754
265 340
265 301
265 281
265 422
265 639
265 384
265 795
265 287
265 817
265 823
265 454
265 460
265 695
265 749
265 809
265 851
265 766
265 718
265 385
266 795
266 734
266 524
266 562
266 575
266 894
266 809
266 853
266 863
266 392
266 592
266 878
266 540
266 601
266 685
266 845
266 892
266 975
266 510
266 511
266 542
267 903
267 358
267 895
267 905
267 735
267 504
267 548
267 733
267 820
267 850
267 572
267 786
267 456
267 463
267 779
267 676
267 999
267 566
267 656
267 946
267 412
267 499
268 914
268 927
268 419
268 719
268 343
268 445
268 906
268 955
268 918
268 604
268 860
268 599
268 750
269 688
269 591
269 618
269 636
269 885
269 357
269 535
269 862
269 909
269 390
269 350
269 410
269 816
269 348
269 388
269 289
269 604
269 861
269 753
269 755
269 680
269 953
269 928
269 932
269 518
269 433
269 455
269 474
269 792
269 533
269 603
269 867
269 763
269 286
270 863
270 378
270 957
270 995
270 636
270 655
270 670
270 772
270 693
270 965
270 396
270 404
270 784
270 288
270 487
270 709
270 687
270 901
270 748
270 282
270 308
270 399
270 416
270 491
270 401
270 301
270 314
270 441
270 829
270 848
270 485
270 590
270 992
270 444
270 360
270 920
270 412
270 340
270 710
270 844
270 970
270 946
270 334
270 755
270 545
270 333
270 630
270 976
270 538
270 752
270 852
270 813
270 390
270 276
270 313
270 876
270 975
270 539
270 896
270 382
270 731
270 725
270 467
270 790
270 935
270 427
270 960
270 798
271 706
271 729
271 754
271 785
271 738
271 872
271 824
271 400
271 937
271 620
271 379
271 922
271 303
271 311
271 817
271 919
271 434
271 868
271 361
271 392
271 291
271 733
271 686
271 842
271 821
271 595
271 631
271 644
272 490
272 362
272 727
272 574
272 865
272 745
272 835
272 461
272 648
272 679
272 711
272 358
272 361
272 632
272 894
272 851
272 966
272 360
272 621
272 586
272 857
273 525
273 589
273 813
273 746
273 777
273 871
273 475
273 988
273 909
273 524
273 546
273 923
273 949
273 987
274 668
274 690
274 289
274 281
274 852
274 659
274 520
274 442
274 372
274 810
275 607
275 529
275 712
275 963
275 717
275 742
275 916
275 879
275 322
275 585
275 503
275 409
275 650
275 880
275 437
275 646
275 705
275 837
275 348
275 511
275 675
275 815
276 351
276 728
276 574
276 639
276 753
276 782
276 711
276 807
276 809
276 334
276 475
276 327
276 319
276 669
276 675
277 754
277 442
277 769
277 650
277 305
277 354
277 374
277 339
277 370
277 727
277 568
277 833
277 457
277 592
277 599
277 912
278 591
278 882
278 740
278 829
278 563
278 541
278 600
278 642
278 685
278 555
278 904
278 499
278 971
278 890
278 757
278 693
278 469
278 597
278 414
278 738
278 491
278 753
278 448
278 496
278 560
278 696
278 857
279 919
279 454
279 781
279 803
279 968
279 379
279 384
279 711
279 841
279 713
279 625
279 745
279 532
279 332
279 954
279 823
279 574
279 584
279 479
279 865
279 761
279 759
279 343
279 636
279 643
279 610
280 745
280 835
280 356
280 747
280 841
280 880
280 381
280 438
280 602
280 608
280 455
280 613
280 891
280 842
280 349
280 368
280 994
280 997
280 536
280 701
281 516
281 711
281 546
281 552
281 585
281 749
281 753
281 921
281 300
281 812
281 625
281 480
281 608
281 781
281 611
281 602
281 809
281 305
281 334
281 847
281 851
281 884
281 378
281 789
281 790
281 692
281 559
281 933
282 337
282 522
282 439
282 694
282 863
282 656
282 636
282 655
282 710
282 917
282 344
282 821
282 935
282 427
282 992
282 498
282 390
282 885
282 586
282 815
283 882
283 705
283 530
283 537
283 618
283 947
283 814
283 901
283 455
283 533
283 541
283 595
283 648
283 685
283 713
283 286
283 299
283 845
283 859
283 892
283 481
284 594
284 998
284 628
284 588
284 966
284 327
284 930
284 423
284 306
284 730
284 700
284 654
284 766
284 895
284 291
284 547
284 957
284 630
284 452
284 543
284 713
284 718
285 717
285 747
285 396
285 912
285 763
285 595
285 648
285 756
285 353
285 470
285 479
285 675
285 372
285 892
285 481
285 511
285 949
286 433
286 761
286 563
286 885
286 541
286 601
286 621
286 713
286 554
286 643
286 666
286 430
286 730
286 956
286 845
286 932
286 472
286 836
286 651
286 600
286 780
286 962
286 692
286 843
286 372
286 642
286 659
286 671
286 365
286 786
286 373
286 463
286 702
286 526
286 304
286 620
286 914
286 341
286 458
286 944
286 462
286 938
286 414
286 829
286 964
286 912
286 319
286 888
286 930
286 950
286 448
286 481
286 510
286 723
287 525
287 607
287 613
287 706
287 754
287 795
287 454
287 441
287 733
287 841
287 475
287 751
287 984
287 817
287 824
287 342
287 914
287 419
287 435
287 734
287 605
287 296
288 374
288 435
288 668
288 982
288 735
288 349
288 636
288 638
288 655
288 790
288 821
288 829
288 396
288 404
288 920
288 412
288 427
288 441
288 455
288 992
288 541
288 780
288 296
288 973
289 525
289 374
289 482
289 532
289 668
289 755
289 760
289 369
289 356
289 443
289 936
289 326
289 424
289 793
289 903
289 425
289 465
289 521
289 719
289 958
289 382
289 673
289 786
289 478
289 799
289 690
289 409
289 379
289 444
289 646
289 332
289 965
289 766
289 319
289 296
289 637
289 470
289 522
289 355
289 724
289 631
289 625
289 694
289 803
289 813
289 835
289 337
289 886
289 359
289 942
289 772
289 821
289 648
289 372
289 888
289 550
289 806
290 521
290 894
290 884
290 386
290 360
290 505
290 737
290 474
290 704
290 547
290 957
290 630
290 842
290 725
290 328
290 805
291 607
291 690
291 793
291 942
291 789
291 966
291 630
291 588
291 426
291 813
291 968
291 307
291 914
291 296
291 982
291 361
291 371
291 939
291 327
291 504
291 994
291 655
291 671
292 729
292 454
292 934
292 639
292 414
292 851
292 617
292 948
292 809
292 853
292 731
292 389
292 505
292 920
292 439
292 455
292 720
292 366
292 884
292 392
292 475
292 614
292 349
292 693
292 404
292 412
292 498
293 525
293 578
293 607
293 615
293 745
293 795
293 419
293 724
293 460
293 866
293 532
293 696
293 921
293 769
293 823
293 342
293 914
293 919
293 927
293 434
293 435
293 979
293 743
293 488
293 853
293 860
293 804
293 675
293 373
294 773
294 489
294 519
294 863
294 339
294 457
294 560
294 586
294 674
294 689
294 718
294 375
294 955
294 680
294 387
294 838
294 317
294 913
294 559
294 497
294 870
294 393
294 612
294 634
294 449
294 456
294 844
294 978
294 975
294 919
294 458
294 508
294 848
294 952
294 353
294 605
294 650
294 940
294 775
294 726
294 380
294 737
294 912
294 298
294 857
294 974
294 949
295 356
295 980
295 592
295 655
295 586
295 689
295 757
295 636
295 819
295 364
295 818
295 857
295 526
296 937
296 719
296 868
296 842
296 404
296 595
296 660
296 692
296 642
296 845
296 555
296 448
296 619
296 685
296 836
296 707
296 299
296 541
296 892
296 792
296 621
296 950
296 971
296 424
296 813
296 341
296 298
296 544
296 786
296 439
296 346
296 425
296 952
296 542
296 305
296 388
296 376
296 345
296 930
296 975
296 511
296 408
296 418
297 789
297 426
297 953
297 319
297 570
297 957
297 327
297 630
297 339
297 940
297 541
297 610
298 522
298 321
298 884
298 314
298 412
298 689
298 691
298 718
298 678
298 428
298 586
298 486
298 951
298 774
298 418
298 918
298 943
298 437
298 818
298 306
298 398
298 320
298 309
298 683
298 642
298 602
298 585
298 805
298 467
298 430
298 580
298 711
298 777
298 409
298 859
298 305
298 307
298 857
299 927
299 322
299 749
299 753
299 378
299 436
299 595
299 600
299 621
299 642
299 685
299 319
299 971
299 511
299 549
299 973
299 859
299 648
299 692
299 932
299 956
299 619
299 728
299 593
299 809
299 576
299 841
299 901
299 688
299 672
299 964
299 738
299 556
299 935
299 406
299 902
299 334
299 345
299 448
299 481
299 750
300 384
300 519
300 624
300 653
300 681
300 749
300 753
300 430
300 378
300 735
300 848
300 330
300 900
300 832
301 690
301 417
301 558
301 820
301 349
301 636
301 672
301 790
301 450
301 795
301 683
301 945
301 324
301 926
301 935
301 441
301 498
301 603
301 675
302 515
302 574
302 727
302 779
302 807
302 647
302 671
302 714
302 815
302 800
302 561
303 856
303 786
303 562
303 622
303 753
303 782
303 569
303 517
303 823
303 724
303 429
303 773
303 334
303 851
303 863
303 884
303 967
303 330
303 320
303 996
304 520
304 524
304 432
304 507
304 562
304 529
304 778
304 772
304 773
304 390
304 733
304 460
304 861
304 591
304 882
304 851
304 646
304 565
304 675
304 857
304 701
305 460
305 979
305 402
305 622
305 639
305 809
305 449
305 736
305 863
305 627
305 389
305 753
305 807
305 583
305 650
305 895
305 860
305 931
305 779
305 990
305 948
305 708
305 573
305 617
305 378
305 880
305 749
305 353
305 625
305 967
305 942
305 841
305 702
305 414
305 921
305 731
305 851
305 623
305 519
305 796
305 381
305 831
305 375
305 706
305 945
305 520
305 669
305 616
305 902
305 319
305 906
305 629
305 473
305 429
305 679
305 923
305 597
305 893
305 472
305 451
305 788
305 781
305 421
305 638
305 346
305 646
305 435
305 647
305 564
305 368
305 355
306 755
306 636
306 878
306 586
306 674
306 689
306 870
306 387
306 913
306 996
306 696
306 669
306 900
306 499
306 699
306 551
306 760
306 828
306 463
306 783
306 751
306 845
306 602
306 505
306 323
306 857
306 375
306 418
307 886
307 863
307 942
307 922
307 892
307 984
307 536
307 538
307 949
307 987
307 631
308 512
308 717
308 879
308 751
308 649
308 655
308 698
308 772
308 446
308 464
308 382
308 782
308 821
308 324
308 360
308 901
308 396
308 399
308 404
308 412
308 441
308 992
308 600
308 713
308 888
309 654
309 489
309 618
309 708
309 665
309 901
309 973
309 586
309 718
309 857
309 497
309 559
309 766
309 328
309 431
309 942
309 585
309 959
309 924
309 974
309 385
309 561
309 451
310 720
310 419
310 734
310 747
310 378
310 600
310 396
310 578
310 680
310 583
310 768
310 892
310 448
310 975
310 481
310 511
310 974
310 311
311 835
311 936
311 986
311 976
311 399
311 648
311 536
311 683
311 550
311 938
311 899
311 467
311 397
311 946
311 810
311 539
311 476
311 430
311 713
311 873
311 483
311 639
311 337
311 586
311 504
311 923
311 949
311 723
311 987
311 385
311 644
312 624
312 334
312 655
312 790
312 821
312 679
312 566
312 788
312 626
312 977
312 324
312 498
313 919
313 668
313 351
313 527
313 959
313 481
313 641
313 800
313 806
314 454
314 351
314 623
314 331
314 638
314 748
314 772
314 790
314 779
314 515
314 724
314 396
314 399
314 912
314 401
314 404
314 412
314 926
314 935
314 441
314 498
314 666
314 418
315 342
315 589
315 755
315 799
315 835
315 524
315 520
315 879
315 334
315 942
315 876
315 882
315 370
315 402
315 505
315 740
315 779
315 988
315 992
315 603
316 525
316 576
316 607
316 729
316 951
316 692
316 675
316 919
316 424
316 562
316 744
316 847
316 946
316 710
316 829
316 498
316 411
316 857
316 503
317 872
317 318
317 464
317 880
317 392
317 978
317 642
317 511
317 586
317 674
317 675
317 696
317 718
317 805
317 839
318 544
318 668
318 676
318 369
318 771
318 516
318 846
318 532
318 405
318 936
318 773
318 719
318 478
318 835
318 825
318 356
318 813
318 382
318 874
318 811
318 395
318 394
318 803
318 690
318 721
318 799
318 781
318 755
318 982
318 760
318 420
318 886
318 864
318 326
318 337
318 903
318 786
318 417
318 589
318 525
318 353
318 628
318 754
318 335
318 743
318 795
318 916
318 413
318 605
318 459
318 829
318 700
318 341
318 950
318 767
318 406
318 882
318 867
318 520
318 355
318 703
318 511
318 810
318 641
318 634
318 527
318 574
318 766
318 441
318 600
318 892
319 501
319 886
319 979
319 341
319 334
319 541
319 600
319 619
319 646
319 345
319 828
319 601
319 730
319 472
319 372
319 999
319 397
319 667
319 941
319 822
319 384
319 982
319 447
319 892
319 950
319 481
319 496
319 511
319 559
319 415
320 589
320 458
320 524
320 623
320 842
320 406
320 511
320 586
320 669
320 691
320 718
320 818
320 425
320 885
320 887
320 857
321 937
321 524
321 514
321 654
321 769
321 963
321 952
321 461
321 861
321 597
321 879
321 681
321 777
321 814
321 396
321 926
321 621
321 930
322 917
322 521
322 882
322 654
322 468
322 769
322 718
322 596
322 937
322 661
322 851
322 924
322 620
322 822
323 525
323 613
323 881
323 547
323 404
323 675
323 718
323 428
323 387
323 951
323 565
323 918
323 696
323 559
323 739
323 674
323 418
323 445
323 486
323 372
323 649
323 327
323 507
323 647
323 687
323 847
323 552
323 374
323 386
323 621
323 803
323 997
324 734
324 523
324 524
324 628
324 749
324 378
324 710
324 821
324 491
324 498
324 925
324 912
324 662
324 670
324 684
324 992
324 859
324 799
324 656
324 620
324 681
324 822
324 536
324 405
324 447
324 979
324 539
324 617
324 985
324 818
324 901
324 396
324 401
324 404
324 412
324 935
324 441
324 511
324 675
325 435
325 952
325 460
325 886
325 597
325 656
325 404
325 689
325 900
325 556
325 526
325 344
325 487
325 384
325 734
325 578
325 603
325 420
325 866
325 633
326 544
326 589
326 668
326 726
326 755
326 811
326 835
326 773
326 874
326 958
326 695
326 760
326 781
326 846
326 516
326 864
326 532
326 521
326 383
326 698
326 847
326 342
326 437
326 754
326 950
326 492
326 426
326 884
326 886
326 424
326 518
326 753
326 378
326 592
326 404
326 563
326 560
326 857
327 711
327 957
327 630
327 922
327 468
327 848
327 725
327 904
327 903
327 801
327 888
327 663
328 636
328 710
328 790
328 821
328 829
328 670
328 662
328 654
328 958
328 728
328 371
328 368
328 747
328 939
328 412
328 441
328 992
328 498
329 706
329 724
329 514
329 654
329 413
329 705
329 468
329 877
329 741
329 717
329 513
329 605
329 834
329 769
329 712
329 336
329 801
329 796
329 394
329 584
329 839
329 445
329 803
329 363
329 723
329 621
329 563
329 879
329 331
329 980
329 710
329 935
329 888
329 956
329 800
330 817
330 825
330 764
330 801
330 360
330 495
330 410
330 563
330 533
330 364
330 535
330 390
330 852
330 862
330 436
330 501
330 730
330 617
330 838
330 781
330 504
330 978
330 603
330 651
331 688
331 937
331 460
331 879
331 548
331 905
331 656
331 757
331 486
331 714
331 811
331 885
331 887
331 516
331 888
331 733
331 367
331 621
331 659
331 481
332 719
332 341
332 622
332 547
332 842
332 985
332 636
332 710
332 685
332 950
332 689
332 718
333 810
333 603
333 541
333 595
333 646
333 719
333 888
333 892
333 930
333 448
333 975
333 815
334 936
334 425
334 421
334 624
334 807
334 863
334 895
334 915
334 871
334 567
334 539
334 681
334 884
334 650
334 847
334 880
334 623
334 777
334 809
334 449
334 736
334 381
334 702
334 747
334 625
334 851
334 389
334 386
334 378
334 887
334 447
334 791
334 392
334 460
334 456
334 761
334 365
334 943
334 930
334 636
334 537
334 729
334 578
334 554
334 917
334 861
334 986
334 721
334 958
334 957
334 347
334 439
334 475
334 438
334 842
334 396
334 481
334 565
334 629
334 945
335 356
335 993
335 541
335 621
335 714
335 430
335 533
335 655
335 900
335 536
335 733
335 345
335 892
335 930
335 448
335 975
336 872
336 668
336 479
336 362
336 980
336 543
336 557
336 743
336 568
336 599
336 636
337 817
337 521
337 690
337 719
337 786
337 811
337 825
337 835
337 664
337 781
337 382
337 903
337 589
337 982
337 874
337 968
337 668
337 544
337 532
337 657
337 673
337 760
337 721
337 979
337 643
337 452
337 763
337 699
337 459
337 612
337 686
337 632
337 446
337 385
337 996
337 574
337 730
337 505
337 543
337 751
337 434
337 834
337 997
337 901
337 441
337 373
337 415
338 706
338 754
338 817
338 827
338 919
338 572
338 593
338 368
338 893
338 702
338 399
338 927
338 435
338 454
338 460
338 667
338 849
338 354
338 638
338 647
338 862
338 845
338 559
338 586
339 382
339 756
339 602
339 766
339 842
339 751
339 778
339 687
339 360
339 368
339 436
339 997
339 427
340 720
340 454
340 825
340 479
340 681
340 392
340 636
340 647
340 698
340 710
340 790
340 447
340 911
340 394
340 396
340 912
340 404
340 926
340 427
340 441
340 992
340 533
340 410
340 595
340 640
340 815
341 795
341 719
341 417
341 402
341 605
341 518
341 433
341 575
341 986
341 515
341 635
341 767
341 464
341 744
341 648
341 725
341 467
341 636
341 951
341 724
341 473
341 851
341 992
341 818
341 805
341 641
342 607
342 706
342 720
342 817
342 823
342 758
342 827
342 952
342 969
342 854
342 400
342 810
342 454
342 791
342 524
342 710
342 609
342 405
342 480
342 466
342 741
342 531
342 801
342 940
342 727
342 919
342 961
342 562
342 514
342 537
342 527
342 579
342 346
342 535
342 621
342 696
342 818
342 610
342 502
343 872
343 584
343 976
343 378
343 547
343 579
343 608
343 842
343 861
343 940
343 346
343 991
343 564
343 830
343 994
343 751
343 766
343 764
343 500
343 352
343 703
343 514
343 833
343 974
343 793
343 434
343 479
343 497
343 719
343 384
343 399
343 552
343 758
343 892
343 436
343 995
343 997
343 757
343 360
343 535
343 621
343 430
343 496
344 419
344 369
344 573
344 731
344 757
344 710
344 441
344 570
344 411
344 815
344 943
344 713
344 633
344 591
344 503
344 373
345 715
345 882
345 636
345 698
345 714
345 713
345 621
345 642
345 904
345 363
345 499
345 971
345 962
345 666
345 844
345 809
345 571
345 755
345 565
345 477
345 771
345 994
345 562
345 918
345 888
345 892
345 930
345 430
345 857
346 425
346 476
346 768
346 564
346 579
346 602
346 606
346 801
346 842
346 949
346 794
346 373
346 702
346 349
346 994
346 748
346 790
346 920
346 642
346 648
346 474
347 668
347 394
347 940
347 557
347 599
347 725
347 969
347 957
347 348
347 756
347 417
347 449
347 819
347 609
347 483
347 404
347 600
347 536
347 629
348 442
348 604
348 820
348 427
348 992
348 388
348 563
348 814
348 689
348 962
348 763
348 393
349 927
349 460
349 417
349 865
349 547
349 602
349 616
349 970
349 751
349 614
349 606
349 997
349 830
349 665
349 980
349 787
349 801
349 995
349 883
349 733
349 939
349 405
349 860
349 428
349 472
349 661
349 853
349 948
349 628
349 420
349 484
349 368
349 907
349 892
349 987
350 607
350 817
350 969
350 653
350 378
350 504
350 427
350 533
350 978
350 603
350 862
350 763
350 601
350 646
350 560
350 565
350 634
351 676
351 690
351 719
351 755
351 803
351 825
351 835
351 369
351 395
351 664
351 773
351 874
351 425
351 544
351 734
351 394
351 532
351 668
351 405
351 356
351 478
351 695
351 382
351 420
351 846
351 760
351 673
351 958
351 657
351 443
351 781
351 793
351 593
351 590
351 710
351 861
351 626
351 387
351 682
351 961
351 992
351 448
351 468
351 674
351 423
351 396
351 649
351 479
351 892
351 850
351 859
351 823
351 948
351 716
351 595
351 643
351 641
352 525
352 846
352 537
352 711
352 584
352 488
352 984
352 740
352 361
352 702
352 475
352 685
352 780
352 448
352 493
353 952
353 460
353 482
353 690
353 891
353 583
353 617
353 749
353 753
353 756
353 807
353 847
353 671
353 478
353 704
353 396
353 427
353 992
353 723
354 964
354 803
354 891
354 708
354 599
354 870
354 741
354 376
354 566
354 644
355 706
355 400
355 384
355 993
355 583
355 580
355 842
355 980
355 557
355 599
355 521
355 983
355 636
355 412
355 862
355 975
355 696
356 657
356 658
356 715
356 719
356 726
356 813
356 835
356 712
356 850
356 739
356 747
356 765
356 424
356 425
356 686
356 992
356 498
356 601
356 448
356 418
357 882
357 468
357 531
357 997
357 710
357 390
357 533
357 563
357 978
357 603
357 763
357 499
357 559
357 586
357 696
357 701
357 902
358 835
358 380
358 574
358 581
358 711
358 768
358 761
358 865
358 628
358 965
358 811
358 772
358 921
358 779
358 617
358 361
358 632
358 762
358 939
358 396
358 404
358 601
359 664
359 690
359 421
359 512
359 654
359 773
359 477
359 811
359 896
359 719
359 489
359 752
359 639
359 749
359 884
359 609
359 603
359 586
359 974
359 701
359 631
360 636
360 710
360 427
360 401
360 687
360 972
360 662
360 503
360 723
360 565
360 477
360 899
360 901
360 396
360 412
360 441
360 498
360 859
360 429
361 435
361 537
361 711
361 584
361 865
361 740
361 998
361 574
361 762
361 679
361 470
361 976
361 858
361 365
361 393
361 413
361 855
361 595
361 570
361 628
361 626
361 638
361 901
361 643
361 685
361 611
362 937
362 799
362 743
362 711
362 584
362 976
362 479
362 865
362 630
362 363
362 770
362 762
362 697
362 992
362 372
362 955
363 658
363 811
363 886
363 417
363 425
363 710
363 533
363 648
363 859
363 372
363 975
363 481
363 620
364 724
364 726
364 681
364 749
364 863
364 450
364 638
364 935
364 388
364 603
364 520
364 763
364 621
364 643
364 950
365 795
365 952
365 881
365 384
365 768
365 711
365 584
365 858
365 479
365 740
365 618
365 980
365 997
365 636
365 560
365 691
365 774
365 375
365 987
366 754
366 664
366 537
366 385
366 556
366 610
366 832
366 815
366 555
366 418
366 407
366 576
366 919
366 676
366 689
367 779
367 905
367 656
367 946
367 438
367 572
367 735
367 716
367 977
367 960
367 451
367 599
367 431
367 812
367 878
367 689
367 718
367 949
368 607
368 512
368 712
368 597
368 740
368 617
368 564
368 665
368 751
368 842
368 883
368 500
368 580
368 608
368 997
368 406
368 759
368 941
368 985
368 826
368 861
368 980
368 970
368 994
368 991
368 614
368 787
368 995
368 669
368 880
368 622
368 454
368 627
368 453
368 808
368 557
368 553
368 743
368 659
368 954
368 688
368 623
368 651
368 413
368 791
368 650
368 875
368 519
368 503
368 630
368 935
368 984
368 474
369 729
369 374
369 668
369 690
369 825
369 816
369 886
369 537
369 762
369 840
369 850
369 691
370 778
370 524
370 562
370 882
370 523
370 911
370 514
370 898
370 402
370 667
370 505
370 705
370 464
370 527
370 965
370 595
371 473
371 475
371 766
371 557
371 833
371 592
371 725
371 599
371 588
371 712
371 721
371 640
371 871
371 790
371 595
371 648
371 675
371 765
372 419
372 584
372 519
372 580
372 830
372 698
372 541
372 600
372 646
372 713
372 510
372 971
372 642
372 540
372 730
372 601
372 962
372 671
372 925
372 583
372 947
372 716
372 606
372 861
372 387
372 563
372 946
372 670
372 961
372 430
372 975
372 559
372 385
373 929
373 625
373 636
373 388
373 526
373 556
373 620
373 634
373 994
373 772
373 912
373 813
373 522
373 602
373 567
374 615
374 720
374 745
374 754
374 823
374 582
374 884
374 411
374 919
374 524
374 418
375 607
375 740
375 632
375 782
375 842
375 697
375 619
375 559
375 669
375 691
375 818
375 857
375 565
375 428
375 913
375 398
375 816
375 690
375 869
375 658
375 947
375 793
375 536
375 557
375 513
375 768
375 645
375 924
375 418
375 923
375 949
376 522
376 388
376 603
376 447
376 577
376 448
376 763
376 910
376 556
377 727
377 618
377 681
377 850
377 826
377 649
377 772
377 427
377 965
377 600
377 815
378 613
378 456
378 518
378 711
378 583
378 639
378 749
378 753
378 777
378 841
378 851
378 381
378 871
378 860
378 681
378 569
378 627
378 831
378 573
378 625
378 623
378 702
378 650
378 637
378 840
378 812
378 447
378 880
378 624
378 895
378 967
378 582
378 782
378 887
378 449
378 893
378 601
378 512
378 848
378 565
378 520
378 721
378 872
378 951
378 805
378 629
378 894
378 549
378 987
378 609
378 547
378 984
378 393
378 704
378 541
378 828
378 689
378 542
379 823
379 929
379 454
379 755
379 652
379 480
379 868
379 720
379 865
379 857
380 760
380 524
380 522
380 529
380 591
380 882
380 408
380 935
380 402
380 505
380 858
380 753
380 735
380 687
381 734
381 705
381 998
381 583
381 681
381 702
381 749
381 863
381 884
381 880
381 626
381 567
381 539
381 708
381 779
381 449
381 520
381 470
381 432
381 776
381 591
381 857
381 612
381 619
381 578
381 390
381 509
381 392
381 614
381 830
381 452
381 709
381 912
381 497
382 544
382 668
382 673
382 676
382 726
382 811
382 808
382 971
382 688
382 769
382 858
382 702
382 987
382 568
383 720
383 721
383 523
383 624
383 735
383 959
383 457
383 415
383 872
383 750
383 441
384 827
384 993
384 740
384 894
384 976
384 584
384 628
384 559
384 829
384 465
384 711
384 858
384 479
384 632
384 639
384 807
384 878
384 669
384 675
385 519
385 655
385 992
385 763
385 448
385 422
385 484
385 556
385 815
385 832
385 611
385 610
385 453
385 503
385 896
385 978
385 771
385 967
385 731
385 665
385 738
386 676
386 478
386 488
386 519
386 681
386 851
386 863
386 807
386 990
386 476
386 772
386 804
386 654
386 392
386 602
386 619
386 888
386 451
387 882
387 586
387 857
387 974
388 738
388 673
388 591
388 396
388 978
388 816
388 769
388 889
388 631
388 540
388 815
388 603
388 763
388 651
388 975
389 562
389 879
389 515
389 617
389 622
389 624
389 639
389 708
389 753
389 796
389 851
389 475
389 511
389 586
389 398
389 542
390 778
390 579
390 401
390 455
390 596
390 816
390 410
390 878
390 822
390 683
390 477
390 918
390 692
390 994
390 603
390 763
390 411
390 930
390 502
391 810
391 424
391 681
391 851
391 843
391 536
391 542
391 467
391 538
391 899
391 987
391 608
391 839
391 734
391 959
391 752
391 862
391 941
391 793
391 949
392 745
392 711
392 470
392 519
392 585
392 623
392 731
392 749
392 753
392 863
392 449
392 539
392 942
392 492
392 639
392 990
392 756
392 782
392 546
392 414
392 851
392 777
392 475
392 791
392 880
392 569
392 702
392 447
392 708
392 552
392 895
392 694
392 567
392 574
392 919
392 820
392 473
392 700
392 517
392 935
392 978
392 496
392 497
392 631
392 891
392 420
392 733
392 980
392 547
392 589
392 876
392 894
392 712
392 498
392 774
393 695
393 766
393 557
393 636
393 892
393 559
393 675
393 689
393 718
393 857
393 840
393 820
393 770
393 859
393 563
393 444
393 454
394 589
394 668
394 719
394 755
394 649
394 965
394 900
394 945
395 706
395 754
395 589
395 690
395 734
395 793
395 803
395 835
395 886
395 837
395 694
395 840
395 930
395 493
396 532
396 589
396 882
396 946
396 636
396 790
396 491
396 901
396 989
396 455
396 898
396 399
396 772
396 427
396 965
396 509
396 684
396 416
396 672
396 401
396 670
396 412
396 821
396 590
396 804
396 907
396 485
396 687
396 441
396 906
396 645
396 633
396 403
396 811
396 807
396 730
396 856
396 916
396 523
396 434
396 719
396 614
396 879
396 557
396 840
396 488
396 456
396 447
396 598
396 494
396 920
396 498
397 785
397 969
397 589
397 572
397 662
397 404
397 595
397 857
397 418
397 536
397 949
397 415
398 633
398 935
398 600
398 696
398 818
398 491
398 784
398 418
398 542
398 949
399 417
399 458
399 708
399 853
399 492
399 590
399 655
399 710
399 790
399 647
399 972
399 925
399 748
399 455
399 491
399 804
399 772
399 935
399 965
399 416
399 487
399 485
399 910
399 454
399 856
399 468
399 864
399 828
399 446
399 870
399 879
399 758
399 528
399 642
399 499
399 988
399 786
399 580
399 950
399 650
399 412
399 441
399 924
399 822
400 525
400 703
400 706
400 810
400 817
400 823
400 936
400 803
400 962
400 919
400 927
400 460
400 847
400 665
400 710
400 498
400 642
400 818
401 507
401 762
401 436
401 710
401 912
401 687
401 793
401 841
401 594
401 632
401 950
401 561
401 661
401 404
401 441
401 455
401 992
401 498
401 648
401 996
401 899
401 631
402 724
402 872
402 869
402 520
402 524
402 522
402 562
402 882
402 819
402 667
402 746
402 876
402 677
402 534
402 910
402 537
402 779
402 462
402 877
402 709
402 735
402 408
402 936
402 652
402 759
402 801
402 610
403 458
403 505
403 612
403 967
403 602
403 766
403 842
403 994
403 995
403 997
403 659
403 685
403 707
403 496
404 793
404 562
404 851
404 662
404 687
404 698
404 901
404 992
404 672
404 693
404 748
404 638
404 412
404 772
404 498
404 848
404 989
404 906
404 844
404 487
404 898
404 821
404 710
404 920
404 670
404 709
404 804
404 618
404 808
404 846
404 575
404 445
404 526
404 456
404 937
404 540
404 839
404 727
404 945
404 743
404 978
404 788
404 605
404 796
404 956
404 926
404 441
404 511
405 668
405 690
405 734
405 755
405 811
405 886
405 742
405 948
405 543
405 936
405 458
405 819
405 473
405 527
405 710
405 659
405 481
405 765
406 827
406 524
406 506
406 479
406 539
406 614
406 992
406 739
406 690
406 615
406 795
406 995
406 997
406 839
407 465
407 768
407 740
407 577
407 779
407 942
407 614
407 450
407 636
407 790
407 901
407 763
407 975
407 586
407 675
407 696
407 718
408 607
408 589
408 896
408 505
408 583
408 656
408 687
408 790
408 901
408 878
408 950
408 586
408 689
408 718
408 857
408 544
408 582
408 641
409 454
409 835
409 574
409 756
409 884
409 602
409 608
409 751
409 842
409 996
409 542
410 986
410 711
410 612
410 751
410 995
410 926
410 816
410 694
410 774
410 565
410 959
410 603
410 862
410 867
411 810
411 434
411 734
411 813
411 573
411 751
411 980
411 555
411 600
411 713
411 859
411 888
411 662
411 825
411 674
411 900
411 958
411 509
411 950
411 975
411 481
411 511
411 718
411 996
411 949
412 727
412 655
412 772
412 821
412 455
412 649
412 925
412 901
412 687
412 698
412 416
412 684
412 965
412 662
412 748
412 804
412 427
412 906
412 972
412 848
412 907
412 647
412 710
412 638
412 784
412 920
412 498
412 491
412 709
412 935
412 636
412 509
412 844
412 670
412 898
412 444
412 533
412 626
412 936
412 744
412 827
412 803
412 793
412 722
412 756
412 802
412 956
412 905
412 471
412 458
412 932
412 761
412 853
412 767
412 570
412 838
412 997
412 448
412 950
412 675
412 588
412 449
412 819
412 596
412 862
412 600
412 714
412 496
412 499
412 949
412 944
413 810
413 769
413 654
413 881
413 835
413 562
413 930
413 742
413 998
413 753
413 751
413 994
413 901
413 763
413 595
413 586
414 583
414 585
414 623
414 681
414 702
414 863
414 880
414 884
414 759
414 903
414 579
414 475
414 602
414 926
414 559
414 955
415 434
415 544
415 715
415 773
415 994
415 696
415 857
415 641
415 644
415 561
415 553
415 933
415 875
415 598
415 765
415 663
415 463
415 788
415 528
415 431
415 678
415 487
415 676
415 456
415 917
415 799
415 564
415 989
415 672
416 837
416 880
416 636
416 655
416 687
416 710
416 790
416 926
416 997
416 797
416 495
416 489
416 453
416 427
416 992
416 601
416 845
416 611
417 501
417 715
417 719
417 734
417 825
417 835
417 869
417 803
417 936
417 864
417 465
417 813
417 456
417 771
417 799
417 726
417 544
417 664
417 690
417 793
417 755
417 571
417 872
417 852
417 891
417 546
417 975
417 432
417 649
417 969
417 450
417 998
417 920
417 896
417 921
417 733
417 457
417 710
417 427
417 685
418 825
418 874
418 934
418 624
418 731
418 475
418 674
418 675
418 689
418 718
418 857
418 459
418 566
418 680
418 996
418 428
418 593
418 984
418 565
418 497
418 818
418 445
418 661
418 774
418 929
418 783
418 684
418 595
418 662
418 656
418 450
418 873
418 465
418 507
418 851
418 830
418 961
418 793
418 630
418 886
418 904
418 795
418 568
419 525
419 706
419 720
419 810
419 817
419 824
419 914
419 919
419 929
419 607
419 460
419 724
419 454
419 854
419 927
419 738
419 794
419 722
419 754
419 785
419 434
419 688
419 758
419 578
419 967
419 517
419 859
419 487
419 998
419 771
419 786
419 448
419 747
419 816
419 858
419 789
419 435
419 589
419 518
419 537
419 782
419 510
420 521
420 589
420 657
420 668
420 676
420 734
420 755
420 425
420 524
420 654
420 455
420 586
421 695
421 520
421 524
421 522
421 562
421 591
421 882
421 871
421 717
421 664
421 967
422 905
422 901
422 559
422 857
422 573
422 895
422 815
422 631
422 797
423 612
423 585
423 842
423 444
423 994
423 997
423 474
423 875
424 454
424 532
424 544
424 589
424 676
424 690
424 715
424 719
424 734
424 755
424 803
424 811
424 835
424 903
424 813
424 968
424 673
424 695
424 781
424 425
424 658
424 864
424 847
424 683
424 718
424 572
424 917
424 520
424 660
424 624
424 682
424 539
424 547
424 621
424 470
424 619
424 662
424 687
424 442
424 476
424 851
424 559
424 723
425 706
425 521
425 589
425 734
425 755
425 813
425 825
425 886
425 668
425 690
425 673
425 958
425 478
425 864
425 715
425 664
425 676
425 781
425 544
425 694
425 915
425 463
425 822
425 937
425 553
425 980
425 603
425 677
425 740
425 979
425 548
425 941
425 457
425 857
425 984
426 703
426 547
426 966
426 630
426 503
426 720
426 675
426 465
426 939
426 957
426 579
426 842
426 935
426 978
426 845
426 815
427 434
427 778
427 652
427 612
427 585
427 622
427 452
427 636
427 655
427 710
427 821
427 901
427 926
427 935
427 989
427 992
427 790
427 455
427 972
427 829
427 645
427 670
427 748
427 509
427 912
427 487
427 590
427 672
427 693
427 699
427 709
427 898
427 844
427 684
427 920
427 498
427 491
427 848
427 444
427 865
427 459
427 728
427 973
427 469
427 945
427 835
427 893
427 580
427 558
427 930
427 711
427 443
427 681
427 637
427 855
427 952
427 544
427 542
427 654
427 667
427 470
427 674
427 862
427 955
428 706
428 982
428 562
428 768
428 475
428 926
428 586
428 675
428 718
428 857
428 497
428 797
429 803
429 505
429 546
429 980
429 725
429 493
429 556
429 472
429 557
429 504
429 503
429 620
430 927
430 454
430 575
430 749
430 753
430 887
430 541
430 600
430 646
430 714
430 892
430 836
430 946
430 507
430 464
430 614
430 811
430 981
430 656
430 545
430 975
431 793
431 936
431 513
431 635
431 713
431 950
431 598
432 758
432 817
432 524
432 882
432 667
432 802
432 809
432 883
432 961
432 668
432 696
432 747
432 814
432 609
432 670
432 693
432 533
432 671
432 451
433 434
433 690
433 776
433 531
433 545
433 986
433 464
433 518
433 594
433 476
433 575
433 767
433 652
433 651
433 919
433 445
433 477
433 667
433 507
433 941
433 582
433 489
433 631
433 981
433 473
433 873
433 602
433 842
434 576
434 607
434 706
434 720
434 795
434 919
434 454
434 639
434 717
434 932
434 521
434 435
434 882
434 624
434 656
434 716
434 559
434 620
435 754
435 827
435 856
435 914
435 919
435 794
435 576
435 578
435 745
435 615
435 688
435 722
435 937
435 961
435 460
435 758
435 501
435 800
435 621
435 666
435 726
435 730
435 453
435 529
435 878
435 454
435 673
435 520
435 997
435 888
435 956
435 568
436 937
436 524
436 534
436 842
436 452
436 440
436 941
436 608
436 579
436 940
436 631
436 525
436 489
436 521
436 699
436 994
436 995
436 636
436 441
437 813
437 865
437 586
437 675
437 689
437 718
437 996
437 949
437 644
438 961
438 734
438 681
438 731
438 990
438 946
438 820
438 527
438 733
438 661
438 801
438 795
438 646
438 716
438 710
438 973
438 640
438 822
439 458
439 524
439 522
439 802
439 562
439 882
439 449
439 858
439 614
439 664
439 646
440 734
440 769
440 762
440 564
440 614
440 665
440 842
440 960
440 994
440 995
440 926
440 992
440 448
440 502
441 573
441 527
441 820
441 452
441 995
441 757
441 710
441 821
441 901
441 926
441 662
441 925
441 790
441 848
441 684
441 844
441 709
441 907
441 487
441 636
441 590
441 965
441 972
441 645
441 670
441 491
441 898
441 920
441 485
441 638
441 647
441 498
441 699
441 810
441 806
441 585
441 637
441 496
441 476
441 723
441 832
441 529
441 622
441 828
441 885
441 921
441 525
441 770
441 777
441 945
441 681
441 586
441 609
441 520
441 979
441 916
441 951
441 502
441 659
441 615
441 480
441 549
441 595
441 526
442 544
442 589
442 668
442 715
442 803
442 886
442 664
442 793
442 465
442 521
442 957
442 967
442 444
442 571
442 654
442 888
442 871
442 961
442 775
442 580
442 772
442 992
442 642
443 817
443 544
443 589
443 715
443 726
443 734
443 936
443 514
443 963
443 546
443 850
443 842
443 790
443 603
443 648
443 651
443 857
444 607
444 745
444 914
444 589
444 654
444 891
444 851
444 687
444 710
444 790
444 901
444 912
444 920
444 926
444 992
444 723
445 458
445 744
445 860
445 887
445 892
445 559
445 675
445 689
445 718
446 827
446 454
446 762
446 653
446 939
446 957
446 733
446 498
446 487
446 825
446 982
446 966
446 975
446 974
446 503
446 568
447 544
447 512
447 617
447 622
447 624
447 681
447 702
447 747
447 753
447 809
447 847
447 863
447 884
447 475
447 935
447 553
448 753
448 564
448 665
448 592
448 901
448 541
448 595
448 621
448 953
448 707
448 892
448 962
448 648
448 828
448 714
448 973
448 551
448 671
448 510
448 950
448 540
448 971
448 723
448 571
448 945
448 814
448 673
448 871
448 497
448 591
448 712
448 585
448 775
448 852
448 987
448 534
448 874
449 919
449 802
449 632
449 519
449 585
449 624
449 623
449 639
449 753
449 807
449 863
449 475
449 826
449 687
449 965
450 817
450 489
450 573
450 557
450 508
450 592
450 609
450 866
450 528
450 981
450 613
450 599
450 549
450 648
450 888
450 892
450 586
451 969
451 668
451 886
451 575
451 865
451 901
451 763
451 892
451 774
451 818
451 832
451 984
451 525
451 474
452 706
452 881
452 652
452 851
452 469
452 789
452 602
452 842
452 579
452 564
452 500
452 764
452 766
452 713
452 912
452 666
452 540
452 977
452 980
452 995
452 603
452 566
453 456
453 609
453 483
453 555
453 481
453 996
453 556
453 815
453 620
454 607
454 706
454 724
454 754
454 810
454 817
454 823
454 824
454 827
454 914
454 927
454 929
454 856
454 501
454 872
454 745
454 969
454 952
454 682
454 615
454 490
454 613
454 576
454 729
454 578
454 525
454 482
454 785
454 542
454 708
454 913
454 669
454 945
454 994
454 759
454 468
454 572
454 608
454 587
454 602
454 535
454 939
454 851
454 995
454 710
454 784
455 874
455 654
455 868
455 656
455 946
455 833
455 636
455 710
455 772
455 790
455 935
455 655
455 848
455 716
455 880
455 660
455 473
455 929
455 943
455 696
455 846
455 498
456 919
456 589
456 673
456 690
456 715
456 734
456 811
456 825
456 835
456 971
456 986
456 583
456 724
456 868
456 876
456 494
456 475
456 716
456 815
457 475
457 630
457 766
457 994
457 757
457 508
457 461
457 599
457 872
457 911
457 530
457 623
457 486
457 805
457 873
457 591
457 687
457 859
457 631
458 668
458 690
458 715
458 726
458 755
458 936
458 886
458 967
458 792
458 979
458 520
458 507
458 753
458 609
458 710
458 685
458 930
459 706
459 740
459 569
459 639
459 796
459 630
459 579
459 801
459 599
459 975
459 560
459 586
459 675
459 696
459 818
459 465
460 607
460 682
460 720
460 729
460 745
460 827
460 914
460 961
460 501
460 872
460 688
460 823
460 952
460 854
460 722
460 758
460 810
460 977
460 795
460 613
460 794
460 462
460 655
460 809
460 741
460 461
460 855
460 885
460 569
460 737
460 945
460 690
460 819
460 850
460 471
460 584
460 762
460 884
460 469
460 751
460 540
460 619
460 648
461 919
461 734
461 882
461 519
461 833
461 687
461 592
462 607
462 527
462 656
462 681
462 549
462 679
462 633
462 735
462 472
462 857
463 525
463 817
463 668
463 591
463 807
463 942
463 967
463 988
463 692
463 987
463 806
464 823
464 799
464 896
464 963
464 518
464 531
464 675
464 904
464 981
464 473
464 480
464 868
464 483
464 912
465 544
465 668
465 835
465 886
465 744
465 559
465 735
465 779
465 630
465 888
465 472
465 511
466 690
466 803
466 884
466 572
466 645
466 935
466 867
466 713
466 739
466 536
466 538
466 542
466 949
467 525
467 914
467 929
467 801
467 619
467 536
467 798
467 629
467 949
468 654
468 999
468 769
468 804
468 751
468 779
468 862
468 977
468 881
468 842
468 821
468 533
468 642
468 646
468 559
468 674
468 675
469 916
469 742
469 506
469 708
469 782
469 884
469 967
469 655
469 475
469 547
469 751
469 651
469 950
470 589
470 811
470 768
470 537
470 574
470 867
470 577
470 710
470 763
470 481
470 511
470 750
471 657
471 846
471 530
471 575
471 594
471 996
471 642
471 473
471 868
471 743
471 624
471 621
471 472
471 857
471 987
472 711
472 829
472 541
472 600
472 621
472 646
472 685
472 975
472 814
472 797
472 825
472 880
472 895
472 983
472 987
473 515
473 652
473 531
473 575
473 986
473 744
473 633
473 635
473 934
473 767
473 868
473 594
473 506
473 514
473 780
473 968
473 687
473 915
473 795
473 909
473 945
473 670
473 480
473 639
473 841
473 871
473 475
473 735
473 830
473 985
473 996
474 729
474 583
474 585
474 753
474 880
474 603
474 975
474 641
474 568
474 663
474 553
474 889
474 908
474 635
474 477
474 488
474 914
474 692
474 674
475 695
475 622
475 624
475 623
475 708
475 807
475 880
475 582
475 895
475 853
475 702
475 617
475 796
475 841
475 577
475 782
475 887
475 694
475 860
475 627
475 626
475 809
475 756
475 552
475 573
475 779
475 791
475 948
475 851
475 731
475 639
475 539
475 921
475 847
475 681
475 763
475 507
475 916
475 609
475 616
475 956
475 820
475 541
475 783
475 511
475 965
475 786
475 543
475 804
475 675
475 982
475 946
475 836
476 882
476 515
476 530
476 730
476 541
476 480
476 868
476 762
476 548
476 600
476 718
476 629
477 755
477 882
477 506
477 656
477 946
477 820
477 612
477 836
477 686
477 733
477 714
477 975
478 589
478 690
478 734
478 755
478 825
478 979
478 528
478 536
478 592
478 981
478 887
478 925
478 740
478 583
478 851
478 995
478 867
478 663
479 695
479 869
479 537
479 711
479 517
479 842
479 661
479 489
479 892
479 865
479 740
479 488
479 736
479 980
479 636
479 559
479 899
480 745
480 667
480 986
480 594
480 728
480 743
480 868
480 760
480 525
480 876
480 707
480 866
480 709
480 957
480 630
480 698
480 983
480 763
480 713
480 511
480 818
481 584
481 623
481 863
481 527
481 636
481 975
481 692
481 600
481 843
481 971
481 621
481 619
481 685
481 836
481 892
481 845
481 714
481 666
481 973
481 540
481 962
481 960
481 859
481 780
481 601
481 642
481 496
481 574
481 981
481 733
481 835
481 591
481 789
481 869
481 999
481 526
481 501
481 954
482 607
482 613
482 703
482 817
482 914
482 919
482 572
482 806
482 771
482 549
482 813
482 584
482 731
482 850
482 878
483 755
483 517
483 606
483 543
483 599
483 873
483 909
483 935
483 859
483 689
483 857
483 910
484 679
484 995
484 498
484 559
484 923
484 723
484 805
484 690
484 508
484 620
485 998
485 733
485 636
485 645
485 790
485 821
485 912
485 926
485 992
485 498
485 930
485 696
485 641
486 868
486 622
486 749
486 782
486 696
486 857
486 996
486 775
486 538
486 949
487 754
487 636
487 649
487 710
487 821
487 901
487 926
487 992
487 498
487 595
487 832
488 525
488 706
488 968
488 537
488 711
488 584
488 581
488 517
488 762
488 727
488 843
488 755
488 945
488 941
488 942
488 700
488 794
488 894
488 807
488 547
488 905
488 926
488 498
488 541
489 819
489 769
489 654
489 963
489 705
489 837
489 772
489 521
489 754
489 879
489 820
489 980
489 995
489 648
489 775
489 945
490 525
490 607
490 613
490 706
490 720
490 795
490 961
490 602
490 564
490 624
490 708
490 714
490 640
491 668
491 931
491 850
491 994
491 636
491 638
491 772
491 901
491 498
491 845
492 584
492 632
492 519
492 622
492 625
492 639
492 708
492 749
492 809
492 884
492 933
492 531
492 966
492 600
492 930
492 949
493 799
493 936
493 571
493 863
493 700
493 748
493 978
493 685
493 798
493 945
493 949
493 703
493 586
494 658
494 846
494 819
494 768
494 537
494 711
494 584
494 976
494 604
494 894
494 903
494 529
494 608
494 762
494 888
494 691
495 607
495 886
495 991
495 603
495 774
495 666
495 713
496 525
496 719
496 734
496 681
496 884
496 600
496 648
496 930
496 555
496 950
496 836
496 792
496 942
496 580
496 711
496 858
496 747
496 813
496 968
496 948
496 538
497 914
497 582
497 583
497 941
497 559
497 675
497 696
497 857
497 566
497 758
497 658
497 836
497 668
497 711
497 844
497 775
497 883
497 714
497 779
498 874
498 562
498 545
498 868
498 519
498 636
498 655
498 698
498 790
498 821
498 829
498 901
498 912
498 992
498 590
498 965
498 906
498 935
498 647
498 989
498 898
498 983
498 710
498 972
498 907
498 693
498 804
498 638
498 649
498 926
498 600
498 615
498 685
498 648
498 733
498 613
498 534
498 657
498 917
498 553
498 930
498 524
498 560
498 511
498 595
498 743
498 624
498 787
498 763
498 892
498 598
499 654
499 595
499 600
499 601
499 892
499 930
499 975
499 836
499 843
499 533
499 758
499 984
499 879
499 766
499 511
500 720
500 807
500 840
500 884
500 564
500 579
500 751
500 801
500 842
500 985
500 995
500 775
501 607
501 706
501 817
501 919
501 927
501 713
501 508
501 591
501 655
501 551
502 524
502 751
502 772
502 901
502 987
502 815
502 620
502 817
502 631
503 726
503 809
503 995
503 983
503 859
503 815
503 553
503 515
503 785
503 681
503 696
503 595
503 758
503 620
504 578
504 979
504 743
504 809
504 847
504 921
504 656
504 946
504 694
504 672
504 598
505 936
505 523
505 524
505 522
505 591
505 882
505 529
505 972
505 602
505 549
505 568
505 945
505 884
505 645
505 978
505 511
505 955
506 734
506 835
506 846
506 746
506 518
506 531
506 934
506 575
506 981
506 542
506 516
506 543
506 639
506 675
506 536
507 795
507 520
507 524
507 522
507 591
507 653
507 867
507 575
507 993
507 863
507 565
508 722
508 719
508 726
508 979
508 863
508 725
508 599
508 660
508 596
509 961
509 702
509 871
509 636
509 901
509 926
509 975
509 877
509 671
509 930
510 523
510 627
510 540
510 595
510 648
510 930
510 685
510 962
510 659
510 713
510 511
510 651
510 530
510 703
510 686
510 758
510 795
510 840
510 565
510 535
511 648
511 859
511 971
511 888
511 713
511 600
511 651
511 973
511 962
511 960
511 737
511 843
511 570
511 714
511 551
511 950
511 659
511 646
511 932
511 643
511 619
511 601
511 990
511 725
511 566
511 675
511 627
511 512
511 988
511 898
511 652
511 754
511 763
511 742
511 705
511 522
511 634
512 706
512 781
512 571
512 999
512 879
512 717
512 622
512 669
512 514
512 654
512 837
512 574
512 809
512 759
512 821
512 651
512 774
512 949
512 568
513 823
513 657
513 886
513 999
513 740
513 902
513 654
513 705
513 879
513 772
513 536
514 719
514 769
514 877
514 916
514 597
514 962
514 971
514 786
514 732
514 581
514 524
514 879
514 772
514 595
514 536
515 576
515 613
515 981
515 728
515 956
515 965
515 922
515 776
515 652
515 531
515 575
515 850
516 936
516 825
516 721
516 745
516 521
516 657
516 668
516 755
516 811
516 835
516 979
516 602
516 699
516 983
516 540
516 586
517 544
517 998
517 752
517 711
517 632
517 762
517 612
517 768
517 761
517 574
517 604
517 860
517 557
517 837
517 938
517 805
517 538
517 766
517 679
517 623
517 681
517 895
517 921
517 655
517 774
517 955
518 795
518 531
518 550
518 668
518 868
518 602
518 603
518 646
518 565
519 539
519 847
519 880
519 627
519 948
519 626
519 967
519 546
519 807
519 569
519 623
519 881
519 939
519 818
519 684
519 622
519 624
519 749
519 753
519 796
519 851
519 863
519 884
519 599
519 600
520 886
520 562
520 778
520 534
520 667
520 524
520 928
520 987
520 989
520 883
520 747
520 720
520 523
520 876
520 882
520 602
520 586
520 536
520 945
521 810
521 657
521 982
521 690
521 740
521 693
521 534
521 589
521 673
521 734
521 835
521 677
521 986
521 782
521 713
522 817
522 919
522 524
522 677
522 591
522 778
522 562
522 529
522 534
522 802
522 667
522 916
522 988
522 848
522 801
522 658
522 902
522 538
522 706
522 769
522 986
522 572
522 587
522 665
522 995
522 662
522 926
522 566
523 919
523 657
523 690
523 726
523 891
523 809
523 865
523 839
523 524
523 562
523 882
523 667
523 837
523 584
523 639
523 842
523 900
523 987
524 529
524 882
524 896
524 667
524 746
524 802
524 893
524 562
524 819
524 677
524 876
524 898
524 970
524 716
524 833
524 792
524 632
524 547
524 936
524 636
524 820
524 871
524 614
524 616
524 591
524 575
524 939
524 946
525 706
525 738
525 703
525 919
525 758
525 720
525 613
525 795
525 917
525 914
525 754
525 856
525 722
525 927
525 688
525 937
525 724
525 607
525 615
525 745
525 854
525 785
525 946
525 556
525 843
525 958
525 979
525 566
525 753
525 876
525 740
525 632
525 621
525 892
526 829
526 867
526 885
526 930
526 679
526 529
526 837
526 585
526 675
526 815
526 631
527 986
527 704
527 855
527 946
527 973
527 548
527 733
527 735
527 935
528 613
528 690
528 786
528 868
528 606
528 995
528 833
528 563
528 975
528 586
528 900
528 641
529 893
529 534
529 896
529 784
529 856
529 562
529 882
529 667
529 708
529 714
529 888
530 652
530 545
530 728
530 744
530 635
530 868
530 961
530 985
530 955
530 981
530 873
530 623
530 820
530 648
531 658
531 743
531 652
531 934
531 633
531 728
531 986
531 604
531 588
531 708
531 855
531 624
531 592
531 587
531 545
531 867
532 936
532 786
532 799
532 869
532 709
532 944
532 541
532 668
532 676
532 719
532 755
532 803
532 811
532 835
532 833
532 662
532 538
533 837
533 708
533 753
533 980
533 867
533 563
533 878
533 909
533 535
533 764
533 918
533 550
533 929
533 763
533 815
534 607
534 706
534 738
534 825
534 665
534 831
534 562
534 591
534 882
534 779
534 796
534 950
535 964
535 676
535 846
535 716
535 826
535 978
535 885
535 816
535 878
535 706
535 668
535 917
535 569
535 637
535 838
535 603
535 862
535 867
535 763
535 845
536 591
536 717
536 879
536 790
536 909
536 862
536 857
536 899
536 798
536 640
536 542
536 938
536 954
536 550
536 538
536 642
536 537
536 972
536 695
536 804
536 935
536 832
536 928
536 965
536 994
536 735
536 723
536 556
537 729
537 668
537 979
537 768
537 628
537 993
537 679
537 612
537 752
537 584
537 998
537 976
537 865
537 711
537 894
537 955
537 707
537 840
537 748
537 552
537 610
537 773
537 823
537 791
537 740
537 618
537 762
537 622
537 756
537 790
537 859
537 975
537 675
538 766
538 649
538 975
538 775
538 938
538 954
538 550
538 987
538 910
538 640
538 965
538 742
538 908
538 765
538 556
538 870
538 547
539 652
539 895
539 546
539 807
539 621
539 953
539 697
539 567
539 583
539 623
539 708
539 749
539 851
539 643
540 835
540 711
540 892
540 695
540 562
540 999
540 595
540 621
540 666
540 685
540 888
541 564
541 821
541 956
541 859
541 845
541 962
541 707
541 713
541 975
541 780
541 971
541 888
541 789
541 849
541 665
541 852
541 736
541 812
541 933
541 728
541 748
541 885
541 765
541 822
541 549
541 595
541 601
541 685
541 899
542 719
542 667
542 885
542 911
542 629
542 923
542 550
542 949
542 987
542 683
542 938
542 792
542 603
542 928
542 638
542 605
542 996
542 817
542 578
542 631
543 835
543 936
543 733
543 579
543 609
543 911
543 604
543 610
543 999
543 745
543 557
543 697
543 599
543 926
543 808
544 760
544 773
544 664
544 864
544 958
544 869
544 621
544 546
544 672
544 579
544 585
544 731
544 715
544 734
544 803
544 835
544 886
544 667
544 600
544 859
544 923
545 607
545 827
545 778
545 652
545 848
545 670
545 697
545 575
545 981
545 873
545 584
545 623
545 833
546 873
546 680
546 811
546 554
546 585
546 622
546 624
546 639
546 749
546 753
546 863
546 939
547 726
547 639
547 939
547 582
547 752
547 566
547 857
547 768
547 957
547 630
547 557
547 670
547 912
547 644
548 584
548 753
548 572
548 587
548 662
548 876
548 935
548 629
548 733
548 997
548 685
548 892
548 689
549 626
549 782
549 554
549 643
549 685
549 648
549 621
549 921
549 826
549 678
549 993
549 736
549 595
549 713
549 930
549 975
550 876
550 623
550 602
550 801
550 997
550 959
550 772
550 965
550 982
550 923
550 949
550 987
551 770
551 884
551 564
551 608
551 766
551 833
551 763
551 853
551 595
551 975
552 824
552 825
552 633
552 593
552 580
552 624
552 736
552 747
552 753
552 772
552 600
552 845
552 900
553 729
553 754
553 749
553 641
553 720
553 633
553 855
553 765
554 835
554 632
554 623
554 942
554 842
554 832
554 604
554 600
554 601
554 621
554 648
554 666
554 888
554 892
554 930
554 975
554 696
555 957
555 978
555 714
555 595
555 601
555 936
555 666
555 892
555 857
555 987
555 641
555 765
556 919
556 582
556 907
556 805
556 815
556 890
556 611
556 610
556 944
556 590
556 816
556 578
556 984
556 855
556 852
556 823
556 887
556 620
556 631
557 809
557 887
557 697
557 725
557 866
557 609
557 622
557 863
557 730
557 568
557 714
557 687
557 913
557 786
557 575
557 829
557 610
558 607
558 704
558 656
558 946
558 687
558 880
558 820
558 814
558 988
558 885
558 646
559 658
559 865
559 796
559 985
559 930
559 739
559 974
559 943
559 996
559 857
559 691
559 696
559 928
559 588
559 751
559 842
559 919
559 633
559 607
559 690
559 689
560 654
560 626
560 777
560 965
560 763
560 892
560 696
560 774
560 996
560 971
560 693
560 675
560 900
560 644
561 825
561 685
561 644
561 634
562 882
562 591
562 876
562 802
562 819
562 893
562 778
562 677
562 896
562 667
562 746
562 948
562 651
562 824
562 873
562 897
562 648
562 725
562 751
562 821
562 809
562 960
562 989
562 592
562 907
562 935
562 685
562 892
563 754
563 762
563 583
563 946
563 662
563 878
563 862
563 815
563 999
563 607
563 824
563 603
563 763
564 835
564 879
564 572
564 735
564 665
564 985
564 826
564 814
564 991
564 970
564 801
564 695
564 708
564 802
564 684
564 653
564 952
564 770
564 579
564 602
564 614
564 766
564 842
564 994
564 997
564 920
564 992
564 892
564 875
565 835
565 879
565 851
565 801
565 935
565 646
565 930
565 861
565 783
565 697
565 586
565 689
565 718
565 568
566 927
566 979
566 850
566 578
566 612
566 586
566 718
567 886
567 618
567 650
567 831
567 637
567 708
567 779
567 617
567 990
567 632
567 963
567 605
567 780
567 569
567 681
567 851
567 863
567 880
567 884
568 578
568 715
568 886
568 882
568 651
568 908
568 704
568 869
569 729
569 882
569 681
569 982
569 768
569 624
569 623
569 749
569 851
569 863
569 579
569 815
570 608
570 997
570 935
570 595
570 619
570 892
570 930
570 975
570 675
571 688
571 937
571 654
571 704
571 922
571 780
571 879
571 595
571 641
572 946
572 813
572 981
572 850
572 636
573 810
573 936
573 731
573 694
573 756
573 681
573 807
573 851
573 863
573 642
573 674
573 875
574 679
574 858
574 711
574 612
574 727
574 618
574 632
574 777
574 675
574 744
574 890
574 740
574 762
574 939
574 710
574 949
575 741
575 652
575 635
575 986
575 873
575 981
575 776
575 743
575 633
575 846
575 805
575 865
575 868
575 790
575 689
575 815
576 682
576 817
576 795
576 977
576 671
576 955
576 892
576 771
576 607
576 615
576 745
576 754
576 823
576 919
576 927
576 589
576 747
576 994
576 790
576 867
576 885
576 621
576 689
577 810
577 791
577 807
577 668
577 617
577 624
577 650
577 708
577 753
577 847
577 930
577 696
577 683
577 644
578 682
578 613
578 706
578 783
578 591
578 607
578 703
578 823
578 827
578 914
578 936
578 585
578 994
578 599
578 609
578 675
579 841
579 940
579 842
579 764
579 665
579 997
579 628
579 898
579 692
579 935
579 937
579 619
579 766
579 801
579 826
579 980
579 790
579 821
579 845
580 809
580 733
580 883
580 997
580 686
580 994
580 941
580 708
580 836
580 757
580 888
580 892
580 751
580 801
580 842
580 985
581 977
581 605
581 998
581 952
581 711
581 584
581 618
581 891
581 985
581 599
581 748
582 682
582 876
582 882
582 653
582 997
582 624
582 639
582 807
582 847
582 880
582 884
582 710
583 627
583 694
583 809
583 756
583 791
583 807
583 921
583 653
583 788
583 771
583 844
583 786
583 586
583 585
583 625
583 623
583 753
583 796
583 863
583 801
583 599
584 835
584 768
584 894
584 993
584 632
584 628
584 865
584 740
584 612
584 974
584 685
584 982
584 658
584 618
584 751
584 842
584 689
585 823
585 676
585 618
585 749
585 831
585 840
585 807
585 915
585 884
585 841
585 853
585 781
585 795
585 729
585 726
585 601
585 836
585 624
585 653
585 753
585 967
585 735
585 987
586 630
586 602
586 995
586 687
586 600
586 674
586 913
586 870
586 669
586 974
586 774
586 678
586 951
586 691
586 739
586 818
586 943
586 984
586 661
586 918
586 689
586 955
586 718
586 768
586 726
586 925
586 847
586 610
586 735
586 754
586 747
586 794
586 702
586 983
586 710
586 675
586 857
586 900
587 668
587 767
587 747
587 905
587 867
587 598
587 683
587 735
588 827
588 782
588 789
588 719
588 864
588 795
588 893
588 593
588 636
588 675
588 718
589 958
589 657
589 760
589 673
589 793
589 664
589 825
589 869
589 903
589 874
589 715
589 982
589 979
589 719
589 690
589 734
589 773
589 618
589 855
589 728
589 857
589 986
589 911
589 948
589 677
589 668
589 781
589 811
589 835
589 679
589 789
589 926
589 675
590 882
590 623
590 608
590 626
590 656
590 936
590 636
590 647
590 649
590 710
590 790
590 821
590 901
590 935
590 669
590 775
591 695
591 760
591 802
591 882
591 778
591 746
591 667
591 646
591 595
591 629
591 704
591 955
591 642
591 871
591 678
591 656
591 975
592 817
592 881
592 768
592 865
592 779
592 833
592 599
592 866
592 849
592 697
592 762
592 995
592 606
592 788
592 998
592 994
592 725
592 609
592 748
592 689
593 919
593 868
593 697
593 655
593 857
594 823
594 728
594 767
594 868
594 937
594 611
594 909
594 981
594 770
594 812
594 763
594 718
595 824
595 771
595 982
595 659
595 843
595 643
595 713
595 737
595 780
595 648
595 904
595 692
595 888
595 601
595 660
595 651
595 600
595 621
595 646
595 836
595 714
595 962
595 730
595 619
595 704
595 772
595 727
595 959
595 769
595 890
595 784
595 958
595 778
595 637
595 961
595 768
595 874
595 991
595 606
595 941
595 859
595 975
595 857
596 882
596 740
596 990
596 614
596 978
596 625
596 612
596 603
596 763
596 806
597 824
597 654
597 963
597 834
597 605
597 980
597 799
597 616
597 660
597 879
597 638
597 718
598 827
598 748
598 685
598 723
598 641
598 875
598 895
598 768
598 687
598 720
598 618
599 747
599 841
599 833
599 725
599 849
599 757
599 866
599 959
599 947
599 618
599 622
599 908
599 878
599 976
599 736
599 821
599 652
599 961
599 907
599 669
599 975
599 701
600 735
600 985
600 636
600 619
600 659
600 971
600 737
600 671
600 651
600 707
600 960
600 646
600 783
600 888
600 792
600 648
600 779
600 742
600 891
600 915
600 743
600 937
600 859
600 930
600 975
600 739
601 957
601 630
601 614
601 926
601 843
601 904
601 737
601 692
601 930
601 730
601 713
601 642
601 966
601 765
601 914
601 656
601 679
601 907
601 811
601 705
601 639
601 775
601 942
601 621
601 646
601 659
601 975
601 974
601 808
602 681
602 861
602 814
602 970
602 940
602 994
602 751
602 883
602 686
602 764
602 830
602 769
602 898
602 700
602 754
602 680
602 846
602 840
602 922
602 980
602 995
602 748
603 992
603 862
603 878
603 978
603 852
603 867
603 763
603 885
603 909
603 816
603 836
603 801
603 954
603 953
603 907
603 793
603 855
603 761
603 792
603 734
604 729
604 846
604 768
604 711
604 761
604 719
604 999
604 612
604 762
604 970
604 784
604 901
604 983
605 827
605 811
605 769
605 654
605 837
605 741
605 879
605 753
605 847
605 931
605 988
605 642
605 696
605 629
605 806
606 665
606 814
606 764
606 752
606 789
606 889
606 815
606 980
606 994
606 997
606 648
606 859
606 960
606 689
607 914
607 969
607 738
607 824
607 977
607 794
607 927
607 823
607 964
607 961
607 706
607 688
607 724
607 613
607 720
607 785
607 703
607 919
607 810
607 745
607 929
607 952
607 758
607 784
607 850
607 647
607 926
607 783
607 962
607 938
607 729
607 754
607 721
607 967
607 648
607 949
608 719
608 639
608 985
608 787
608 939
608 839
608 801
608 842
608 997
608 638
608 649
608 685
608 857
609 632
609 747
609 995
609 697
609 700
609 687
609 746
609 861
609 762
609 646
610 823
610 854
610 755
610 711
610 796
610 863
610 656
610 790
610 859
610 945
610 815
610 905
610 879
610 981
610 830
610 619
610 946
610 844
610 620
611 688
611 726
611 981
611 624
611 733
611 686
611 815
611 648
611 620
612 823
612 711
612 865
612 998
612 752
612 958
612 913
612 624
612 762
612 749
612 939
612 659
613 977
613 937
613 706
613 917
613 872
613 932
613 643
613 630
613 942
613 656
613 688
613 745
613 754
613 810
613 817
613 927
613 961
613 969
613 761
613 753
613 766
613 941
613 994
613 821
613 930
613 718
614 835
614 826
614 970
614 787
614 665
614 650
614 666
614 923
614 966
614 789
614 627
614 842
614 994
614 995
614 959
614 965
614 862
615 917
615 824
615 903
615 943
615 909
615 706
615 729
615 785
615 795
615 823
615 919
615 927
615 837
615 638
615 687
615 772
615 843
616 740
616 985
616 928
616 718
616 766
616 842
616 994
616 780
616 950
616 815
617 753
617 721
617 999
617 633
617 639
617 807
617 851
617 863
617 884
617 723
618 979
618 740
618 768
618 762
618 628
618 761
618 865
618 976
618 664
618 623
618 723
618 894
618 821
618 975
618 689
618 818
619 706
619 720
619 734
619 659
619 671
619 635
619 827
619 926
619 623
619 648
619 685
619 930
619 975
619 689
620 894
620 941
620 821
620 818
620 815
620 732
620 886
620 749
620 847
620 964
620 631
621 960
621 643
621 646
621 707
621 973
621 642
621 836
621 930
621 792
621 744
621 880
621 739
621 727
621 842
621 733
621 633
621 685
621 892
621 675
622 813
622 998
622 708
622 948
622 736
622 921
622 915
622 624
622 639
622 853
622 627
622 763
622 897
622 929
622 904
622 844
622 734
622 753
622 809
622 851
622 863
622 942
622 967
622 950
623 720
623 854
623 657
623 624
623 625
623 860
623 731
623 756
623 853
623 650
623 942
623 931
623 990
623 847
623 841
623 887
623 928
623 745
623 732
623 953
623 751
623 814
623 927
623 639
623 777
623 884
623 967
623 655
623 772
623 949
624 917
624 639
624 812
624 841
624 749
624 931
624 708
624 809
624 637
624 942
624 948
624 895
624 731
624 650
624 694
624 796
624 768
624 737
624 934
624 873
624 830
624 670
624 888
624 700
624 904
624 975
624 656
624 744
624 836
624 627
624 801
624 926
625 807
625 626
625 969
625 901
625 827
625 890
625 784
625 704
625 753
625 847
625 863
625 884
625 946
625 994
625 995
625 687
625 710
626 758
626 802
626 653
626 661
626 650
626 779
626 782
626 807
626 847
626 863
626 884
627 948
627 796
627 737
627 719
627 773
627 882
627 656
627 681
627 753
627 842
627 994
628 917
628 635
628 768
628 711
628 976
628 998
628 752
628 740
628 781
628 896
628 955
628 734
628 950
628 825
628 813
628 632
628 762
629 919
629 726
629 999
629 863
629 880
629 935
629 666
629 987
629 911
629 893
629 984
629 890
629 731
629 813
629 945
629 949
629 723
630 719
630 865
630 939
630 966
630 789
630 842
630 639
630 675
630 766
630 897
630 757
630 733
631 755
631 835
631 681
631 753
631 700
631 674
631 815
631 805
631 864
631 767
631 910
631 820
631 879
631 653
631 733
631 831
632 827
632 711
632 865
632 993
632 858
632 740
632 976
632 752
632 727
632 679
632 722
632 927
632 759
632 948
632 756
632 986
632 762
633 868
633 635
633 744
633 645
633 898
633 926
633 763
633 644
634 975
634 643
634 638
634 689
635 652
635 934
635 981
635 868
635 866
635 759
635 867
635 646
636 768
636 995
636 925
636 649
636 848
636 710
636 901
636 784
636 748
636 844
636 898
636 647
636 992
636 989
636 638
636 772
636 965
636 935
636 888
636 856
636 756
636 747
636 653
636 971
636 725
636 766
636 956
636 792
636 655
636 684
636 892
636 818
637 781
637 873
637 716
637 861
637 639
637 809
637 967
637 805
638 863
638 790
638 693
638 710
638 670
638 942
638 821
638 901
638 669
639 754
639 793
639 796
639 840
639 779
639 887
639 747
639 895
639 931
639 807
639 853
639 736
639 851
639 870
639 683
639 986
639 910
639 643
639 665
639 864
639 937
639 700
639 865
639 794
639 653
639 681
639 753
639 847
639 863
639 946
639 801
640 872
640 755
640 980
640 834
640 949
640 723
640 987
641 754
641 871
641 921
641 801
641 698
641 718
641 832
641 797
641 738
641 829
641 726
641 858
642 654
642 995
642 655
642 821
642 836
642 646
642 673
642 714
642 859
642 888
642 892
642 975
642 949
643 690
643 786
643 736
643 912
643 646
643 765
643 845
643 892
643 930
643 975
644 961
644 770
644 908
644 765
644 806
644 663
644 933
644 902
644 986
645 813
645 746
645 761
645 966
645 821
645 955
645 888
645 729
645 684
645 772
645 790
645 901
645 992
645 675
646 771
646 916
646 997
646 655
646 748
646 926
646 763
646 859
646 659
646 932
646 737
646 828
646 971
646 692
646 877
646 827
646 744
646 781
646 890
646 854
646 690
646 705
646 851
646 915
646 699
646 648
646 685
646 713
646 892
646 930
646 984
647 693
647 652
647 655
647 790
647 723
648 824
648 946
648 885
648 671
648 843
648 975
648 692
648 730
648 685
648 780
648 691
648 939
648 693
648 735
648 977
648 796
648 714
648 845
648 888
648 930
649 753
649 725
649 790
649 829
649 935
649 934
649 745
649 839
649 713
649 780
650 690
650 958
650 777
650 674
650 738
650 681
650 749
650 857
651 811
651 782
651 842
651 994
651 710
651 783
651 704
651 685
651 892
652 917
652 767
652 744
652 728
652 981
652 745
652 711
652 714
652 868
653 679
653 782
653 673
653 707
653 742
653 708
653 749
653 753
653 779
653 863
654 803
654 968
654 963
654 712
654 717
654 741
654 877
654 881
654 834
654 879
654 769
654 916
654 906
654 798
654 908
654 897
654 955
654 773
654 900
654 713
654 884
654 843
654 705
654 994
654 790
654 975
655 979
655 705
655 687
655 848
655 772
655 965
655 804
655 906
655 844
655 656
655 882
655 704
655 681
655 846
655 784
655 790
655 821
655 992
656 803
656 905
656 855
656 946
656 716
656 947
656 704
656 733
656 836
656 748
656 955
656 992
657 964
657 982
657 760
657 695
657 658
657 803
657 844
657 950
657 784
657 906
657 668
657 734
657 835
657 685
657 689
658 917
658 773
658 695
658 700
658 673
658 676
658 755
658 786
658 825
658 835
658 979
658 994
658 988
659 835
659 733
659 907
659 763
659 916
659 896
659 685
659 888
659 930
660 673
660 711
660 700
660 959
660 713
660 859
660 888
660 975
661 975
661 969
661 925
661 675
661 689
661 718
661 857
662 664
662 755
662 727
662 702
662 748
662 790
662 972
662 992
662 682
662 940
662 944
662 663
662 698
662 772
662 821
662 897
663 769
663 926
663 945
663 888
664 794
664 874
664 968
664 690
664 890
664 715
664 734
664 755
664 811
664 825
664 801
664 906
664 723
665 754
665 668
665 719
665 967
665 830
665 751
665 801
665 974
665 832
665 827
665 960
665 773
665 842
665 980
665 994
665 995
665 997
665 700
665 683
666 853
666 685
666 941
666 874
667 882
667 734
667 866
667 764
667 804
668 927
668 979
668 773
668 903
668 825
668 864
668 786
668 874
668 968
668 734
668 695
668 936
668 781
668 676
668 799
668 811
668 782
668 731
668 834
668 952
668 716
668 840
668 880
668 712
668 943
668 925
668 690
668 755
668 835
668 681
668 733
668 818
669 694
669 897
669 671
669 699
669 792
669 857
669 924
670 784
670 898
670 920
670 990
670 831
670 692
670 790
670 901
670 992
671 874
671 686
671 737
671 714
671 814
671 719
671 685
671 845
671 892
671 930
672 982
672 804
672 844
672 822
672 739
672 890
672 758
672 790
672 848
672 901
672 926
672 935
673 781
673 936
673 719
673 864
673 874
673 943
673 743
673 690
673 715
673 726
673 734
673 793
673 778
673 998
673 973
674 754
674 882
674 865
674 951
674 689
674 857
674 928
674 961
674 962
674 782
674 827
674 763
674 880
674 718
675 702
675 984
675 818
675 718
675 897
675 928
675 951
675 857
675 696
675 913
675 750
675 924
675 900
675 955
675 918
675 739
675 838
675 680
675 859
675 912
675 898
675 879
675 759
675 810
675 772
675 752
675 973
675 743
675 683
675 685
675 689
676 720
676 745
676 919
676 846
676 936
676 813
676 719
676 799
676 965
676 969
676 704
676 935
676 850
676 893
676 993
676 722
676 767
676 951
676 860
676 724
676 690
676 734
676 755
676 835
676 886
676 840
676 955
677 876
677 882
677 906
677 965
677 853
678 817
678 760
678 990
678 763
678 718
678 974
678 996
679 715
679 768
679 727
679 984
679 722
679 711
679 865
679 740
679 710
679 852
680 879
680 863
680 959
680 869
680 747
680 689
680 691
680 718
680 857
681 760
681 741
681 753
681 863
681 853
681 871
681 749
681 851
681 942
681 931
681 895
681 736
681 694
681 782
681 860
681 796
681 708
681 779
681 840
681 893
681 992
681 725
681 935
681 934
681 919
681 726
681 916
681 880
681 884
681 892
682 757
682 755
682 882
682 986
682 706
682 754
682 817
682 914
682 985
682 821
682 975
682 718
683 738
683 745
683 982
683 999
683 711
683 888
683 973
683 696
683 952
683 707
683 894
683 949
683 723
683 987
684 967
684 710
684 724
684 869
684 934
684 784
684 790
684 901
684 920
684 714
684 857
685 745
685 742
685 697
685 975
685 707
685 960
685 795
685 870
685 999
685 790
685 894
685 930
685 945
686 827
686 713
686 818
686 916
686 801
686 980
686 994
686 995
686 997
686 910
687 781
687 869
687 851
687 709
687 992
687 826
687 762
687 964
687 710
687 748
687 784
687 821
687 829
687 901
687 867
687 900
688 758
688 824
688 919
688 810
688 927
688 720
688 964
688 977
688 872
688 858
688 904
688 875
688 841
688 853
688 706
688 745
688 795
688 817
688 914
688 850
688 985
688 994
689 734
689 848
689 928
689 774
689 691
689 913
689 739
689 996
689 943
689 918
689 870
689 981
689 690
689 887
689 754
689 722
689 922
689 982
689 731
689 849
689 857
690 979
690 721
690 968
690 835
690 936
690 773
690 793
690 726
690 695
690 982
690 799
690 740
690 866
690 733
690 972
690 929
690 967
690 755
690 811
690 825
690 846
690 886
690 743
690 923
691 834
691 918
691 897
691 838
691 955
691 696
691 791
691 813
691 762
691 906
691 872
691 764
691 718
691 818
692 882
692 884
692 857
692 989
692 888
692 892
693 720
693 919
693 835
693 807
693 901
693 926
693 713
693 930
694 824
694 958
694 749
694 753
694 756
694 851
695 825
695 869
695 719
695 874
695 958
695 771
695 846
695 736
695 951
695 750
695 734
695 803
695 979
695 841
695 798
695 788
696 755
696 999
696 790
696 951
696 750
696 799
696 942
696 837
696 857
696 822
697 810
697 964
697 757
697 849
697 771
697 902
697 928
698 810
698 821
698 699
698 790
698 710
698 890
698 893
698 725
698 838
698 722
698 777
698 986
698 833
698 748
698 901
698 926
698 935
698 992
698 960
699 795
699 753
699 980
699 710
699 821
699 912
699 935
699 862
699 975
699 800
700 896
700 880
700 976
700 974
700 815
700 853
700 959
700 975
701 835
701 801
701 950
701 718
701 949
701 723
701 987
702 927
702 967
702 791
702 871
702 782
702 753
702 994
702 708
702 749
702 851
702 863
702 935
703 729
703 758
703 759
703 706
703 745
703 754
703 817
703 919
703 961
703 779
703 807
703 994
704 733
704 735
704 933
705 834
705 742
705 881
705 717
705 823
705 767
705 814
705 879
705 981
705 901
705 862
706 914
706 810
706 937
706 824
706 919
706 952
706 854
706 722
706 754
706 964
706 969
706 823
706 817
706 785
706 929
706 795
706 827
706 988
706 860
706 845
706 994
706 774
706 830
706 804
706 905
706 717
706 901
706 792
706 899
706 832
706 939
706 961
706 771
706 886
706 990
706 800
706 822
707 715
707 874
707 793
707 888
707 975
708 719
708 825
708 831
708 731
708 887
708 770
708 756
708 884
708 961
708 970
708 837
708 730
708 883
708 776
708 826
709 856
709 846
709 921
709 842
709 816
709 777
709 790
709 901
709 912
709 926
709 992
710 740
710 841
710 884
710 972
710 821
710 790
710 898
710 907
710 912
710 748
710 935
710 965
710 906
710 804
710 901
710 829
710 992
710 757
710 834
710 967
710 711
710 772
710 798
710 949
711 727
711 752
711 761
711 891
711 740
711 976
711 762
711 998
711 993
711 894
711 858
711 714
711 737
711 832
711 726
711 729
711 849
711 909
711 935
711 855
711 826
711 716
711 789
711 972
711 718
711 900
712 785
712 914
712 927
712 811
712 866
712 741
712 879
712 772
712 924
713 965
713 904
713 737
713 714
713 930
713 971
713 937
713 798
713 891
713 803
713 999
713 935
713 734
713 729
713 892
713 975
713 805
714 961
714 719
714 997
714 737
714 953
714 888
714 836
714 786
714 867
714 855
714 931
714 990
714 993
714 999
714 769
714 853
714 892
714 930
714 900
715 793
715 803
715 813
715 968
715 979
715 721
715 719
715 724
715 921
715 952
715 913
715 834
715 926
715 726
715 755
715 811
715 835
715 936
715 998
715 757
715 906
716 946
716 855
716 904
716 725
716 845
716 912
716 965
717 963
717 837
717 778
717 870
717 941
717 879
717 784
718 838
718 739
718 900
718 984
718 996
718 918
718 928
718 857
718 913
718 750
718 774
718 726
718 754
718 867
718 909
718 854
718 876
718 965
718 830
718 721
718 855
718 729
718 936
718 924
718 974
719 958
719 869
719 903
719 846
719 936
719 950
719 890
719 913
719 734
719 755
719 811
719 756
719 807
719 892
720 917
720 745
720 794
720 823
720 914
720 729
720 785
720 738
720 854
720 810
720 872
720 956
720 974
720 955
720 837
720 772
720 730
720 754
720 758
720 919
720 927
720 813
720 768
721 726
721 835
721 886
721 979
721 815
722 919
722 829
722 836
722 744
722 754
722 795
722 817
722 827
722 914
722 927
722 929
722 779
722 967
723 790
723 848
723 888
723 930
723 945
723 899
723 911
723 791
723 976
723 951
723 866
723 984
724 795
724 856
724 919
724 927
724 961
724 879
724 740
724 749
724 751
724 764
724 766
724 829
725 817
725 866
725 833
725 735
725 862
725 893
725 940
725 916
725 775
725 914
725 920
726 914
726 786
726 734
726 968
726 803
726 825
726 869
726 798
726 816
726 868
726 782
726 796
726 985
727 879
727 981
727 803
727 954
727 740
727 762
727 770
727 935
728 776
728 868
728 731
728 967
728 994
728 833
729 872
729 745
729 754
729 795
729 810
729 919
729 961
729 964
730 753
730 997
730 930
731 793
731 747
731 736
731 900
731 870
731 753
731 779
731 863
731 921
731 945
732 734
732 811
732 958
732 853
732 842
732 833
732 973
732 815
733 809
733 880
733 884
733 946
733 820
733 850
733 735
733 905
733 855
733 891
733 968
733 810
733 962
733 963
733 975
734 817
734 771
734 773
734 874
734 803
734 781
734 799
734 813
734 811
734 982
734 835
734 958
734 846
734 886
734 786
734 760
734 903
734 746
734 827
734 761
734 816
734 867
734 829
734 762
734 735
734 794
734 853
734 737
734 752
734 883
734 740
734 942
734 755
734 847
734 880
734 790
735 817
735 879
735 768
735 884
735 946
735 820
735 905
735 855
735 947
735 850
735 865
735 744
735 898
735 949
735 749
735 883
735 984
736 865
736 747
736 818
736 952
736 753
736 764
737 868
737 967
737 994
737 892
738 757
738 874
738 795
738 854
738 914
738 919
738 927
738 779
738 900
739 768
739 894
739 851
740 919
740 813
740 993
740 858
740 891
740 998
740 768
740 975
740 935
740 770
740 894
741 886
741 837
741 805
741 806
741 742
741 753
741 859
741 800
742 746
742 818
742 949
742 910
742 800
743 868
743 969
743 762
743 753
743 926
743 935
743 983
743 987
744 881
744 978
744 818
744 996
744 899
744 987
745 794
745 785
745 758
745 754
745 810
745 872
745 828
745 821
745 909
745 795
745 817
745 835
745 946
745 798
746 882
746 761
747 823
747 881
747 990
747 796
747 863
747 884
747 865
747 800
747 753
747 809
747 851
747 842
747 923
748 989
748 972
748 779
748 840
748 901
748 926
748 935
749 841
749 812
749 753
749 847
749 779
749 831
749 967
749 978
749 889
749 763
749 843
749 909
749 926
749 787
749 956
749 848
749 840
750 771
750 842
750 772
750 950
750 858
750 914
750 857
751 865
751 853
751 991
751 895
751 882
751 789
751 933
751 766
751 842
751 980
751 994
751 965
752 865
752 863
752 779
752 921
752 763
752 975
753 916
753 812
753 967
753 809
753 840
753 860
753 921
753 770
753 791
753 853
753 871
753 884
753 895
753 880
753 756
753 893
753 958
753 885
753 810
753 808
753 935
753 992
754 794
754 964
754 810
754 914
754 817
754 927
754 919
754 929
754 827
754 937
754 759
754 855
754 947
754 888
754 868
754 768
754 999
754 777
754 795
754 961
755 786
755 982
755 869
755 968
755 760
755 936
755 803
755 864
755 965
755 852
755 854
755 836
755 885
755 781
755 835
755 790
755 983
755 815
756 969
756 779
756 883
756 922
756 780
756 976
756 851
756 946
756 945
757 803
757 946
757 980
757 825
757 987
757 810
757 769
757 888
757 875
758 772
758 800
758 844
758 791
758 972
758 823
758 914
758 919
758 773
758 799
758 847
758 959
758 829
759 882
759 830
759 796
759 804
759 766
759 801
759 842
759 980
759 994
759 995
759 821
759 763
759 910
760 877
760 781
760 793
760 811
760 835
760 979
761 825
761 835
761 865
761 814
761 762
761 807
762 976
762 993
762 891
762 998
762 894
762 826
762 974
762 807
762 772
762 805
762 939
762 833
763 802
763 816
763 867
763 909
763 878
763 978
763 885
763 774
763 881
763 911
763 855
763 844
764 835
764 819
764 914
764 842
764 997
764 783
764 815
765 930
765 806
765 933
765 788
765 911
765 980
766 876
766 809
766 787
766 814
766 830
766 995
766 883
766 997
766 994
766 952
766 898
766 933
766 791
766 900
766 960
766 801
766 842
767 982
767 776
767 918
767 923
767 983
767 857
768 919
768 865
768 888
769 881
769 816
769 899
769 894
769 863
769 801
769 935
769 885
770 782
770 851
770 906
770 815
771 854
771 958
771 857
771 789
771 926
771 949
772 831
772 912
772 852
772 909
772 966
772 819
772 790
772 955
773 781
773 835
773 886
773 979
773 975
774 809
774 851
774 790
774 994
774 780
774 949
775 863
775 904
775 949
775 987
776 986
776 861
776 908
776 981
776 873
776 863
776 826
776 995
776 935
776 885
777 831
777 912
777 911
778 802
778 882
778 896
778 902
778 997
778 992
779 952
779 961
779 803
779 963
779 812
779 911
779 814
779 796
779 851
779 863
779 942
779 857
780 810
780 956
780 855
780 888
780 930
780 975
781 903
781 835
781 907
781 809
781 892
782 934
782 796
782 880
782 809
782 977
782 968
782 851
782 863
782 784
782 975
783 997
783 883
784 879
784 814
784 813
784 790
784 912
784 965
785 961
785 794
785 908
785 991
785 919
785 927
785 984
786 998
786 799
786 807
786 939
787 936
787 801
787 842
787 994
788 809
788 984
788 875
789 981
789 863
789 939
789 958
789 921
789 836
789 947
789 957
789 966
790 976
790 853
790 901
790 972
790 898
790 912
790 844
790 821
790 992
790 965
790 829
790 935
790 926
790 920
790 989
790 889
790 841
790 895
790 924
790 899
790 960
790 928
790 908
790 934
790 967
791 850
791 807
791 851
791 863
791 801
791 994
791 828
792 801
792 940
792 995
792 862
792 930
792 975
793 835
793 825
793 886
793 992
794 879
794 869
794 816
794 810
794 817
794 823
794 827
794 919
794 832
795 937
795 977
795 827
795 964
795 952
795 828
795 985
795 976
795 870
795 817
795 919
795 927
795 993
795 939
795 996
796 948
796 836
796 883
796 820
797 827
797 919
797 936
797 995
797 930
798 911
798 949
799 803
799 835
799 884
799 830
800 897
800 889
800 908
800 934
800 901
801 997
801 814
801 980
801 861
801 985
801 940
801 842
801 883
801 826
801 927
801 843
801 995
801 806
802 823
802 896
802 900
802 819
802 882
802 997
803 817
803 958
803 825
803 903
803 865
803 896
803 811
803 936
803 873
803 995
803 912
803 857
803 890
804 831
804 884
804 821
804 901
805 847
805 832
805 872
806 845
806 933
806 908
806 945
806 855
807 880
807 960
807 822
807 857
807 851
807 967
807 994
808 929
808 946
808 978
808 899
808 987
809 823
809 921
809 853
809 948
809 841
809 860
809 962
809 881
809 827
809 954
809 896
809 959
809 826
809 851
809 884
810 827
810 964
810 853
810 819
810 817
810 823
810 919
810 961
810 848
811 835
811 813
811 943
811 890
811 999
811 872
811 948
811 886
811 877
812 813
812 859
813 919
813 982
813 936
813 881
813 847
813 835
813 886
813 880
813 992
813 975
814 919
814 979
814 884
814 947
814 948
814 842
814 980
814 985
814 994
814 996
815 840
815 921
815 991
815 944
815 832
815 896
815 863
816 982
816 934
816 885
817 937
817 824
817 952
817 914
817 969
817 833
817 840
817 922
817 823
817 827
817 854
817 835
817 844
817 960
818 842
818 857
818 918
818 924
818 955
818 993
818 950
818 821
819 955
820 874
820 946
820 850
820 824
820 843
820 849
820 867
821 879
821 965
821 926
821 844
821 848
821 920
821 935
821 901
821 891
821 886
821 896
821 997
821 892
821 854
821 826
821 969
821 831
821 943
821 825
821 992
822 885
822 950
822 983
822 857
822 964
823 824
823 977
823 856
823 969
823 915
823 941
823 919
823 850
823 912
824 961
824 839
825 903
825 835
825 874
825 864
825 877
825 946
825 890
825 936
825 857
826 868
826 980
826 997
826 961
826 836
826 842
826 994
826 995
827 937
827 927
827 969
827 919
827 929
827 964
827 860
827 998
827 917
827 926
828 863
828 892
828 930
828 975
829 926
829 871
829 854
829 916
829 975
829 882
829 912
829 992
829 960
829 974
830 902
830 965
830 980
830 994
831 883
831 851
831 863
832 958
832 925
833 988
833 866
833 876
833 963
834 837
834 913
834 879
834 881
834 949
835 874
835 968
835 979
835 936
835 958
835 864
835 886
835 846
835 997
835 842
835 878
835 901
835 839
835 851
835 920
835 885
836 961
836 926
837 969
837 882
837 982
837 915
837 966
837 878
838 846
838 948
839 965
840 851
840 967
840 844
840 888
840 930
840 950
841 917
841 975
841 925
841 880
841 884
841 931
842 884
842 997
842 941
842 994
842 861
842 883
842 970
842 991
842 985
842 980
842 982
842 925
842 973
842 926
842 959
843 872
843 987
844 851
844 983
845 904
845 975
845 962
845 967
845 888
845 892
845 950
846 886
846 852
847 863
847 884
847 948
847 916
847 850
847 891
847 870
847 968
847 859
848 908
848 927
848 901
848 926
848 878
849 876
849 959
850 886
850 858
850 895
850 946
850 905
850 947
850 860
850 919
850 909
850 974
851 873
851 967
851 915
851 921
851 887
851 948
851 884
851 911
851 929
851 917
851 979
851 890
851 863
852 882
852 976
852 895
852 975
854 872
854 974
854 857
854 914
854 930
855 882
855 895
855 905
855 946
856 874
856 923
856 919
856 867
856 960
857 964
857 863
857 974
857 924
857 955
857 943
857 897
857 996
857 900
858 976
858 891
858 894
858 990
858 965
858 996
859 956
859 975
860 935
861 922
861 985
862 994
862 978
862 909
862 878
862 910
862 952
862 867
863 967
863 895
863 990
863 948
863 935
863 874
863 927
863 892
863 907
863 884
863 997
863 930
864 957
864 975
864 899
865 891
865 894
865 998
865 987
865 892
866 880
866 992
867 885
867 947
867 987
868 873
868 986
868 934
868 981
868 980
868 942
868 979
868 920
869 930
870 921
870 892
870 930
871 884
872 902
872 919
872 926
872 949
873 981
873 971
873 943
873 978
874 905
874 959
875 971
876 914
876 987
876 882
876 877
877 881
878 914
878 975
878 987
879 916
879 963
879 959
879 890
879 881
879 994
880 931
880 942
880 980
880 997
880 935
881 963
881 916
881 999
881 936
881 938
882 893
882 896
882 933
882 916
882 970
882 894
882 901
883 994
883 899
884 921
884 990
884 967
884 931
884 915
884 898
884 909
885 906
886 982
886 890
886 963
886 929
886 936
887 919
887 990
888 929
888 950
888 975
888 904
888 905
888 919
888 977
888 968
889 930
889 975
890 952
890 980
891 894
891 997
891 965
892 942
892 932
892 904
892 945
892 985
892 902
892 911
892 930
892 975
893 903
893 974
894 976
894 993
894 947
894 940
894 996
895 935
896 919
896 963
896 938
897 912
897 900
898 994
899 946
899 996
899 978
899 949
900 964
901 906
901 951
901 950
901 961
901 931
901 926
901 935
901 992
902 997
905 947
905 977
905 924
905 946
905 923
906 914
906 926
906 935
906 983
906 945
907 980
907 995
907 989
907 916
907 968
907 985
907 926
907 992
908 991
909 934
909 984
910 926
910 948
910 998
910 957
910 949
910 987
911 949
911 987
912 935
912 992
912 920
912 983
912 995
912 987
914 917
914 969
914 997
914 999
914 973
914 927
914 961
914 946
915 962
915 942
915 994
915 997
916 935
916 996
917 919
917 927
917 952
918 965
918 996
919 929
919 937
919 961
919 977
919 952
919 969
919 983
919 996
920 926
920 943
920 985
920 935
920 992
922 925
923 935
924 985
924 941
925 964
925 935
925 992
925 945
926 983
926 935
926 990
926 946
926 934
927 972
928 973
929 941
929 935
930 971
930 973
930 960
930 950
930 956
930 995
930 975
930 987
931 994
931 996
934 937
934 954
934 995
935 965
935 983
935 989
935 954
935 968
936 969
938 975
938 987
939 942
939 957
940 994
940 995
941 979
941 996
941 994
942 964
942 974
942 987
943 969
944 977
945 957
945 980
945 949
946 947
946 990
946 970
947 957
947 994
949 987
949 954
949 974
949 950
950 990
951 952
952 972
952 978
953 957
953 994
953 975
954 961
954 987
955 999
956 992
957 966
958 987
959 988
960 975
961 969
961 978
961 981
962 992
963 964
963 990
964 983
967 972
967 968
970 985
970 995
972 992
973 975
974 985
975 977
977 996
978 980
980 995
980 997
981 997
983 992
984 986
984 996
985 995
985 994
986 988
989 992
991 997
991 992
995 997
