0 1
0 5820
1 7516
2 3
2 980
2 4013
3 49
3 78
3 109
3 119
3 145
3 166
3 224
3 283
3 350
3 408
3 538
3 552
3 587
3 735
3 776
3 865
3 891
3 1042
3 1046
3 1048
3 1059
3 1060
3 1107
3 1116
3 1146
3 1275
3 1338
3 1353
3 1357
3 1393
3 1444
3 1482
3 1492
3 1612
3 1628
3 1722
3 1739
3 1756
3 1800
3 1806
3 1832
3 1877
3 1970
3 2012
3 2045
3 2074
3 2114
3 2138
3 2154
3 2173
3 2174
3 2297
3 2299
3 2309
3 2321
3 2357
3 2398
3 2430
3 2465
3 2472
3 2529
3 2561
3 2604
3 2639
3 2695
3 2757
3 2788
3 2832
3 2850
3 2869
3 2895
3 2917
3 2918
3 2992
3 3005
3 3018
3 3042
3 3053
3 3229
3 3247
3 3276
3 3325
3 3376
3 3423
3 3467
3 3475
3 3541
3 3636
3 3764
3 3858
3 3935
3 4133
3 4160
3 4190
3 4289
3 4376
3 4450
3 4460
3 4462
3 4490
3 4542
3 4564
3 4716
3 4741
3 4761
3 4970
3 4991
3 5119
3 5137
3 5149
3 5162
3 5193
3 5280
3 5282
3 5297
3 5312
3 5364
3 5380
3 5400
3 5403
3 5428
3 5454
3 5474
3 5482
3 5568
3 5646
3 5690
3 5847
3 5962
3 5990
3 5999
3 6023
3 6057
3 6145
3 6181
3 6223
3 6318
3 6420
3 6474
3 6476
3 6495
3 6577
3 6589
3 6613
3 6626
3 6627
3 6644
3 7150
3 7190
3 7250
3 7306
3 7364
3 7408
3 7618
3 7627
3 7655
3 7747
3 7829
3 7835
3 7863
4 5
4 281
4 282
4 1548
4 1549
4 2098
4 2766
4 3751
4 4067
4 5009
5 281
5 282
5 705
5 1360
5 1549
5 2098
5 4067
5 4884
5 5009
6 7
6 2090
7 1243
7 5985
8 9
8 4952
9 233
9 314
9 597
9 665
9 727
9 780
9 853
9 932
9 1105
9 1115
9 1132
9 1237
9 1262
9 1481
9 1776
9 2135
9 2136
9 2197
9 2436
9 2560
9 2615
9 2650
9 2774
9 2781
9 2828
9 2842
9 2855
9 2993
9 3128
9 3149
9 3250
9 3287
9 3405
9 3413
9 3479
9 3499
9 3949
9 4060
9 4130
9 4232
9 4282
9 4356
9 4449
9 4740
9 4986
9 5021
9 5023
9 5295
9 6121
9 6152
9 6217
9 6219
9 6286
9 6303
9 6843
9 7059
9 7127
9 7240
9 7746
10 11
10 3441
11 4824
12 13
12 5819
13 1626
13 5311
14 15
14 3982
14 7168
15 601
15 2207
15 7438
16 17
16 130
17 6724
18 19
18 2071
19 354
20 21
20 1557
21 4446
22 23
23 1138
23 2709
23 3151
23 4834
23 5100
23 5219
23 5771
23 6774
23 7478
24 25
24 7066
26 27
26 1628
27 95
27 130
27 319
27 953
27 1253
27 4946
28 29
28 1710
28 5598
29 126
29 145
29 275
29 552
29 788
29 1207
29 1952
29 2499
29 2513
29 2555
29 3228
29 3760
29 4165
29 5261
29 5699
29 5746
29 6403
29 6525
29 7189
29 7719
30 31
30 3557
30 7038
31 4357
31 6157
32 33
32 1614
33 1741
33 5552
34 35
34 4042
34 6035
35 514
35 1229
35 1321
35 1323
35 1673
35 1859
35 2303
35 3255
35 4606
35 5013
35 6035
35 7023
35 7607
36 37
36 1449
38 39
38 5164
39 4238
40 41
40 6937
41 925
41 5471
42 43
42 854
42 1925
43 2217
43 3977
44 45
44 795
45 2859
46 47
46 637
47 76
47 129
47 235
47 277
47 288
47 305
47 411
47 767
47 848
47 1099
47 1300
47 1301
47 1801
47 1868
47 1882
47 1977
47 2203
47 2975
47 3010
47 3313
47 3314
47 3344
47 3561
47 3919
47 4027
47 4279
47 4981
47 5066
47 5083
47 5111
47 5355
47 5367
47 6065
47 6163
47 6350
47 6762
47 7032
47 7092
47 7122
47 7317
47 7337
47 7432
47 7506
47 7542
47 7635
47 7656
47 7688
47 7788
47 7797
48 49
48 1327
49 2321
50 51
50 345
50 2614
51 3776
52 53
52 4341
53 953
53 1924
53 5914
53 6220
54 55
55 6740
56 57
56 75
57 7705
58 59
58 123
58 4680
60 61
60 1065
60 2995
61 73
61 148
61 161
61 234
61 246
61 274
61 280
61 335
61 337
61 405
61 438
61 448
61 488
61 489
61 533
61 690
61 711
61 722
61 836
61 862
61 992
61 1027
61 1106
61 1123
61 1383
61 1408
61 1687
61 1691
61 1964
61 1980
61 2013
61 2014
61 2028
61 2056
61 2212
61 2232
61 2277
61 2311
61 2347
61 2405
61 2415
61 2423
61 2628
61 2668
61 2755
61 3006
61 3077
61 3093
61 3179
61 3252
61 3267
61 3288
61 3410
61 3471
61 3473
61 3571
61 3638
61 3769
61 3951
61 4044
61 4198
61 4392
61 4519
61 4601
61 4657
61 4912
61 4976
61 5001
61 5031
61 5073
61 5084
61 5088
61 5110
61 5115
61 5166
61 5175
61 5205
61 5305
61 5407
61 5416
61 5433
61 5619
61 5659
61 5719
61 5846
61 5857
61 5906
61 6054
61 6101
61 6142
61 6209
61 6345
61 6399
61 6642
61 6823
61 6880
61 6940
61 7036
61 7159
61 7202
61 7239
61 7422
61 7521
61 7666
61 7731
62 63
62 4699
63 130
63 3883
64 65
65 4915
66 67
66 708
66 3992
67 4354
68 69
68 3072
70 71
70 5233
72 73
72 412
72 6603
73 6032
74 75
74 1300
74 1882
74 3344
74 4279
74 5629
75 103
75 104
75 144
75 153
75 256
75 306
75 406
75 591
75 637
75 679
75 681
75 729
75 802
75 849
75 859
75 860
75 873
75 1250
75 1287
75 1310
75 1311
75 1379
75 1381
75 1432
75 1517
75 1522
75 1622
75 1666
75 1711
75 1733
75 1736
75 1869
75 1908
75 1926
75 1937
75 2089
75 2294
75 2355
75 2391
75 2482
75 2585
75 2680
75 2862
75 2931
75 2932
75 2951
75 2958
75 2970
75 3481
75 3648
75 3659
75 3697
75 3725
75 3755
75 3834
75 3837
75 3861
75 3862
75 3864
75 3903
75 3909
75 3996
75 4028
75 4033
75 4077
75 4087
75 4264
75 4306
75 4349
75 4350
75 4351
75 4433
75 4456
75 4501
75 4539
75 4637
75 4653
75 4876
75 4897
75 5114
75 5159
75 5208
75 5243
75 5269
75 5389
75 5419
75 5490
75 5566
75 5577
75 5603
75 5717
75 5778
75 5800
75 5841
75 5887
75 6107
75 6192
75 6206
75 6338
75 6351
75 6564
75 6568
75 6618
75 6659
75 6690
75 6746
75 6828
75 6928
75 6939
75 6995
75 7029
75 7033
75 7077
75 7084
75 7111
75 7123
75 7180
75 7252
75 7284
75 7338
75 7350
75 7365
75 7441
75 7527
75 7551
75 7564
75 7660
75 7667
75 7762
75 7852
75 7853
75 7875
76 305
77 78
77 7339
78 3757
79 80
80 389
81 82
81 6753
82 1835
83 84
83 2809
84 6296
85 86
85 3058
85 5575
86 113
86 155
86 194
86 196
86 234
86 259
86 324
86 399
86 503
86 504
86 656
86 673
86 747
86 750
86 768
86 889
86 927
86 958
86 1007
86 1205
86 1240
86 1312
86 1325
86 1350
86 1500
86 1534
86 1756
86 1835
86 2006
86 2129
86 2158
86 2170
86 2181
86 2183
86 2198
86 2240
86 2366
86 2493
86 2505
86 2541
86 2575
86 2647
86 2747
86 2786
86 2794
86 2946
86 3111
86 3185
86 3198
86 3406
86 3417
86 3477
86 3545
86 3614
86 3688
86 3776
86 3797
86 3810
86 3907
86 3931
86 3944
86 3995
86 4003
86 4021
86 4164
86 4372
86 4638
86 4659
86 4907
86 4920
86 4963
86 4965
86 5028
86 5101
86 5123
86 5207
86 5405
86 5698
86 5827
86 6084
86 6375
86 6669
86 6691
86 6698
86 6767
86 6875
86 6959
86 6960
86 6965
86 7011
86 7064
86 7165
86 7172
86 7212
86 7333
86 7381
87 88
87 5438
87 6780
88 2619
88 2779
89 90
89 4004
89 6429
90 121
90 128
90 168
90 195
90 248
90 394
90 487
90 496
90 523
90 526
90 530
90 563
90 595
90 597
90 632
90 642
90 645
90 709
90 710
90 760
90 777
90 779
90 823
90 869
90 945
90 954
90 976
90 1030
90 1041
90 1143
90 1146
90 1178
90 1215
90 1238
90 1279
90 1299
90 1320
90 1354
90 1551
90 1662
90 1704
90 1793
90 1804
90 1858
90 1883
90 1922
90 1955
90 1969
90 1983
90 2214
90 2383
90 2427
90 2428
90 2458
90 2476
90 2803
90 2817
90 2842
90 2873
90 2924
90 2927
90 2993
90 3041
90 3127
90 3274
90 3291
90 3534
90 3551
90 3619
90 3706
90 3711
90 3848
90 3849
90 3922
90 3986
90 4004
90 4037
90 4072
90 4106
90 4149
90 4200
90 4249
90 4321
90 4500
90 4507
90 4608
90 4782
90 4846
90 4868
90 4908
90 4928
90 4950
90 4958
90 5008
90 5058
90 5064
90 5135
90 5154
90 5250
90 5291
90 5439
90 5678
90 5707
90 5730
90 5734
90 5878
90 5909
90 5933
90 5954
90 6006
90 6017
90 6127
90 6241
90 6247
90 6278
90 6290
90 6297
90 6344
90 6349
90 6356
90 6388
90 6490
90 6566
90 6586
90 6637
90 6758
90 6883
90 6993
90 7063
90 7083
90 7144
90 7203
90 7283
90 7310
90 7391
90 7534
90 7565
90 7662
90 7707
90 7741
90 7809
90 7817
91 92
91 7453
92 3323
92 3921
93 94
93 4353
93 4672
94 7730
95 96
95 142
95 279
95 815
95 1313
95 1667
95 2272
95 4204
95 4561
95 5278
95 5893
95 7232
96 142
97 98
97 1103
98 227
99 100
99 6578
100 3103
101 102
101 5755
101 7691
102 3041
102 3845
102 4764
103 104
103 2355
104 1381
105 106
105 1821
105 7552
106 5116
107 108
107 1637
107 3615
108 721
109 110
109 136
110 429
111 112
111 358
111 3340
112 193
112 4670
113 114
113 4910
114 2909
114 6308
115 116
115 5557
116 3230
117 118
117 2899
118 2608
119 120
119 4900
120 4462
121 122
121 1411
122 7472
123 1994
123 2376
123 3362
124 125
124 7280
125 2512
125 3662
126 127
126 2973
127 2755
128 6128
130 131
130 132
130 141
130 167
130 173
130 180
130 187
130 200
130 208
130 236
130 240
130 245
130 252
130 351
130 375
130 426
130 427
130 443
130 476
130 553
130 577
130 596
130 611
130 615
130 616
130 627
130 678
130 698
130 728
130 730
130 753
130 759
130 827
130 847
130 855
130 861
130 902
130 938
130 947
130 997
130 1037
130 1042
130 1054
130 1085
130 1097
130 1110
130 1138
130 1147
130 1162
130 1184
130 1193
130 1209
130 1248
130 1276
130 1289
130 1341
130 1351
130 1355
130 1367
130 1370
130 1386
130 1476
130 1477
130 1516
130 1557
130 1601
130 1604
130 1669
130 1674
130 1677
130 1697
130 1730
130 1828
130 1829
130 1851
130 1855
130 1856
130 1899
130 1915
130 1931
130 1943
130 2015
130 2018
130 2026
130 2027
130 2033
130 2044
130 2060
130 2156
130 2208
130 2211
130 2220
130 2223
130 2253
130 2278
130 2282
130 2319
130 2322
130 2326
130 2365
130 2397
130 2420
130 2448
130 2497
130 2508
130 2511
130 2545
130 2630
130 2676
130 2700
130 2712
130 2725
130 2797
130 2805
130 2806
130 2822
130 2830
130 2845
130 2893
130 2899
130 2908
130 2914
130 2950
130 2988
130 3078
130 3129
130 3143
130 3146
130 3160
130 3205
130 3211
130 3245
130 3271
130 3304
130 3326
130 3367
130 3373
130 3436
130 3438
130 3460
130 3500
130 3553
130 3591
130 3663
130 3673
130 3730
130 3784
130 3803
130 3825
130 3826
130 3829
130 3850
130 3854
130 3958
130 3964
130 3987
130 4065
130 4075
130 4089
130 4115
130 4120
130 4168
130 4205
130 4280
130 4309
130 4329
130 4346
130 4360
130 4363
130 4366
130 4409
130 4419
130 4425
130 4443
130 4515
130 4559
130 4587
130 4614
130 4684
130 4694
130 4749
130 4785
130 4807
130 4818
130 4819
130 4821
130 4827
130 4889
130 4961
130 4967
130 4971
130 4974
130 4988
130 4990
130 5002
130 5072
130 5128
130 5157
130 5161
130 5268
130 5284
130 5365
130 5394
130 5401
130 5403
130 5426
130 5455
130 5456
130 5491
130 5497
130 5546
130 5548
130 5695
130 5702
130 5715
130 5746
130 5749
130 5761
130 5784
130 5798
130 5825
130 5834
130 5843
130 5861
130 5870
130 5919
130 5936
130 5995
130 6039
130 6048
130 6051
130 6060
130 6149
130 6231
130 6268
130 6310
130 6352
130 6372
130 6380
130 6392
130 6442
130 6466
130 6473
130 6482
130 6487
130 6502
130 6514
130 6551
130 6573
130 6578
130 6607
130 6663
130 6664
130 6686
130 6730
130 6769
130 6779
130 6810
130 6812
130 6813
130 6815
130 6832
130 6903
130 6964
130 7010
130 7022
130 7060
130 7074
130 7236
130 7244
130 7303
130 7330
130 7377
130 7437
130 7554
130 7609
130 7641
130 7648
130 7654
130 7692
130 7732
130 7759
130 7792
130 7822
130 7845
130 7862
132 133
133 792
134 135
135 315
135 4466
136 6821
137 138
137 4724
138 3495
138 5053
139 140
139 5185
139 7813
140 388
142 143
142 279
142 815
142 2272
142 4204
142 4561
142 5278
142 5509
142 5615
142 5893
142 7232
142 7583
145 146
145 229
145 245
145 310
145 455
145 577
145 708
145 1080
145 1226
145 1459
145 1531
145 2053
145 2361
145 2630
145 2775
145 3059
145 3326
145 4974
145 5354
145 5362
145 5996
145 7178
145 7295
145 7301
145 7424
145 7739
146 1989
147 148
147 7700
149 150
149 624
150 7791
151 152
151 6521
152 3362
152 6703
153 154
155 156
155 5170
156 2111
156 5342
157 158
157 6218
158 563
158 684
158 4079
159 160
159 2670
159 2897
159 3392
159 7415
160 1176
160 1231
160 3733
160 4752
161 162
161 4765
162 7728
163 164
163 4812
163 6727
164 3879
164 4073
165 166
165 6798
167 3085
168 169
168 5614
169 2903
169 3582
170 171
170 4657
170 7388
171 981
171 3585
172 173
172 2579
172 3873
173 612
173 1625
173 1957
173 2448
173 2987
173 7616
173 7839
174 175
175 1172
175 3368
176 177
177 7081
178 179
178 4264
180 181
181 7768
182 183
183 1348
183 5497
184 185
184 789
184 1031
185 1271
185 1807
185 6289
186 187
186 924
186 5390
187 560
187 611
187 997
187 1069
187 1429
187 1574
187 1740
187 2048
187 2049
187 2108
187 2582
187 3852
187 4246
187 4387
187 4484
187 5273
187 5410
187 5546
187 5580
187 5811
187 5907
187 6232
187 6268
187 6408
187 6536
188 189
188 394
189 3853
189 7734
190 191
190 987
190 2853
192 193
193 998
193 2747
194 1500
194 3723
195 196
196 3946
197 198
198 3426
199 200
199 1088
199 1417
199 2542
200 412
201 202
202 505
202 5301
202 7390
203 204
203 1795
203 7550
204 4573
204 7126
205 206
205 5454
206 5234
207 208
207 3845
208 234
208 495
208 500
208 916
208 1138
208 1550
208 1659
208 1902
208 2202
208 2267
208 2268
208 2390
208 2563
208 2797
208 3158
208 4313
208 4615
208 4684
208 4688
208 4817
208 5418
208 5549
208 6343
208 6839
208 6946
208 7146
209 210
209 684
209 3742
210 257
210 2463
211 212
211 6706
212 238
212 5175
213 214
213 1090
213 7106
214 827
214 6413
215 216
215 460
215 471
215 1319
215 2247
215 3318
215 3894
217 218
217 6114
218 1209
218 3135
219 220
219 608
219 3708
220 301
220 7683
221 222
221 2573
222 7225
223 224
223 2418
225 226
225 4000
226 3743
226 3780
227 228
228 6273
229 230
230 6962
231 232
231 3733
232 3020
233 2149
233 3844
234 847
234 881
234 1665
234 1830
234 2740
234 3387
234 4439
234 6621
236 693
236 1037
236 3553
237 238
237 2424
237 6760
238 353
238 379
238 435
238 683
238 741
238 839
238 887
238 928
238 966
238 1196
238 1278
238 1635
238 1681
238 1815
238 2070
238 2236
238 2367
238 2381
238 2706
238 2715
238 2796
238 2830
238 2973
238 3054
238 3397
238 3453
238 3485
238 3550
238 3575
238 3599
238 3621
238 3853
238 3995
238 4008
238 4098
238 4601
238 4660
238 4806
238 5228
238 5533
238 5579
238 5828
238 6093
238 6202
238 6317
238 7001
238 7405
239 240
240 3352
240 5444
240 7379
241 242
241 1658
241 1988
242 325
242 412
243 244
244 2052
244 3068
245 4859
246 247
246 984
248 249
249 2872
250 251
250 6803
251 5067
251 7590
252 253
252 6518
253 4521
254 255
254 4317
256 4876
257 258
257 5283
258 1467
258 3343
259 1095
259 4296
259 5475
260 261
260 5757
260 6585
261 1905
261 3762
262 263
262 1603
262 6604
263 2735
264 265
264 6012
264 7302
265 545
265 3786
265 4154
265 5238
265 5384
266 267
266 925
266 7821
267 6239
267 6301
268 269
268 2257
268 6288
269 494
269 7227
270 271
270 1169
271 872
271 1995
271 2549
271 7748
272 273
272 620
273 4148
275 276
276 588
276 973
276 1451
277 3622
278 279
278 630
278 1987
278 2101
278 2315
278 3145
278 6035
279 4088
279 4302
280 3821
280 6974
281 282
281 304
281 1009
281 1549
282 304
282 1409
282 2079
282 2098
282 2261
282 3073
283 6799
284 285
284 670
284 1425
285 6139
286 287
286 4816
287 2869
287 3257
288 1301
288 4279
289 290
289 457
289 6597
290 6791
291 292
291 4751
292 3374
292 4224
292 5263
293 294
293 345
293 1204
294 4646
295 296
295 2483
295 2731
295 4710
296 693
296 1988
296 5765
297 298
297 5194
298 680
298 7162
299 300
299 348
300 4654
301 800
301 2106
302 303
302 2764
303 3887
304 1008
304 1009
304 1547
304 1549
304 2098
304 2766
304 6672
306 307
308 309
308 699
308 5743
309 601
311 312
311 4147
311 6252
312 1652
312 7125
313 314
313 383
314 2182
315 7306
316 317
316 6739
317 7507
318 319
318 3653
319 3326
319 7145
320 321
320 2963
321 4777
322 323
323 370
323 816
323 1101
323 1951
323 2771
323 3172
323 3523
323 3590
323 3807
323 4022
323 4294
323 4700
323 4703
323 4798
323 4803
323 5077
323 5741
323 6154
323 6326
323 6340
323 6734
323 6909
323 7138
323 7206
323 7312
323 7584
323 7596
323 7640
323 7738
323 7784
323 7841
324 2125
324 5338
325 326
325 2064
325 3016
325 6008
326 3159
327 328
327 5840
328 3699
329 330
329 472
330 2480
330 3509
330 5422
331 332
331 4735
332 1976
333 334
333 2812
334 1337
334 2096
334 2512
335 5334
336 337
336 5290
337 7411
338 339
338 5584
339 3081
339 5618
340 341
340 3432
341 2000
342 343
342 4590
342 6301
343 4263
343 6252
344 345
344 503
344 6349
345 631
345 770
345 1040
345 1230
345 1410
345 1419
345 2038
345 3705
345 4907
345 5541
345 5589
345 5694
345 6283
345 6383
345 7569
346 347
346 3818
347 2161
348 2697
349 350
349 866
351 352
351 7832
352 1852
352 2337
353 600
353 2795
354 5617
355 356
355 464
356 3806
357 358
357 2722
359 360
359 379
359 2879
360 2748
361 362
361 3016
362 4591
363 364
363 2404
364 3341
365 366
365 1138
365 4397
365 6262
366 4812
366 5035
367 368
367 4578
368 4812
369 370
369 742
370 636
370 1309
370 1398
370 1696
370 2087
370 2100
370 2457
370 3480
370 5210
370 5330
370 5723
370 5858
370 6000
370 6342
370 7102
370 7334
370 7601
370 7827
371 372
372 4269
373 374
373 2821
374 3805
375 376
375 393
375 595
375 1080
375 1290
375 1865
375 2206
375 3399
375 4395
375 6141
375 7843
376 6105
377 378
377 2865
377 5874
378 2163
378 4336
378 5619
379 5064
380 381
380 441
380 1934
380 2140
380 3255
381 1934
381 6002
382 383
382 676
382 961
383 424
383 501
383 1162
383 1563
383 2328
383 3191
383 3287
383 3720
383 4714
383 6991
383 7331
384 385
384 3612
385 2081
385 6738
386 387
386 1355
387 4677
388 389
389 568
389 570
389 1058
389 1324
389 1449
389 1772
389 2086
389 3131
389 3395
389 3934
389 5118
389 5476
389 5478
389 5842
389 5918
389 6728
389 6744
389 6819
389 7009
390 391
390 705
390 5744
391 4387
392 393
392 2780
392 5820
394 2368
395 396
395 5348
395 5568
396 4426
397 398
397 5282
397 6458
398 5810
398 6129
399 400
400 2284
400 4320
400 6669
401 402
402 2744
403 404
403 1086
403 3193
404 434
405 2486
405 4154
407 408
407 2783
408 1565
409 410
409 960
410 4179
410 4380
412 3404
413 414
413 3532
413 6719
414 1066
415 416
415 1489
415 5764
416 3999
416 4710
416 5764
417 418
417 1208
417 1617
419 420
419 3191
419 4002
420 518
420 2816
421 422
421 5034
422 5922
423 424
423 830
423 1601
423 1794
423 2234
423 2715
423 3522
423 3671
423 4085
423 5356
423 6807
424 1839
424 2091
424 3194
424 3969
424 4083
424 4526
424 4864
424 5949
424 6587
424 7500
424 7549
425 426
425 2991
425 6095
425 7251
426 492
426 524
426 624
426 1228
426 1728
426 2282
426 2794
426 3275
426 3660
426 3684
426 3878
426 3885
426 4547
426 4571
426 4880
426 5430
426 6211
426 6545
426 7311
426 7877
427 428
428 3524
430 431
430 5482
431 7876
432 433
432 7868
433 2608
434 435
434 479
435 1219
435 2702
436 437
437 988
437 7404
438 3781
438 6754
438 7457
439 440
439 747
440 3580
441 442
441 566
441 630
441 1296
441 1322
441 1748
441 2112
441 2302
441 3457
441 3691
441 3892
441 3938
441 4230
441 4416
441 5673
441 5780
442 1229
443 444
443 2063
443 3553
443 4366
444 1088
444 1988
444 1992
444 2522
444 2731
444 3348
444 4990
445 446
446 2518
446 3711
446 6407
447 448
447 4449
448 1278
449 450
449 5547
450 3386
450 3387
451 452
451 458
452 812
453 454
453 5525
454 4388
456 457
456 5132
457 1209
459 460
460 4790
461 462
461 4186
462 732
462 1327
462 1515
462 2218
462 3135
462 3631
462 3774
462 4259
462 5397
462 5994
462 6112
462 6159
462 7316
462 7418
462 7714
463 464
463 1844
463 5587
465 466
465 4745
465 6171
466 1726
467 468
468 971
468 1100
468 2399
468 5860
468 6721
468 7080
469 470
469 5988
470 3207
470 4794
471 2803
472 473
472 586
472 1286
473 784
473 868
473 2731
474 475
474 4480
475 4966
476 5513
477 478
477 5070
478 2995
479 2982
480 481
480 534
481 899
482 483
482 2667
482 2737
483 2128
483 7221
484 485
484 4440
485 6609
486 487
486 2532
487 1292
488 489
488 1132
488 7576
489 6974
489 7860
490 491
490 1710
490 2632
491 6389
492 7861
493 494
493 913
493 4275
494 2257
495 4428
495 7708
496 497
496 1955
497 1896
497 4839
498 499
499 1197
499 3476
501 502
502 3915
503 504
504 4180
506 507
506 4905
507 583
508 509
508 5324
510 511
510 7570
511 4341
512 513
512 4389
512 6320
513 741
514 2213
514 7607
515 516
515 742
516 675
516 900
516 2112
516 2178
516 2246
516 2824
516 3616
516 4535
516 4948
516 5479
516 6187
516 6248
517 518
517 918
518 5868
519 520
519 3235
519 3387
520 2401
520 3792
521 522
521 5342
522 6956
523 7803
524 525
524 7865
525 1886
526 527
526 7147
526 7237
527 3106
528 529
528 6691
530 531
530 4880
531 2240
532 533
532 5640
534 1828
535 536
535 3291
535 6383
536 598
536 638
537 538
537 6377
539 540
540 1231
540 6210
541 542
541 4111
541 7222
542 2813
542 6449
543 544
543 5411
544 7857
545 646
545 3987
546 547
546 7217
547 4324
548 549
548 3599
549 878
550 551
550 6826
551 3289
551 3700
552 553
552 2005
553 2035
554 555
555 1714
555 1796
555 2142
556 557
556 6824
556 7125
557 3564
557 5406
558 559
558 2993
560 2758
560 4509
561 562
562 1999
562 4764
562 5862
563 6153
564 565
564 6385
565 2102
565 3394
566 567
566 1031
567 1032
567 1667
567 3892
567 4230
567 4416
567 5146
567 5153
567 5673
567 6598
568 3823
569 570
569 7374
570 5751
571 572
571 2762
571 3036
571 7820
572 2288
572 7043
573 574
573 2293
573 6546
574 5930
575 576
576 850
576 1583
576 2599
576 2978
576 5954
578 579
578 4818
580 581
580 1085
580 1453
580 5376
581 4562
582 583
582 5481
583 1538
583 2901
583 2985
584 585
585 3476
585 5460
586 2522
586 2542
586 6497
587 5806
588 933
588 5918
589 590
589 2703
589 7062
590 833
591 592
591 1801
592 3296
592 4087
593 594
593 3186
593 3748
594 3578
594 7704
595 596
595 1456
595 1756
595 1767
595 3013
595 3212
596 874
596 951
596 1644
596 1693
596 2553
596 3041
596 3302
596 3744
596 4327
596 4631
596 5029
596 5156
596 6044
596 6411
596 6529
596 7321
596 7544
597 776
597 1015
597 3479
597 4110
597 5368
597 7793
598 933
598 4861
599 600
599 2739
599 3163
600 3743
602 603
602 2974
603 3556
604 605
605 1318
605 7073
605 7368
606 607
607 1090
607 3900
607 5894
608 6395
609 610
609 3736
612 1766
612 4171
613 614
613 3008
613 3492
613 4001
613 4240
614 2625
614 6345
615 616
616 3205
616 6392
616 7403
617 618
617 1705
618 2925
619 620
619 1723
619 4208
620 1097
621 622
621 3572
623 624
624 780
624 2842
624 7871
625 626
625 896
625 6604
627 2837
628 629
629 953
630 1142
630 1321
630 1755
630 1859
630 3681
630 3766
630 4042
630 5543
631 632
632 1704
633 634
633 3407
633 5532
634 2717
635 636
636 2854
636 3563
636 3635
636 4560
636 4797
636 5688
636 6701
636 6797
636 7175
636 7567
636 7828
638 639
638 649
639 1802
639 4709
639 6216
639 6740
640 641
641 2417
641 5560
642 643
642 1916
642 7110
643 5533
644 645
644 4815
645 4174
647 648
647 4640
647 5548
648 5047
649 650
649 7498
650 2095
651 652
651 936
652 6985
653 654
653 4357
653 6934
654 4371
654 4731
655 656
655 3621
655 4457
656 5559
657 658
657 6269
658 794
658 6859
659 660
660 2263
660 3033
661 662
661 5252
662 1843
663 664
663 4117
664 4243
664 6667
665 666
665 7869
666 4490
667 668
667 1248
667 1319
668 940
668 4313
669 670
670 2291
670 3478
670 5062
670 6852
670 7368
670 7710
671 672
672 2419
674 675
674 2177
674 6330
675 4257
676 677
677 2933
678 4241
680 2978
680 7197
681 682
682 1774
684 3997
685 686
685 3009
685 3873
686 4500
686 7816
687 688
688 6257
688 7624
689 690
689 1740
689 2055
690 2559
691 692
691 4695
693 1054
693 4517
693 5921
694 695
694 5436
694 7541
695 2691
695 4094
696 697
696 4112
699 1777
699 2065
699 2514
699 4169
700 701
700 2435
701 783
701 2808
701 3233
701 4822
702 703
702 2191
702 6228
703 4233
703 7608
704 705
705 1131
705 1256
705 1636
705 1864
705 2700
705 2758
705 3000
705 3337
705 3388
705 3594
705 3939
705 4345
705 4446
705 4518
705 4821
705 5443
705 5503
705 5738
705 5848
705 5932
705 6269
705 6401
705 6770
705 6817
705 6820
705 7536
705 7773
706 707
706 1730
706 2804
707 1445
707 5198
709 710
709 3726
710 5381
711 712
711 5597
712 6838
713 714
713 7502
714 1407
715 716
715 7140
716 7121
717 718
717 6156
717 6364
718 4548
719 720
719 6037
720 2928
721 1141
721 4520
722 4857
722 6682
723 724
723 791
723 2019
723 6335
724 2546
725 726
725 5834
727 1107
727 2365
728 1634
729 1310
729 1381
730 731
731 3262
732 733
732 6463
732 6679
733 3212
733 7855
734 735
734 6854
735 4704
736 737
737 5210
738 739
738 1763
739 1818
740 741
741 1333
741 2790
741 4873
741 5266
741 6902
741 7392
742 2245
742 2887
742 3616
742 4420
742 6187
743 744
743 5448
744 7382
745 746
745 953
746 1953
746 4768
747 750
748 749
749 2722
750 2796
751 752
751 4977
753 6096
753 6630
753 7649
754 755
754 2570
755 1602
756 757
757 5171
758 759
759 1051
759 1950
759 2334
759 3511
759 3963
759 4496
759 5395
759 5396
759 6314
759 7215
759 7622
760 4789
761 762
761 3447
761 6130
762 5467
763 764
763 4392
764 4936
765 766
765 1295
765 2814
765 4057
766 5737
766 7485
768 769
768 2817
769 6488
770 771
771 3241
772 773
773 2852
773 7866
774 775
774 1869
775 1045
776 1353
776 3346
778 779
779 5404
781 782
781 3363
782 3868
783 1109
784 785
784 5765
785 2685
785 6455
786 787
786 3704
787 4782
789 790
789 900
789 1271
789 1296
789 1748
789 2112
789 3457
789 3938
789 4230
789 5673
789 5780
789 7513
790 1031
790 4088
791 2201
792 7781
793 794
793 3857
793 5452
795 1316
795 2139
795 3140
796 797
796 4991
797 7771
798 799
798 1831
798 2873
799 1086
799 3080
800 801
800 3207
801 4524
801 5346
802 803
804 805
804 1055
804 1171
805 2679
805 2977
805 3345
806 807
806 3385
807 7458
808 809
808 818
809 2312
809 3271
810 811
810 1655
810 7328
811 7124
812 1772
813 814
813 1652
813 4069
813 4413
817 818
818 6825
819 820
819 875
821 822
821 2019
821 4790
822 4379
822 4603
822 5312
823 824
825 826
825 2030
826 4597
827 828
828 3789
828 4616
829 830
829 4804
830 1177
830 1218
830 1338
830 1862
830 2466
830 2657
830 2922
830 3004
830 3052
830 3804
830 4231
830 4300
830 4333
830 4759
830 4835
830 4964
830 5176
830 5393
830 6242
830 6304
830 6748
830 7050
830 7770
831 832
831 933
831 7676
832 1971
833 834
834 1192
834 2397
835 836
835 3502
836 2625
837 838
837 3192
838 7139
840 841
840 2201
842 843
842 1008
842 1009
842 1360
842 1549
842 2098
842 2766
842 3073
842 5583
844 845
844 3135
845 2351
845 5963
846 847
846 4357
846 6125
847 1508
847 1597
847 1680
847 1845
847 2238
847 2410
847 2510
847 2839
847 2868
847 3595
847 3632
847 4188
847 4957
847 5315
847 5928
847 6255
847 6302
847 6835
847 7258
847 7387
848 849
851 852
851 4441
851 6263
852 4327
853 1294
853 4995
855 856
855 1695
857 858
857 4359
858 7371
859 860
859 1517
860 3834
861 2759
862 863
863 1330
863 3410
864 865
864 6056
866 5937
867 868
867 1288
867 2025
867 5558
868 1286
868 1792
869 870
870 1238
870 3274
870 3778
870 4543
870 5531
870 6657
870 7083
870 7310
870 7443
871 872
871 4768
871 4911
871 6386
872 4708
874 875
875 977
875 5000
875 6306
875 7470
876 877
876 1919
876 5864
877 6045
878 7840
879 880
879 3935
880 3612
881 1062
881 2266
882 883
882 1962
883 993
884 885
885 3482
886 887
887 6324
888 889
890 891
890 6332
892 893
893 4858
893 6822
894 895
894 3225
894 6818
896 1713
897 898
898 1049
898 2629
898 6451
899 4099
900 901
901 3497
901 3766
902 1634
903 904
903 1855
903 2033
903 5284
903 6345
903 6466
904 1189
904 2980
905 906
905 2902
906 3540
906 5109
907 908
908 1134
908 1437
908 2763
908 3707
908 4567
908 7439
908 7696
909 910
909 3036
909 4588
911 912
911 1828
912 4600
913 1227
913 5141
914 915
914 2807
915 7152
916 917
918 919
918 1466
918 1596
918 1749
918 1823
918 2477
918 2714
918 2732
918 2997
918 3242
918 4129
918 4310
918 4819
918 4881
918 4890
918 5689
918 5897
918 6034
918 6062
918 6064
918 6904
918 7409
920 921
920 5899
921 1422
921 6673
922 923
922 6431
923 4888
923 7112
924 1248
924 2034
925 6508
926 927
926 6861
928 5230
928 5350
929 930
929 1318
929 2504
930 3586
930 4059
931 932
931 3347
932 3720
932 4564
934 935
935 2439
936 3582
936 7559
937 938
937 4233
938 7328
939 940
939 6528
941 942
941 1037
941 1503
941 4517
941 7103
942 1446
942 4874
942 4990
943 944
943 4917
945 946
945 7756
946 3651
947 5736
947 7457
948 949
948 6822
949 1472
950 951
951 2194
952 953
953 1378
953 2997
953 6904
953 7758
954 955
954 6346
955 1586
955 3414
956 957
957 1012
957 1080
957 3396
959 960
960 4179
961 5281
962 963
962 2607
963 1014
963 1753
964 965
964 2613
964 7472
965 2434
966 2631
966 6275
967 968
967 6398
968 7597
969 970
970 1191
970 6523
972 973
972 3884
972 5004
973 1340
973 2360
973 2410
973 3902
973 4137
973 4718
973 5120
973 5638
974 975
975 4286
975 4937
975 5421
975 5929
975 7075
975 7543
977 1015
978 979
978 2051
978 3434
979 3967
979 4452
980 5947
982 983
982 1478
983 1102
984 3229
985 986
986 5838
988 1102
988 2906
988 6670
989 990
989 4697
989 6651
990 5308
990 6621
991 992
991 3355
991 3897
992 3248
993 994
994 3305
995 996
995 7089
996 7653
996 7729
998 3288
998 4869
999 1000
1000 1369
1000 2362
1000 4029
1001 1002
1001 4253
1003 1004
1003 5244
1004 1417
1004 1560
1005 1006
1006 6127
1006 7100
1007 4865
1007 4905
1008 1009
1008 1360
1008 1547
1008 1548
1008 2098
1008 3073
1008 3751
1009 1360
1009 1547
1009 6295
1010 1011
1010 4432
1010 4701
1012 1013
1014 2769
1015 3642
1015 4541
1015 4753
1015 5249
1015 7709
1016 1017
1016 2318
1017 2146
1017 4514
1018 1019
1018 5133
1019 5891
1020 1021
1020 3788
1021 2126
1022 1023
1022 1173
1023 3572
1024 1025
1024 7113
1025 3169
1025 4564
1026 1027
1026 1091
1026 2996
1027 2491
1028 1029
1028 4296
1029 2808
1030 6595
1031 1032
1031 1271
1031 1296
1031 1748
1031 2112
1031 3457
1031 3892
1031 3938
1031 4416
1031 5780
1031 6598
1032 1933
1032 3667
1033 1034
1033 4050
1034 1073
1035 1036
1035 3677
1037 1038
1038 1516
1038 2517
1038 5158
1039 1040
1039 5957
1039 6503
1040 2595
1043 1044
1043 3920
1043 5141
1044 6463
1044 6997
1046 1047
1046 2388
1046 4525
1047 7143
1048 3350
1048 5933
1049 1050
1049 4181
1052 1053
1052 7597
1054 1055
1054 1781
1054 3825
1055 1148
1055 2685
1056 1057
1056 6838
1057 3769
1058 6500
1059 1060
1059 7213
1060 1648
1061 1062
1061 2892
1062 1368
1062 1706
1062 2751
1062 2953
1062 3157
1062 3208
1062 3295
1062 3387
1062 4742
1062 5152
1062 5241
1062 5572
1062 5608
1062 6030
1062 6893
1062 7289
1063 1064
1063 7034
1064 3836
1065 4634
1066 3102
1066 6640
1067 1068
1067 2746
1067 5961
1068 6108
1069 4428
1069 5197
1070 1071
1070 7720
1071 3400
1071 5982
1072 1073
1072 5748
1074 1075
1074 4906
1074 5452
1076 1077
1076 3306
1076 4721
1077 2116
1078 1079
1078 2983
1078 5793
1080 1162
1080 1361
1080 1466
1080 2147
1080 2404
1080 2718
1080 2838
1080 2899
1080 2941
1080 2957
1080 3396
1080 3889
1080 4219
1080 5830
1080 6414
1081 1082
1081 1234
1082 4287
1082 4959
1083 1084
1083 4570
1086 1087
1088 1503
1088 2800
1089 1090
1089 1579
1089 3287
1090 1248
1091 1092
1092 3512
1093 1094
1093 3559
1093 7271
1095 1224
1095 5379
1096 1097
1096 3852
1096 6887
1097 2062
1097 4556
1097 4813
1098 1099
1098 1301
1099 3611
1100 1645
1102 1103
1103 1893
1104 1105
1104 3409
1105 2594
1105 7815
1107 1108
1107 7535
1108 7416
1108 7735
1109 1413
1111 1112
1111 6907
1113 1114
1113 3623
1114 5060
1115 4301
1115 7412
1116 1117
1116 2290
1117 3288
1118 1119
1118 4667
1120 1121
1120 3468
1120 5677
1122 1123
1122 3150
1122 6510
1123 5719
1124 1125
1124 4870
1124 5880
1125 5762
1126 1127
1126 6531
1128 1129
1128 5487
1129 1860
1130 1131
1130 3408
1131 1636
1132 1133
1132 2460
1134 2124
1134 3086
1135 1136
1135 3398
1137 1138
1137 1760
1137 3647
1138 1599
1138 1824
1138 2115
1138 2666
1138 3090
1138 3372
1138 3673
1138 4318
1138 4570
1138 5061
1138 5197
1138 5267
1138 6593
1138 6921
1138 7726
1138 7733
1139 1140
1139 1633
1139 2957
1139 3071
1140 5566
1141 4854
1142 1755
1142 2162
1142 2507
1142 6238
1142 6571
1143 1178
1143 2145
1144 1145
1144 1389
1144 6091
1147 1148
1147 2359
1147 2522
1147 4366
1148 1561
1148 1792
1149 1150
1149 3472
1150 1912
1150 4377
1151 1152
1151 6097
1152 1427
1153 1154
1153 3914
1154 2899
1154 4673
1155 1156
1155 5994
1156 6563
1157 1158
1157 2237
1157 2601
1158 3012
1158 5742
1159 1160
1159 6623
1160 1479
1160 2314
1161 1162
1162 1389
1162 2363
1162 2645
1162 2655
1162 2757
1162 2772
1162 3799
1162 4717
1162 4781
1162 6712
1162 7518
1162 7811
1163 1164
1163 5806
1165 1166
1165 1690
1165 5613
1166 1975
1167 1168
1167 1663
1168 4470
1169 1580
1170 1171
1170 6497
1170 7137
1171 4624
1171 5158
1172 1173
1174 1175
1174 5690
1175 5199
1178 1179
1179 3023
1180 1181
1180 1458
1180 6465
1181 5573
1181 7046
1182 1183
1182 4372
1184 1562
1185 1186
1185 2697
1186 3779
1186 5924
1187 1188
1187 4342
1188 2269
1188 2308
1188 5508
1189 2736
1189 3099
1190 1191
1191 1834
1192 7398
1193 4945
1194 1195
1194 3110
1196 6624
1197 3336
1197 5352
1197 7210
1198 1199
1198 7736
1199 6588
1200 1201
1200 1210
1200 1334
1200 2403
1201 1835
1201 2323
1201 6325
1202 1203
1202 3337
1202 4942
1203 1212
1203 4551
1203 6409
1204 5686
1204 7433
1205 1206
1205 4511
1206 5498
1206 6334
1206 7281
1207 3105
1207 3365
1208 1209
1208 2468
1209 2167
1209 2330
1209 3192
1209 3747
1209 4686
1209 5963
1210 2726
1211 1212
1211 3277
1211 4276
1212 2258
1213 1214
1213 3829
1213 5902
1215 1216
1215 3928
1216 6755
1216 7734
1217 1218
1217 2727
1217 3932
1218 3017
1219 2323
1220 1221
1220 3709
1220 7540
1221 3677
1221 5439
1222 1223
1222 2109
1222 6090
1224 4652
1225 1226
1225 3326
1226 2837
1226 4089
1227 2696
1227 5352
1228 6211
1229 3422
1229 3497
1229 3681
1229 3766
1229 5543
1229 5829
1230 1231
1230 2092
1230 5758
1230 6246
1231 2757
1231 4054
1231 6665
1232 1233
1232 1932
1233 6620
1234 3200
1235 1236
1235 3752
1236 2875
1237 4040
1239 1240
1240 4080
1240 6990
1241 1242
1241 1510
1242 5824
1243 3683
1243 5744
1244 1245
1245 2282
1245 2382
1245 6096
1246 1247
1246 1301
1247 6500
1248 1249
1248 3424
1248 5495
1248 5761
1248 6378
1248 7305
1249 3665
1251 1252
1251 2540
1251 4597
1252 3261
1252 4566
1252 7423
1253 1454
1254 1255
1255 3366
1255 4869
1256 3246
1257 1258
1257 2492
1258 1537
1259 1260
1259 2853
1260 4299
1260 5220
1261 1262
1262 4832
1263 1264
1264 3229
1265 1266
1265 1781
1265 7814
1266 1792
1266 5422
1266 7103
1267 1268
1267 4378
1268 1890
1269 1270
1269 3957
1270 2665
1272 1273
1272 2258
1272 3920
1273 3564
1273 6463
1274 1275
1274 2113
1276 1277
1277 5739
1277 7851
1278 1949
1279 1280
1279 5078
1280 3178
1281 1282
1282 1422
1282 1608
1282 4159
1282 4564
1282 6533
1282 6736
1283 1284
1283 2354
1284 1366
1285 1286
1285 4624
1287 4009
1288 2483
1288 2723
1288 3867
1289 4644
1289 5140
1290 1291
1290 7383
1291 2711
1291 6906
1292 1293
1292 4222
1293 4579
1293 6236
1294 6367
1295 1749
1295 6153
1297 1298
1297 5000
1297 5130
1298 2562
1299 1512
1299 3796
1300 1301
1300 2395
1300 7092
1301 1412
1301 1495
1301 1801
1301 1868
1301 1882
1301 1973
1301 1977
1301 1982
1301 2395
1301 2481
1301 2851
1301 3344
1301 3358
1301 3510
1301 3611
1301 3645
1301 3783
1301 4279
1301 4292
1301 4767
1301 4896
1301 4913
1301 5177
1301 5279
1301 5423
1301 5833
1301 6132
1301 6677
1301 6762
1301 7071
1301 7092
1301 7496
1301 7661
1301 7706
1301 7783
1302 1303
1302 4018
1302 5339
1303 1429
1303 6259
1304 1305
1304 1601
1304 3587
1305 3403
1306 1307
1306 3318
1307 1960
1307 2351
1307 6629
1308 1309
1309 1605
1309 4358
1309 4792
1309 6169
1309 6790
1309 7819
1310 1311
1311 3011
1312 2241
1312 5621
1313 1667
1314 1315
1314 2941
1314 7372
1316 3082
1317 1318
1320 5655
1321 4606
1322 1323
1322 2141
1323 4042
1323 6802
1324 7579
1325 3651
1325 6285
1326 1327
1326 4259
1326 6122
1328 1329
1328 5046
1331 1332
1332 4421
1332 6931
1333 5451
1335 1336
1336 3972
1337 3488
1337 3596
1338 1339
1338 3053
1338 5293
1339 1618
1339 2233
1341 1342
1342 3880
1343 1344
1343 7099
1345 1346
1345 6310
1347 1348
1347 4148
1347 5733
1348 4461
1349 1350
1350 6489
1351 1352
1352 7744
1353 1536
1353 1854
1353 2668
1354 4171
1354 4333
1355 6678
1356 1357
1356 2894
1358 1359
1358 7294
1359 2524
1359 6188
1360 1547
1360 2098
1360 2766
1360 3073
1360 6672
1362 1363
1362 2084
1362 7303
1364 1365
1364 2072
1364 3853
1365 4385
1366 4533
1368 2892
1369 2285
1369 5085
1370 6707
1371 1372
1371 7684
1372 2520
1372 2556
1373 1374
1373 6898
1375 1376
1375 3727
1375 4355
1377 1378
1377 2343
1377 4725
1379 1380
1379 1977
1379 2975
1379 7122
1380 3296
1380 5490
1381 7441
1382 1383
1382 7157
1384 1385
1384 2116
1385 2962
1386 1387
1386 4414
1387 4405
1387 5890
1388 1389
1388 5900
1390 1391
1391 5894
1391 7141
1392 1393
1392 2471
1394 1395
1394 4343
1395 2377
1396 1397
1396 4778
1397 2400
1398 1833
1399 1400
1399 1444
1400 7044
1401 1402
1401 6553
1402 6977
1403 1404
1404 4062
1405 1406
1405 4506
1406 2696
1406 2991
1406 5735
1406 7359
1407 1905
1407 7421
1408 1852
1408 4559
1409 1549
1410 1411
1413 2631
1414 1415
1414 1844
1414 2700
1415 5620
1416 1417
1416 2225
1417 4967
1418 1419
1418 5008
1419 2389
1420 1421
1420 3403
1421 5239
1422 6751
1423 1424
1424 3968
1425 1426
1425 6650
1426 5006
1427 1428
1428 5315
1429 4148
1430 1431
1430 1779
1430 3139
1431 2593
1432 6809
1433 1434
1433 4596
1435 1436
1435 6543
1435 7085
1436 2023
1436 2765
1438 1439
1438 1490
1438 3477
1439 4867
1440 1441
1440 4418
1442 1443
1443 2194
1444 4175
1445 1446
1445 6008
1446 2805
1447 1448
1447 7637
1448 7505
1449 4994
1450 1451
1450 3717
1452 1453
1452 1956
1453 7471
1454 1455
1454 7051
1454 7184
1457 1458
1457 4681
1458 3579
1459 1905
1459 4597
1460 1461
1460 1757
1460 2918
1460 5659
1461 1899
1461 5519
1462 1463
1462 4697
1463 1746
1464 1465
1464 3106
1464 5357
1466 4032
1467 4434
1467 6155
1468 1469
1468 2741
1468 6308
1469 3234
1469 6366
1470 1471
1470 6313
1471 3222
1472 1473
1473 7440
1474 1475
1474 1622
1476 2915
1477 5766
1478 5560
1478 7585
1479 1480
1480 7107
1481 1482
1482 2045
1483 1484
1483 2552
1483 2660
1484 2918
1484 5966
1484 6191
1485 1486
1485 4556
1486 1732
1486 2337
1487 1488
1487 2413
1489 7366
1490 3877
1491 1492
1491 6165
1492 1716
1493 1494
1493 3361
1494 2616
1495 7848
1496 1497
1496 5460
1497 1995
1497 3566
1498 1499
1498 5855
1499 3014
1500 1501
1501 2373
1502 1503
1502 1729
1502 2479
1502 3509
1503 4967
1504 1505
1504 1672
1504 5109
1505 1673
1505 2491
1505 6282
1506 1507
1506 2348
1506 6540
1507 4250
1508 4247
1508 4448
1509 1510
1509 2146
1510 7718
1511 1512
1511 2368
1513 1514
1513 3011
1514 2609
1515 6254
1516 3384
1517 2851
1518 1519
1518 4244
1519 2919
1519 5683
1520 1521
1520 6562
1521 6384
1521 6435
1523 1524
1523 2436
1523 3138
1525 1526
1525 3341
1525 4550
1526 2705
1527 1528
1528 2657
1528 4011
1528 4298
1528 7633
1529 1530
1529 1993
1529 5530
1530 2721
1531 4442
1532 1533
1532 2252
1532 7326
1533 1945
1534 1535
1534 6581
1535 6069
1536 5365
1536 6676
1537 1538
1539 1540
1539 6702
1541 1542
1542 2664
1542 2911
1542 4261
1542 4476
1543 1544
1544 1731
1544 3777
1545 1546
1545 5912
1546 2275
1547 1548
1547 2079
1547 3073
1547 4884
1547 6295
1549 2098
1549 2766
1549 6700
1552 1553
1553 5871
1554 1555
1554 6356
1555 2411
1555 2648
1556 1557
1556 4630
1556 4949
1557 2115
1557 2831
1557 6597
1557 7396
1558 1559
1558 2567
1558 6633
1559 1731
1559 2567
1559 3158
1559 4575
1559 5608
1560 1561
1561 2223
1563 1564
1563 3303
1564 1836
1565 3452
1566 1567
1566 2896
1567 5782
1568 1569
1568 6119
1568 7634
1569 6698
1570 1571
1570 3447
1571 6319
1572 1573
1572 2728
1572 3918
1573 5036
1574 1575
1574 4927
1575 2165
1576 1577
1576 3340
1577 7358
1578 1579
1578 7742
1579 4263
1580 1581
1580 2224
1581 2788
1582 1583
1583 2399
1583 5051
1584 1585
1584 2691
1585 2157
1586 1587
1586 4378
1588 1589
1588 3569
1589 5151
1590 1591
1590 1900
1591 5040
1592 1593
1593 3390
1594 1595
1595 6385
1595 7207
1597 1598
1597 7834
1599 1600
1599 6471
1600 2062
1601 6099
1601 6952
1602 1603
1602 3262
1603 3133
1603 3271
1604 4240
1606 1607
1606 2081
1608 6665
1609 1610
1609 3139
1609 6290
1610 2924
1611 1612
1611 3364
1612 4129
1613 1614
1613 3712
1614 1947
1615 1616
1615 4403
1615 5114
1617 1994
1617 2219
1618 1619
1618 4380
1619 2464
1619 5838
1620 1621
1620 6888
1621 3537
1623 1624
1623 6150
1624 7838
1626 2825
1626 6766
1627 1628
1628 4547
1629 1630
1629 4096
1630 2723
1630 3460
1631 1632
1631 2469
1631 3254
1632 3121
1632 4147
1634 1635
1634 5491
1634 6779
1635 2625
1636 1637
1638 1639
1638 4126
1640 1641
1640 5571
1641 2001
1642 1643
1642 5808
1643 4618
1643 6695
1644 2660
1644 6259
1646 1647
1646 2093
1647 6292
1648 1649
1648 6271
1650 1651
1650 1895
1650 5944
1651 2721
1651 7752
1652 4147
1653 1654
1653 4549
1654 3100
1656 1657
1656 1773
1657 2662
1658 4967
1658 5057
1658 5921
1659 7428
1660 1661
1661 2641
1662 5614
1663 1664
1664 5754
1664 5807
1665 2397
1665 6626
1666 3530
1667 5146
1667 5153
1668 1669
1670 1671
1670 2966
1671 3461
1672 1673
1672 3766
1674 4217
1675 1676
1675 1721
1676 6929
1677 1678
1679 1680
1679 2014
1681 2795
1681 3155
1681 3953
1681 4036
1681 5242
1681 5507
1681 6530
1682 1683
1682 3044
1683 3895
1684 1685
1684 5814
1685 3177
1686 1687
1686 6614
1687 6641
1688 1689
1688 4481
1689 2103
1689 2171
1690 4319
1690 5905
1691 3459
1691 6765
1692 1693
1693 4770
1694 1695
1696 2020
1696 3217
1696 4692
1698 1699
1698 4789
1699 1786
1699 6624
1700 1701
1700 4031
1701 2147
1701 2615
1702 1703
1702 5298
1703 4172
1704 1705
1706 1707
1707 2751
1707 2892
1707 7019
1708 1709
1708 6646
1709 2085
1710 4746
1710 6303
1711 5269
1712 1713
1712 3337
1714 1715
1714 5706
1714 7780
1715 4064
1715 4256
1716 4066
1717 1718
1717 5828
1718 6850
1719 1720
1719 5047
1719 6543
1720 4513
1720 7823
1721 2593
1722 1723
1722 5104
1724 1725
1724 6365
1725 3092
1726 1727
1727 5001
1729 1730
1729 2483
1729 7137
1731 5903
1732 5094
1733 6253
1734 1735
1734 6087
1735 3721
1736 5550
1737 1738
1737 4766
1738 3238
1739 4552
1739 7340
1740 7495
1741 1938
1741 5165
1742 1743
1742 3212
1742 4845
1743 3765
1743 4089
1744 1745
1744 4262
1746 1747
1746 7300
1749 5875
1749 6443
1750 1751
1750 3642
1751 3600
1752 1753
1754 1755
1755 5032
1755 6379
1755 7352
1755 7799
1756 1757
1756 2874
1757 2736
1757 3662
1757 5722
1758 1759
1758 1935
1759 5218
1760 2351
1761 1762
1761 3529
1762 5416
1763 3381
1764 1765
1765 2366
1765 5907
1765 7536
1766 1767
1767 2485
1767 3202
1768 1769
1768 7563
1769 2880
1769 3450
1770 1771
1770 7078
1771 3576
1772 1942
1773 3052
1774 1775
1775 2133
1776 7606
1777 1778
1777 1921
1777 3364
1778 3292
1778 6094
1778 6118
1779 1780
1779 2490
1780 4415
1780 7420
1781 2244
1781 3342
1782 1783
1782 4008
1783 4086
1783 4866
1784 1785
1785 2218
1785 3961
1785 4142
1786 1787
1787 3750
1788 1789
1788 7599
1789 7561
1790 1791
1790 4266
1791 7231
1792 5057
1793 3928
1794 1795
1794 6559
1795 4393
1796 3464
1796 7503
1797 1798
1797 3856
1798 7241
1799 1800
1799 7419
1802 7830
1803 1804
1804 2403
1805 1806
1805 7004
1806 2423
1807 1808
1808 4574
1809 1810
1809 4002
1809 7014
1810 4605
1810 4878
1811 1812
1811 5488
1812 2250
1813 1814
1814 4200
1816 1817
1816 3598
1817 3923
1818 1819
1819 4290
1820 1821
1820 6740
1820 7113
1822 1823
1822 3802
1824 1825
1825 2962
1825 4722
1825 4776
1826 1827
1826 3206
1827 3117
1827 3920
1828 3680
1828 4104
1828 5697
1828 7130
1829 3152
1829 4883
1829 6671
1831 3076
1831 4036
1832 4563
1832 6097
1834 4670
1834 6098
1836 2029
1837 1838
1837 3912
1838 5991
1839 1840
1839 4864
1840 4370
1841 1842
1841 5950
1842 5837
1843 6233
1844 2634
1844 4278
1845 1846
1845 1876
1846 7556
1847 1848
1847 5703
1848 3811
1849 1850
1850 5592
1851 1852
1851 3765
1853 1854
1854 2255
1854 3454
1854 3618
1854 3627
1854 6059
1856 5310
1857 1858
1859 6282
1860 1861
1861 2342
1862 1863
1863 5434
1864 5206
1864 6554
1865 5941
1866 1867
1866 4918
1867 4822
1868 1869
1870 1871
1870 4591
1871 3569
1872 1873
1872 4645
1874 1875
1874 4759
1875 2650
1876 3463
1877 6298
1878 1879
1878 1966
1878 3107
1879 4229
1879 5449
1880 1881
1880 6353
1881 6614
1882 3510
1884 1885
1884 2770
1884 5985
1885 4499
1886 1887
1887 6556
1888 1889
1888 6935
1889 3134
1890 1891
1892 1893
1892 2365
1892 7360
1894 1895
1895 6172
1897 1898
1898 5648
1898 7389
1900 7650
1901 1902
1902 6468
1903 1904
1903 4587
1904 7269
1906 1907
1906 6785
1907 3604
1907 4357
1908 1909
1909 6534
1910 1911
1910 4853
1911 6349
1912 1913
1913 3381
1914 1915
1914 2484
1914 4446
1915 3479
1915 3974
1915 4693
1915 4695
1916 4909
1917 1918
1917 7674
1918 2117
1919 1920
1919 5349
1919 7235
1922 1923
1923 5265
1925 4423
1925 6406
1926 7319
1927 1928
1927 5625
1928 2073
1928 3754
1929 1930
1929 6921
1930 3565
1930 5093
1932 7646
1933 1934
1933 6002
1935 1936
1935 3641
1935 4586
1936 2121
1936 2832
1936 4001
1936 4109
1936 4498
1936 4538
1938 1939
1939 1947
1939 3156
1939 4788
1939 5138
1939 5552
1939 6444
1939 7446
1940 1941
1940 7437
1942 6989
1943 1944
1944 2256
1944 6832
1945 1946
1945 4248
1946 5231
1948 1949
1948 7246
1948 7320
1953 1954
1953 3795
1953 4600
1954 2992
1954 5031
1954 6710
1954 7190
1956 2345
1957 3658
1958 1959
1958 4393
1959 4330
1959 6979
1960 1961
1961 2376
1962 3824
1963 1964
1963 5314
1965 1966
1965 4363
1967 1968
1967 3197
1967 5616
1968 6827
1969 5528
1969 7464
1970 3195
1970 3503
1971 1972
1972 7614
1973 1974
1975 6138
1976 6527
1977 6065
1978 1979
1978 3092
1979 4270
1980 1981
1980 7150
1982 5480
1983 1984
1984 4295
1984 4384
1985 1986
1985 6943
1985 7335
1986 2912
1986 7777
1987 2101
1987 4302
1987 5417
1988 2244
1989 1990
1991 1992
1991 3433
1991 5244
1992 3078
1992 5770
1993 1994
1993 3676
1993 4945
1994 3133
1994 4820
1995 4145
1995 5467
1995 7205
1996 1997
1997 3271
1998 1999
1998 5871
1999 3734
2000 5591
2001 7575
2002 2003
2002 4979
2004 2005
2005 2823
2006 2007
2006 7452
2007 5799
2008 2009
2009 2110
2009 4500
2010 2011
2010 4685
2011 3074
2011 6611
2013 2014
2015 2892
2016 2017
2016 7462
2017 7586
2019 5932
2021 2022
2021 6874
2021 7603
2023 2024
2024 4628
2025 6428
2026 5733
2028 2371
2028 2578
2029 2030
2029 4811
2030 5656
2031 2032
2031 4510
2032 5205
2034 2035
2035 2640
2036 2037
2037 4255
2037 6647
2038 2039
2039 6084
2040 2041
2040 3593
2040 3729
2041 4711
2041 7300
2042 2043
2043 2769
2043 7170
2044 5084
2045 4453
2046 2047
2046 5014
2046 6652
2048 2049
2049 4428
2050 2051
2051 4254
2052 2971
2052 3833
2052 3952
2052 4529
2052 6743
2053 2054
2054 7091
2055 2344
2056 2057
2056 6005
2058 2059
2058 7469
2059 2979
2060 2061
2060 2348
2062 3004
2063 2064
2063 4624
2063 6455
2064 4990
2065 2066
2065 2369
2066 3702
2067 2068
2068 5353
2068 6495
2069 2070
2069 4000
2070 5038
2071 5069
2072 2251
2072 3836
2074 5318
2075 2076
2075 4966
2076 3617
2077 2078
2077 4602
2079 2080
2080 2098
2080 5009
2082 2083
2083 6047
2083 6302
2084 7568
2085 2086
2086 6570
2087 2088
2088 4438
2088 7435
2090 4860
2091 5969
2092 3754
2093 2094
2094 7154
2095 4943
2096 2097
2096 6523
2098 2766
2098 4068
2099 2100
2100 3516
2100 3759
2100 3988
2100 4516
2100 4585
2100 4922
2100 5030
2100 5895
2100 5946
2100 6110
2100 6550
2100 6773
2100 6864
2100 6927
2100 7131
2100 7582
2100 7745
2100 7749
2102 2103
2102 2160
2103 2222
2104 2105
2104 7496
2107 2108
2107 2640
2108 6214
2109 2763
2109 3859
2110 7141
2112 4858
2113 2114
2115 2116
2117 2118
2118 3201
2119 2120
2119 3526
2120 3940
2121 2122
2121 3970
2123 2124
2123 2737
2123 5361
2124 2724
2124 5805
2125 2708
2125 3644
2126 6284
2127 2128
2127 6142
2129 2130
2129 4005
2130 5981
2131 2132
2132 2235
2132 4276
2133 2134
2133 3623
2133 4365
2133 5643
2133 6227
2134 6402
2135 2136
2137 2138
2138 3252
2139 5892
2139 7751
2140 2141
2140 5109
2141 2302
2141 5479
2142 5335
2142 6499
2143 2144
2143 2426
2144 4467
2147 2148
2148 4919
2150 2151
2151 5105
2151 6890
2152 2153
2152 3306
2152 4489
2154 3360
2154 5566
2155 2156
2155 5021
2156 4120
2159 2160
2159 4589
2159 4612
2160 2974
2161 2162
2163 2164
2163 4615
2165 2954
2166 2167
2166 3056
2167 5486
2168 2169
2169 2582
2169 3479
2169 4159
2169 7598
2170 7037
2170 7216
2171 2172
2172 4860
2172 6905
2173 2174
2173 2720
2174 2188
2175 2176
2175 4756
2176 3800
2177 2178
2177 5264
2178 6950
2179 2180
2179 6265
2180 3736
2180 7105
2183 2184
2185 2186
2185 4337
2186 4486
2187 2188
2187 6080
2188 3349
2188 3817
2188 4198
2188 7040
2188 7266
2189 2190
2189 6200
2190 6557
2192 2193
2192 3978
2193 6033
2194 2195
2194 6049
2196 2197
2196 4625
2197 4406
2199 2200
2199 5041
2200 5590
2200 6007
2200 7327
2204 2205
2204 4538
2205 2967
2205 5088
2206 2207
2206 4170
2206 6015
2206 6625
2206 6908
2206 7699
2209 2210
2209 6748
2210 6947
2211 2414
2212 7703
2213 6955
2214 2215
2214 3706
2215 4865
2216 2217
2217 3762
2218 2219
2218 2950
2218 4578
2219 2313
2219 2744
2219 3341
2219 3851
2219 5733
2219 5789
2219 6554
2219 7322
2219 7501
2220 2367
2221 2222
2223 2679
2223 3159
2224 3647
2225 2226
2225 4623
2225 5056
2226 2988
2226 5056
2227 2228
2227 3238
2228 5037
2229 2230
2229 4952
2231 2232
2231 4565
2232 2565
2233 7669
2234 2235
2234 3961
2235 6291
2238 2239
2238 3188
2239 5489
2240 4709
2241 2596
2242 2243
2242 6527
2243 5593
2244 2480
2244 2517
2245 2246
2246 4996
2246 5479
2248 2249
2248 2456
2249 3237
2252 4162
2253 2254
2253 6772
2255 2256
2255 3964
2255 5312
2255 5601
2255 6607
2257 2258
2259 2260
2259 5180
2260 2262
2263 3185
2263 4134
2264 2265
2264 4665
2265 4753
2265 7196
2266 2267
2267 2953
2267 3295
2267 5572
2268 5793
2269 3989
2270 2271
2270 2390
2270 3781
2271 6161
2273 2274
2273 5670
2274 6399
2275 3520
2275 6620
2275 7000
2276 2277
2276 7187
2278 2279
2279 2349
2280 2281
2280 2916
2280 3578
2282 4826
2282 6264
2282 6847
2282 7414
2283 2284
2283 2373
2283 7165
2284 4965
2286 2287
2286 5925
2287 4462
2287 5233
2288 2289
2288 2760
2288 5644
2289 3216
2289 7055
2290 3744
2292 2293
2292 3439
2295 2296
2295 2494
2295 3533
2296 2429
2297 2300
2297 3746
2298 2299
2298 2678
2299 4289
2299 5653
2300 2301
2300 6722
2301 3031
2302 2303
2302 6329
2302 6950
2304 2305
2304 4396
2306 2307
2306 3935
2307 5571
2308 3973
2309 4666
2309 5696
2310 2311
2312 2313
2313 5826
2314 2315
2315 4118
2316 2317
2316 7161
2317 5720
2317 5727
2318 5589
2319 2320
2320 2725
2320 3143
2320 4369
2320 7010
2321 7261
2322 4361
2323 3628
2324 2325
2324 3698
2325 6844
2326 2327
2327 3786
2328 2329
2330 4927
2330 7139
2331 2332
2331 6661
2333 2334
2334 4331
2335 2336
2335 6880
2337 5913
2338 2339
2338 2533
2340 2341
2340 5224
2340 7020
2341 5307
2341 6609
2341 6857
2342 4667
2343 4760
2343 7275
2344 2345
2346 2347
2346 3209
2347 3610
2347 5192
2347 5433
2350 2351
2350 5100
2350 7572
2351 2674
2351 3186
2351 3979
2351 4632
2352 2353
2352 6460
2352 7836
2353 4663
2354 6996
2356 2357
2357 5781
2358 2359
2358 2483
2358 2836
2359 2535
2359 4328
2360 3063
2360 6547
2361 5017
2363 5611
2364 2365
2365 3067
2365 6099
2365 6729
2369 4647
2370 2371
2370 3047
2372 2373
2372 3945
2373 3639
2373 4131
2373 4867
2374 2375
2374 4158
2375 5390
2376 5657
2378 2379
2378 4143
2380 2381
2380 4352
2380 5291
2381 3322
2383 2384
2383 3322
2384 3613
2385 2386
2386 3899
2386 5420
2387 2388
2387 2466
2389 3544
2390 3887
2391 2392
2392 2886
2393 2394
2393 3835
2393 4169
2394 6826
2396 2397
2396 6123
2396 7164
2397 2964
2397 4980
2397 5169
2397 7016
2398 7476
2399 2947
2400 6307
2401 2402
2401 3024
2404 5790
2405 2406
2405 7561
2407 2408
2407 6072
2408 2782
2408 5799
2408 6717
2408 6982
2408 7193
2409 2410
2410 6499
2411 2412
2413 4635
2414 6224
2415 7325
2416 2417
2416 5849
2417 7600
2418 4362
2418 5107
2419 5912
2421 2422
2422 6376
2423 5301
2423 7306
2424 2425
2425 4707
2426 4758
2427 2428
2428 2963
2429 5613
2430 2431
2430 7504
2431 2756
2432 2433
2432 2836
2432 3342
2433 2535
2433 4609
2433 5422
2434 2435
2437 2438
2437 3707
2437 4567
2437 7776
2438 6867
2439 2440
2439 2716
2439 3624
2439 5171
2439 5647
2439 6968
2439 7097
2440 2948
2440 6989
2441 2442
2441 5203
2442 6829
2443 2444
2443 7579
2444 3331
2445 2446
2446 3858
2447 2448
2447 6900
2447 7864
2448 6021
2448 6569
2449 2450
2449 2479
2449 7367
2450 2521
2450 2535
2451 2452
2451 4109
2452 5262
2453 2454
2454 5453
2455 2456
2455 5114
2458 2459
2459 3447
2461 2462
2461 5065
2462 2663
2462 2961
2463 2464
2463 3744
2464 6055
2465 6311
2467 2468
2467 6774
2469 2470
2469 5316
2469 5980
2470 6638
2471 2472
2471 4016
2473 2474
2473 6516
2474 3019
2475 2476
2475 5541
2476 5529
2477 2478
2478 6941
2479 2480
2479 5770
2480 7137
2481 2482
2484 2570
2485 3130
2485 3405
2487 2488
2488 4414
2488 7181
2489 2490
2489 4723
2489 6504
2490 4583
2492 2493
2492 5265
2493 5814
2494 2658
2495 2496
2495 3068
2496 4890
2497 2498
2498 3283
2498 5797
2499 3326
2499 4819
2500 2501
2500 6716
2502 2503
2502 3029
2503 4595
2503 6529
2505 2506
2505 3166
2507 4584
2508 2509
2509 5190
2510 2757
2512 3763
2514 2515
2514 2746
2516 2517
2516 2846
2516 3433
2516 4163
2517 4328
2518 2960
2519 2520
2519 5338
2519 6976
2520 3694
2520 4958
2521 2522
2521 5765
2523 2524
2523 3388
2525 2526
2526 6517
2526 6882
2527 2528
2528 3908
2528 5464
2530 2531
2530 3931
2530 5795
2531 6359
2533 2881
2533 7507
2534 2535
2534 2723
2534 6428
2536 2537
2536 2555
2537 3326
2538 2539
2538 5183
2539 3967
2541 5108
2543 2544
2543 5207
2544 3089
2545 2546
2546 7589
2547 2548
2548 7208
2550 2551
2550 6139
2551 6205
2552 4783
2554 2555
2554 2616
2556 2557
2557 3694
2558 2559
2558 5180
2560 2561
2560 3505
2561 3349
2562 3218
2563 2564
2563 6150
2565 2566
2567 3382
2568 2569
2568 5978
2569 3043
2570 2571
2571 6918
2572 2573
2572 7523
2574 2575
2574 6426
2574 6546
2575 3437
2576 2577
2577 4823
2579 2580
2580 5738
2581 2582
2581 5054
2583 2584
2583 3458
2583 5650
2584 4157
2585 2586
2586 2888
2587 2588
2587 7283
2588 4511
2589 2590
2589 4912
2591 2592
2591 5446
2592 4602
2594 6335
2595 2596
2597 2598
2597 5823
2598 3363
2600 2601
2600 3002
2600 3072
2600 3224
2602 2603
2602 4488
2602 5417
2604 4212
2604 7003
2605 2606
2605 5651
2606 3099
2607 2608
2608 4933
2608 6227
2609 2610
2610 2834
2611 2612
2611 6683
2612 3111
2616 6860
2617 2618
2617 4599
2619 2620
2619 5711
2620 3290
2620 6040
2621 2622
2621 4783
2622 4181
2623 2624
2623 5700
2626 2627
2626 7314
2627 3066
2628 3333
2628 3520
2629 3319
2629 3391
2632 2633
2633 6013
2634 2635
2635 5635
2636 2637
2636 2700
2637 2700
2637 5021
2637 5022
2638 2639
2638 6687
2639 3632
2641 2642
2641 5335
2642 6787
2643 2644
2643 5745
2644 4477
2645 2646
2645 5641
2646 4512
2648 2649
2648 2802
2648 7173
2649 2673
2651 2652
2651 5976
2653 2654
2654 3195
2656 2657
2657 3004
2657 3287
2658 2659
2660 2661
2662 2663
2664 5082
2664 7308
2665 2666
2666 4431
2667 7267
2668 2669
2668 3573
2668 4101
2669 5206
2670 5470
2671 2672
2671 4141
2672 7088
2674 7572
2675 2676
2675 7399
2677 2678
2681 2682
2681 2776
2682 2728
2683 2684
2683 4239
2684 2867
2684 5955
2685 5198
2686 2687
2686 6417
2687 5632
2688 2689
2688 5660
2689 3356
2690 2691
2690 4752
2692 2693
2692 4086
2694 2695
2696 2697
2698 2699
2699 6371
2700 3246
2700 4769
2700 5016
2700 6113
2700 6168
2700 6634
2700 6933
2700 7378
2701 2702
2701 6382
2703 2876
2704 2705
2705 4245
2705 6208
2705 6949
2705 7701
2705 7722
2706 2707
2706 4399
2707 3535
2707 6902
2708 7566
2709 2710
2710 3630
2710 5860
2710 7251
2710 7478
2712 2713
2712 2893
2714 3169
2714 5412
2716 7574
2717 6276
2718 6674
2719 2720
2720 5081
2721 7070
2723 3553
2726 6283
2728 7736
2729 2730
2729 5381
2730 6760
2731 2846
2732 4406
2732 7644
2733 2734
2734 5369
2735 2736
2735 5236
2737 7267
2738 2739
2739 2947
2739 4476
2739 4953
2740 2741
2740 3879
2741 4697
2742 2743
2742 7261
2743 2792
2744 4243
2745 2746
2745 6591
2745 6789
2746 4192
2746 5024
2748 3598
2749 2750
2749 6081
2750 5609
2752 2753
2752 6818
2753 7369
2754 2755
2754 5088
2755 3030
2755 5215
2756 7834
2757 2993
2757 5886
2757 7264
2759 6328
2760 2761
2761 5759
2762 4592
2764 3985
2765 6484
2766 2767
2766 3073
2768 2769
2768 5637
2768 5725
2772 2773
2773 3987
2774 7066
2775 6453
2776 4791
2777 2778
2777 4908
2778 2900
2779 2780
2780 7270
2781 2940
2782 2787
2784 2785
2784 5345
2786 2787
2786 6970
2788 2789
2789 6841
2790 2791
2790 3732
2791 4244
2792 2793
2793 7290
2796 3332
2798 2799
2798 3805
2800 2801
2800 4163
2800 4710
2801 2976
2801 3091
2803 4261
2804 2805
2804 2883
2804 5158
2807 5375
2808 3148
2809 3071
2810 2811
2811 4970
2811 7611
2812 4808
2812 5055
2813 2814
2813 5062
2814 3101
2814 5877
2815 2816
2817 3668
2818 2819
2818 6836
2819 5305
2820 2821
2820 3485
2821 6537
2822 4159
2822 6122
2824 3540
2824 6475
2825 2826
2826 5835
2827 2828
2828 4741
2829 2830
2829 5896
2830 4463
2830 6099
2830 6778
2831 3408
2831 4630
2832 2833
2832 4716
2832 6300
2832 6922
2833 7484
2834 2835
2835 5306
2838 2839
2838 3396
2839 5928
2840 2841
2840 3870
2843 2844
2844 3206
2844 6257
2845 7512
2846 4522
2846 4990
2847 2848
2848 3978
2848 5311
2848 5975
2849 2850
2850 5660
2851 3611
2852 2853
2852 5616
2853 5633
2855 5427
2856 2857
2856 3215
2858 2859
2858 3027
2858 5044
2859 3118
2859 3647
2859 5380
2859 6511
2859 7631
2860 2861
2860 3202
2861 5129
2862 7156
2863 2864
2863 3596
2863 4838
2865 2866
2865 6496
2870 2871
2870 3343
2870 6195
2871 3385
2871 3719
2871 4322
2872 2873
2875 2876
2877 2878
2877 3669
2878 6152
2879 2880
2879 5473
2880 7248
2881 3912
2882 2883
2882 3384
2882 3404
2883 4874
2884 2885
2884 4787
2885 5405
2887 6623
2888 4364
2889 2890
2889 6058
2890 6194
2891 2892
2891 3643
2891 5548
2892 3382
2892 5241
2892 6030
2892 6279
2893 5532
2894 2895
2896 4833
2896 5372
2898 2899
2898 3972
2899 3517
2899 4040
2899 4512
2899 4793
2899 4824
2899 6848
2899 7720
2900 2901
2902 3144
2903 4502
2904 2905
2904 3196
2905 4912
2906 2907
2906 3331
2908 5287
2909 2910
2910 5634
2911 3022
2912 2913
2914 2915
2915 4346
2915 4369
2915 6911
2915 6964
2916 7647
2917 3676
2917 6078
2920 2921
2921 3830
2922 2923
2924 3842
2925 2949
2926 2927
2926 3015
2927 5320
2929 2930
2929 4277
2930 5052
2931 2932
2933 3638
2934 2935
2934 3891
2936 2937
2936 7499
2937 5058
2938 2939
2938 5321
2939 7785
2940 5033
2942 2943
2942 5890
2944 2945
2944 4831
2946 4021
2946 7462
2947 4376
2947 5299
2947 5364
2947 6263
2948 6022
2949 3674
2949 4888
2951 5607
2952 2953
2953 3790
2954 3055
2955 2956
2955 6998
2957 3396
2958 5096
2959 2960
2959 3592
2959 4613
2960 4194
2960 7502
2964 2965
2964 3670
2965 6585
2967 5215
2968 2969
2968 6462
2969 4790
2970 6199
2971 3068
2972 2973
2972 4140
2974 3142
2976 2977
2976 3079
2977 3159
2978 5825
2980 5468
2980 7151
2981 2982
2981 4775
2982 6486
2983 2984
2985 2986
2985 3251
2989 2990
2989 4653
2992 7859
2993 2994
2993 3491
2993 3794
2994 4593
2996 2997
2998 2999
2999 7415
3000 3001
3000 7393
3001 5132
3002 3003
3003 5592
3005 5732
3006 3007
3006 7192
3007 3401
3008 5870
3009 3446
3013 5124
3014 5850
3016 3696
3017 3018
3017 5023
3020 3021
3021 4476
3023 4743
3024 5379
3025 3026
3025 3221
3027 3028
3028 3355
3030 5429
3031 3032
3033 4134
3034 3035
3035 6143
3037 3038
3037 3177
3039 3040
3039 5315
3040 3689
3041 7794
3042 6874
3043 3044
3045 3046
3045 5595
3045 6567
3046 6483
3047 4212
3048 3049
3048 4066
3049 3983
3050 3051
3050 5174
3053 5144
3055 3056
3057 3058
3057 4335
3057 4908
3057 6637
3059 4081
3060 3061
3060 5888
3062 3063
3062 4289
3064 3065
3064 3230
3065 4976
3066 4557
3068 3833
3068 7096
3069 3070
3069 6151
3070 5181
3071 4410
3072 5114
3075 3076
3075 5228
3076 3494
3076 3560
3077 3402
3077 4308
3078 3079
3078 4366
3079 4522
3079 7103
3081 3082
3083 3084
3083 4205
3084 7285
3086 7668
3087 3088
3087 3477
3089 6058
3091 5706
3093 3094
3093 3461
3094 6313
3095 3096
3095 5262
3096 4283
3097 3098
3098 6512
3100 4836
3102 4379
3104 3105
3104 5594
3107 4415
3107 6055
3108 3109
3108 3863
3109 4801
3110 3437
3111 4754
3112 3113
3112 7041
3113 3333
3114 3115
3115 4855
3116 3117
3116 4605
3116 5406
3117 5691
3118 3962
3118 5555
3119 3120
3119 4962
3120 7494
3121 3122
3122 4275
3122 4808
3123 3124
3123 4453
3125 3126
3125 3256
3126 3442
3127 3493
3127 6595
3128 4199
3128 5366
3129 3492
3130 3131
3132 3133
3132 4318
3133 4373
3133 7292
3134 6422
3136 3137
3136 6276
3137 6513
3138 4999
3140 3141
3145 4119
3146 3147
3147 5602
3148 6182
3149 3150
3151 3152
3151 7185
3152 5530
3153 3154
3153 4619
3153 5515
3155 5123
3156 5214
3157 3158
3158 3629
3158 3863
3158 3888
3158 5468
3158 5547
3158 6837
3159 3160
3160 6008
3161 3162
3161 7225
3162 5646
3163 3705
3164 3165
3164 4432
3164 7012
3166 3178
3167 3168
3168 3331
3170 3171
3171 7133
3173 3174
3173 6532
3174 6582
3175 3176
3175 6801
3179 3514
3179 4727
3180 3181
3180 3373
3180 5102
3182 3183
3183 4699
3184 3185
3184 3995
3185 4262
3186 3199
3187 3188
3187 5175
3189 3190
3189 5704
3190 4051
3192 6886
3193 4855
3194 3195
3196 6796
3197 5612
3198 3775
3199 6478
3200 4020
3201 3469
3201 5155
3202 6099
3202 7481
3203 3204
3203 5344
3203 7079
3204 3723
3206 6077
3206 7296
3208 6522
3209 3210
3209 4466
3213 3214
3214 3263
3214 5794
3214 7012
3215 3216
3215 5027
3216 7854
3218 3219
3219 7674
3220 3221
3220 4621
3220 6069
3222 3223
3223 7307
3224 5841
3225 5106
3226 3227
3226 3641
3227 3570
3231 3232
3231 6868
3232 6005
3233 3959
3234 3235
3234 6207
3235 6158
3236 3237
3238 6653
3239 3240
3240 5449
3241 4514
3242 5126
3243 3244
3243 7073
3245 5728
3247 4607
3248 3249
3249 4401
3251 3393
3252 3253
3253 6010
3255 4267
3255 6950
3256 4211
3257 3258
3259 3260
3259 4504
3261 4317
3261 6514
3262 4094
3262 6523
3263 5794
3264 3265
3264 4660
3265 4297
3266 3267
3268 3269
3268 6073
3269 3915
3269 6111
3270 3271
3270 7292
3270 7351
3271 3526
3271 4679
3271 5447
3271 6478
3271 7461
3271 7867
3272 3273
3272 7204
3273 4262
3274 7063
3276 5347
3276 6848
3277 3278
3277 5059
3279 3280
3280 3799
3281 3282
3281 4091
3281 5774
3283 3284
3283 4786
3284 3357
3284 3482
3285 3286
3286 5331
3286 7056
3287 3288
3288 4601
3289 3700
3289 4421
3291 5650
3293 3294
3293 4305
3294 5916
3295 7837
3296 4365
3297 3298
3297 6359
3298 7054
3299 3300
3299 7114
3300 5481
3301 3302
3301 5382
3301 6506
3303 3304
3304 7750
3305 5462
3306 3666
3307 3308
3307 3490
3308 6227
3309 3310
3309 7006
3310 4062
3310 4342
3311 3312
3311 6201
3313 3314
3315 3316
3316 4209
3316 4643
3316 4930
3317 3318
3317 5988
3319 3320
3319 5014
3320 4503
3321 3322
3323 3324
3323 5693
3324 5636
3324 6723
3325 7321
3326 5746
3327 3328
3327 6285
3328 4888
3328 6617
3329 3330
3329 7291
3330 4962
3332 3552
3334 3335
3334 3800
3335 6258
3336 5415
3336 6963
3338 3339
3338 5339
3339 4503
3343 5961
3344 6969
3345 3383
3345 5198
3345 6812
3346 6972
3347 3701
3348 3825
3348 4096
3348 4610
3350 3351
3351 6148
3353 3354
3353 5749
3355 4817
3356 4338
3357 6999
3358 4877
3359 3360
3359 3973
3359 4913
3360 4444
3363 5712
3364 6034
3365 6777
3366 6249
3366 6997
3367 5958
3368 3369
3368 3440
3369 3531
3369 5406
3370 3371
3371 6962
3372 3883
3375 3376
3375 3874
3377 3378
3377 4853
3377 7775
3378 3562
3379 3380
3379 7355
3380 4649
3382 3863
3383 3384
3383 4874
3383 5921
3386 3387
3386 6633
3387 4711
3389 3390
3390 4299
3390 5554
3390 5636
3390 6611
3391 7021
3392 3393
3392 4598
3394 5525
3395 3955
3395 6953
3397 3398
3397 6977
3399 3400
3401 3402
3404 3460
3404 6226
3405 4039
3406 4622
3407 6209
3409 3410
3410 6808
3411 3412
3411 3462
3412 3959
3413 3971
3413 5334
3415 3416
3415 4917
3415 6914
3416 3449
3416 5376
3418 3419
3419 4188
3420 3421
3420 6277
3421 4549
3422 4138
3424 3425
3425 3666
3425 7856
3426 6553
3427 3428
3427 4661
3428 3704
3429 3430
3429 4270
3430 6662
3431 3432
3431 6662
3433 3867
3433 5056
3434 3435
3434 3655
3434 6166
3435 7532
3436 4489
3436 4942
3436 7174
3439 3440
3440 4808
3442 3443
3443 4847
3444 3445
3444 4330
3445 4879
3445 6703
3446 4324
3446 5940
3448 3449
3448 4084
3449 3662
3450 3451
3450 5786
3451 3806
3451 5442
3452 6973
3454 3782
3454 4841
3455 3456
3455 7566
3456 5663
3458 5992
3459 3555
3462 4394
3463 4924
3464 3465
3466 3467
3469 3470
3470 3875
3471 3472
3471 5216
3473 4851
3473 5040
3474 3475
3474 7402
3476 6926
3479 3778
3479 6870
3481 6828
3481 7625
3482 7105
3483 3484
3483 6961
3485 6127
3486 3487
3487 5654
3488 5628
3488 6830
3489 3490
3489 7798
3491 5881
3492 4065
3492 4409
3492 5401
3492 5702
3493 3494
3494 4638
3495 3496
3497 7023
3498 3499
3498 5440
3500 7201
3501 3502
3501 4893
3503 3504
3504 5345
3506 3507
3506 3798
3506 3910
3508 3509
3508 3867
3509 6428
3512 3513
3512 4284
3513 5104
3514 3515
3517 6369
3518 3519
3518 7195
3519 5073
3521 3522
3521 6945
3521 7475
3522 3936
3524 3525
3525 7027
3526 6464
3527 3528
3527 3764
3528 5624
3529 7186
3530 6415
3531 3532
3531 6446
3532 6126
3534 5867
3534 7349
3535 3536
3536 4367
3537 6599
3538 3539
3538 4146
3538 7354
3539 5155
3540 4947
3541 5314
3542 3543
3542 3816
3544 3545
3545 3656
3546 3547
3547 4013
3548 3549
3548 6266
3549 6866
3551 3552
3554 3555
3554 4577
3556 6430
3557 3558
3559 3560
3559 6552
3560 7664
3561 6916
3564 5915
3567 3568
3567 3747
3568 4688
3568 7410
3570 3571
3574 3575
3574 7421
3575 4178
3576 3577
3577 5461
3579 6109
3580 3581
3581 3926
3583 3584
3584 4937
3584 6978
3585 3586
3585 6841
3588 3589
3588 4481
3592 6183
3593 6695
3594 5197
3596 3597
3597 4805
3597 5459
3599 6590
3600 3601
3601 4599
3602 3603
3602 5588
3602 6120
3604 5474
3605 3606
3606 5433
3607 3608
3607 4796
3607 7375
3609 3610
3613 3614
3614 5242
3614 5529
3615 4055
3617 5375
3618 3782
3618 6029
3619 3989
3619 7533
3620 3621
3622 6811
3625 3626
3625 4471
3625 7094
3626 3954
3627 3808
3627 6092
3628 7376
3630 6061
3633 3634
3633 6890
3636 3637
3637 7059
3639 3640
3639 6457
3644 5247
3646 3647
3646 4998
3646 5415
3647 4820
3647 7154
3649 3650
3649 6557
3651 5832
3652 3653
3653 6243
3654 3655
3654 5254
3656 3657
3657 4288
3658 6606
3660 3661
3660 5904
3661 4596
3663 3664
3664 7873
3665 3666
3665 5874
3666 4594
3666 4904
3666 5587
3666 7028
3667 4458
3667 4574
3668 4658
3670 5075
3670 6750
3671 3672
3674 3675
3676 4632
3676 4785
3676 6478
3677 5391
3678 3679
3678 4715
3679 4871
3681 6505
3682 3683
3683 5726
3685 3686
3685 6205
3686 5580
3687 3688
3687 6041
3689 3690
3690 6880
3691 4606
3691 5938
3692 3693
3692 7283
3695 3696
3695 7489
3697 6998
3697 7111
3698 7136
3699 3835
3700 4225
3700 6249
3700 6881
3701 3824
3701 7098
3702 3703
3703 5945
3705 7765
3708 5255
3708 5468
3709 6876
3710 3711
3711 7108
3712 4438
3713 3714
3713 5288
3714 3797
3715 3716
3715 3872
3716 5977
3717 3718
3719 6846
3720 6842
3721 3722
3722 4440
3723 3724
3724 6793
3725 6450
3728 3729
3728 5287
3729 4575
3731 3732
3733 5885
3734 3735
3737 3738
3737 6272
3738 4787
3739 3740
3739 4528
3741 3742
3741 4038
3741 6070
3744 5476
3744 7288
3745 3746
3745 6589
3747 6770
3748 3749
3750 7268
3752 5986
3753 3754
3754 4962
3754 5873
3755 3756
3757 3758
3761 3762
3763 4049
3763 4860
3765 4105
3765 6262
3767 3768
3767 6091
3769 3944
3770 3771
3770 6722
3772 3773
3773 3828
3773 4095
3773 4418
3776 5815
3777 3918
3777 5469
3778 3779
3779 7095
3780 7670
3781 4109
3783 5717
3784 3785
3785 4176
3785 6594
3786 4828
3786 5084
3786 5785
3786 6345
3787 3788
3787 4467
3788 5501
3789 5236
3789 5826
3790 3791
3791 6958
3792 5043
3792 6468
3793 3794
3794 6122
3795 4938
3796 4021
3797 6031
3798 5882
3799 5289
3801 3802
3803 4195
3804 4340
3808 3809
3809 3985
3811 5526
3812 3813
3813 6580
3813 7721
3814 3815
3815 4382
3816 5322
3818 6260
3819 3820
3819 4664
3820 4215
3820 4664
3822 3823
3822 4293
3825 4366
3826 4381
3827 3828
3830 3831
3830 4915
3832 3833
3835 5204
3838 3839
3838 6599
3840 3841
3841 5348
3842 3843
3844 3845
3844 6112
3844 7487
3845 5095
3845 6509
3846 3847
3847 6683
3848 3849
3848 5135
3849 5889
3850 3851
3851 5447
3852 4581
3852 6817
3855 3856
3855 4344
3857 4048
3858 5256
3859 3860
3861 3862
3861 5159
3864 3909
3865 3866
3865 6684
3868 4763
3869 3870
3869 4277
3871 3872
3871 4235
3874 5202
3875 3876
3877 5404
3878 3879
3878 3914
3878 6869
3880 6804
3881 3882
3881 7030
3882 4957
3882 7459
3884 7322
3885 3886
3889 3890
3889 4890
3891 6511
3893 3894
3893 6539
3894 4923
3894 7341
3895 3896
3896 5225
3897 3898
3898 5516
3899 3900
3900 4821
3901 3902
3901 5505
3902 5682
3903 4196
3904 3905
3904 6168
3906 3907
3906 5113
3908 5346
3910 3911
3910 5967
3911 5037
3912 3913
3913 4566
3913 5681
3914 4370
3916 3917
3916 4178
3918 6718
3919 4825
3921 3922
3924 3925
3925 5057
3925 6812
3927 3928
3928 6006
3928 6656
3929 3930
3929 4627
3930 6313
3931 5058
3932 3933
3936 3937
3936 4047
3937 6288
3940 3941
3942 3943
3942 6267
3943 6438
3944 4531
3945 4502
3947 3948
3947 5076
3948 6439
3948 7208
3949 3950
3949 5081
3950 4466
3951 5074
3951 6733
3952 7509
3952 7555
3953 4709
3954 4480
3955 3956
3955 6513
3960 3961
3961 4191
3962 6472
3965 3966
3965 6705
3965 6783
3966 4192
3967 4112
3968 6155
3969 3982
3972 5982
3975 3976
3975 5357
3976 7466
3977 7673
3978 4682
3978 5562
3978 6674
3979 5657
3980 3981
3980 5708
3981 6548
3983 3984
3984 6009
3986 7263
3989 6393
3990 3991
3991 4575
3991 5442
3993 3994
3993 6877
3994 4041
3996 3997
3996 6203
3997 4551
3998 3999
3998 5244
3999 4163
4000 4237
4003 5050
4004 4005
4006 4007
4006 5632
4009 4010
4011 4012
4014 4015
4014 4485
4015 5267
4016 4017
4017 5821
4017 5868
4018 6234
4019 4020
4019 5366
4023 4024
4023 6555
4023 7183
4024 5686
4025 4026
4026 4542
4027 4028
4029 4415
4029 6250
4030 4031
4032 7220
4034 4035
4034 7751
4035 6265
4037 7349
4038 5553
4040 5131
4041 4510
4041 6888
4042 6598
4043 4044
4043 5195
4044 7192
4045 4046
4045 7173
4046 6914
4048 4542
4049 4050
4049 5748
4051 7831
4052 4053
4052 4848
4054 4226
4054 6512
4055 4898
4056 4057
4058 4059
4058 5286
4060 4061
4061 5512
4061 7465
4062 5240
4063 4064
4064 5993
4067 4068
4069 4070
4069 6041
4070 4263
4070 7497
4071 4072
4072 4391
4073 4074
4074 5772
4076 4077
4076 6874
4078 4079
4078 6180
4078 7298
4079 5648
4079 6100
4081 4082
4083 4084
4087 6762
4088 5032
4088 6289
4088 7607
4089 4090
4090 4146
4090 4814
4092 4093
4092 5853
4093 5081
4093 6165
4094 5804
4095 6040
4097 4098
4097 5046
4097 6362
4099 4100
4101 4691
4101 5859
4101 6948
4102 4103
4102 5306
4103 7057
4104 4105
4104 4608
4105 5270
4107 4108
4107 7445
4108 5564
4108 5714
4109 6197
4110 4111
4110 4260
4111 7158
4113 4114
4113 7042
4116 4117
4118 4119
4121 4122
4121 6241
4122 6745
4123 4124
4123 4160
4124 5024
4125 4126
4125 5884
4126 6246
4127 4128
4128 5907
4129 4485
4130 7002
4131 4132
4131 7672
4133 4720
4133 5483
4135 4136
4135 4477
4136 7228
4137 4648
4138 5543
4138 5938
4139 4140
4139 5309
4139 6364
4143 4872
4144 4145
4146 6439
4148 4678
4149 4150
4149 6018
4150 6461
4151 4152
4151 5341
4152 5709
4153 4154
4153 6170
4155 4156
4156 5792
4156 6100
4157 6688
4158 5811
4161 4162
4161 7243
4163 4610
4166 4167
4166 5559
4167 4784
4168 5488
4168 7379
4170 6732
4171 5092
4172 4173
4173 5676
4174 4417
4174 6875
4175 4555
4176 4177
4176 4728
4177 7677
4180 5522
4182 4183
4182 4387
4183 6124
4184 4185
4184 6920
4185 4625
4186 4187
4187 7406
4188 4189
4189 6412
4190 7015
4193 4194
4193 6586
4193 6983
4195 5340
4196 4197
4200 4201
4201 4457
4202 4203
4202 4578
4202 7133
4203 4578
4203 5397
4206 4207
4206 5039
4206 5960
4210 4211
4210 5151
4213 4214
4213 4601
4213 5271
4215 4216
4216 4588
4217 6404
4218 4219
4218 5006
4218 5685
4220 4221
4220 6688
4221 5901
4222 4223
4224 4341
4226 4227
4227 4918
4228 4229
4229 6862
4231 4232
4232 6251
4233 4234
4235 5051
4236 4237
4236 7588
4238 6901
4239 7740
4240 7602
4241 4242
4243 7330
4250 5079
4251 4252
4251 7228
4252 4580
4253 4254
4253 4820
4253 5293
4254 6106
4255 4256
4255 5196
4257 4258
4258 5938
4259 6159
4260 5477
4260 6825
4263 7760
4265 4266
4265 5791
4265 7271
4266 7425
4267 4268
4267 4420
4267 6572
4268 4858
4269 4939
4271 4272
4271 5313
4272 4640
4273 4274
4274 4708
4274 5989
4275 4276
4277 4436
4279 5492
4279 6693
4280 5812
4281 4282
4281 5325
4284 4285
4285 6229
4286 4287
4286 4479
4288 5178
4290 4291
4291 7712
4292 4690
4295 6480
4299 5300
4300 6140
4301 6423
4302 5417
4302 7023
4303 4304
4303 7311
4304 6309
4305 5350
4306 4307
4307 4932
4308 6174
4311 4312
4312 4949
4314 4315
4314 6348
4315 7098
4316 4317
4318 5826
4319 4678
4319 6234
4321 4322
4321 7511
4322 7114
4323 4324
4325 4326
4325 6690
4327 6416
4328 4329
4329 6654
4330 5472
4331 4332
4333 6264
4334 4335
4336 6021
4338 4339
4340 7573
4343 5347
4344 6467
4345 4472
4347 4348
4347 6816
4350 4351
4351 7441
4353 4636
4353 5703
4355 4356
4359 5250
4359 7826
4360 4361
4361 5319
4362 4581
4364 4365
4364 6450
4367 4368
4369 6345
4371 5813
4371 6605
4372 5930
4373 5307
4373 5447
4374 4375
4374 7431
4375 6696
4376 7824
4380 5308
4381 4732
4382 4383
4383 5147
4384 5710
4385 4386
4386 6493
4388 6524
4389 7761
4390 4391
4392 4931
4394 5363
4394 5600
4396 5500
4397 4398
4397 7639
4398 4820
4399 4400
4401 4402
4402 6646
4403 4404
4407 4408
4407 5184
4411 4412
4411 6973
4413 4414
4413 5086
4421 4422
4422 4872
4424 4425
4424 4668
4425 6116
4426 4427
4427 7592
4429 4430
4429 4773
4431 6849
4432 7849
4435 4436
4435 5143
4437 4438
4437 4757
4438 4757
4438 7435
4443 6619
4443 7255
4444 4445
4444 7401
4444 7427
4447 4448
4447 4804
4450 4715
4450 7214
4451 4452
4451 6394
4451 7209
4452 6621
4454 4455
4454 5267
4455 5429
4458 4459
4459 6648
4459 7260
4460 6312
4463 5940
4463 7182
4464 4465
4465 7039
4466 6984
4467 6284
4468 4469
4468 4941
4469 7020
4471 6052
4472 4473
4472 4508
4474 4475
4474 5822
4475 6892
4476 4685
4476 6460
4477 6971
4478 4479
4478 5674
4482 4483
4482 7638
4484 5811
4484 7398
4486 4487
4487 5596
4488 5417
4490 4491
4491 7757
4492 4493
4492 6186
4494 4495
4495 5335
4495 6443
4497 4498
4498 4620
4499 5019
4504 5962
4504 6447
4505 4506
4505 7182
4506 4631
4507 5028
4507 6368
4508 5431
4509 6782
4511 6334
4512 6170
4515 4766
4517 6008
4519 7031
4519 7313
4521 5736
4521 7613
4523 4524
4525 6635
4526 4527
4526 6347
4526 7520
4528 6665
4529 4530
4530 5645
4531 4532
4532 7698
4534 4535
4534 4947
4534 6475
4535 6475
4536 4537
4536 5533
4537 7324
4538 6147
4539 4540
4540 6221
4541 6112
4543 4544
4545 4546
4546 5869
4547 7557
4550 4594
4550 5125
4551 5075
4552 4954
4553 4554
4553 6178
4554 6209
4556 5160
4557 4558
4557 4685
4558 4893
4563 5646
4564 4832
4564 7606
4565 6900
4566 7068
4568 4569
4568 7687
4569 5695
4570 6292
4571 4572
4576 4577
4578 4823
4578 5015
4578 6920
4580 5398
4582 4583
4583 6143
4588 4956
4589 4590
4589 4605
4590 6446
4593 5402
4594 4941
4598 6068
4600 6387
4603 4604
4606 6505
4606 7695
4607 7476
4609 4610
4611 4612
4611 6252
4611 6997
4612 6771
4614 5785
4615 6232
4616 6142
4617 4618
4617 6177
4617 6558
4619 5530
4620 5341
4622 5288
4623 4624
4626 4627
4626 7879
4628 4629
4629 6684
4630 4631
4632 4633
4635 5222
4636 6176
4637 6792
4638 4639
4639 4975
4641 4642
4641 4677
4642 5563
4643 4644
4643 7847
4645 5301
4646 4647
4646 6872
4649 5074
4650 4651
4650 5923
4652 5909
4654 4655
4655 5412
4656 4657
4656 6565
4657 6059
4659 4660
4659 4875
4662 4663
4662 6498
4665 6577
4669 4670
4669 7429
4671 4672
4671 5823
4673 4674
4674 7363
4675 4676
4675 6376
4676 5051
4678 4679
4679 6561
4680 5194
4682 4683
4683 5578
4685 7442
4685 7628
4686 4687
4686 5927
4687 4972
4688 4689
4688 6240
4689 5862
4695 4696
4696 5376
4696 6608
4698 4699
4699 7148
4699 7293
4701 4702
4701 6074
4702 5237
4704 6642
4705 4706
4706 5448
4707 6814
4708 6710
4710 5422
4711 7669
4712 4713
4713 4928
4719 4720
4721 4722
4723 4724
4726 4727
4726 7546
4729 4730
4729 6393
4730 5704
4732 6452
4733 4734
4733 5606
4735 5169
4736 4737
4736 7394
4738 4739
4739 5413
4741 7491
4743 5411
4744 4745
4744 4756
4744 5727
4745 5658
4745 6410
4746 7663
4747 4748
4747 6487
4748 5553
4748 6800
4750 4751
4753 6517
4753 7825
4754 4755
4755 6636
4758 5969
4760 4761
4762 4763
4762 6805
4765 4904
4770 6477
4771 4772
4771 6254
4773 5293
4773 5890
4774 4775
4774 5604
4776 7384
4777 4778
4778 5203
4779 4780
4779 4940
4780 7501
4781 6894
4782 5802
4782 7844
4788 6027
4788 7446
4791 5537
4795 4796
4799 4800
4799 5721
4799 6919
4801 4802
4804 6628
4805 4806
4806 6182
4809 4810
4809 6833
4810 6327
4824 6533
4827 6917
4828 5919
4829 4830
4829 4853
4831 4832
4834 4835
4835 6589
4836 4837
4839 4840
4840 6996
4841 4842
4841 7273
4842 7495
4843 4844
4844 5863
4846 5976
4847 4848
4849 4850
4849 4984
4850 5275
4850 5696
4851 4852
4856 4857
4856 6726
4857 6549
4859 6391
4861 7790
4862 4863
4862 4932
4863 7093
4864 4995
4868 7657
4869 7595
4870 5232
4875 6576
4878 4879
4879 6225
4880 7391
4882 4883
4882 5328
4885 4886
4885 6989
4887 4888
4887 5522
4888 6185
4891 4892
4891 5028
4892 6184
4894 4895
4894 5382
4896 4897
4898 6400
4898 6768
4899 4900
4901 4902
4902 4967
4903 4904
4903 6452
4906 6171
4907 6538
4909 4910
4911 6966
4913 4914
4913 5121
4915 4916
4915 6703
4916 6047
4916 6456
4917 6862
4919 5783
4920 4921
4920 6834
4921 7547
4923 5421
4924 5305
4925 4926
4925 5776
4926 6666
4928 7171
4929 4930
4930 5952
4931 6181
4933 7345
4934 4935
4934 5667
4935 4989
4938 4939
4940 5373
4941 7149
4942 5219
4943 4944
4944 5387
4945 6341
4946 7812
4947 4948
4948 6475
4949 6316
4950 4951
4950 6160
4950 7052
4951 7233
4953 7336
4954 4955
4959 6660
4960 4961
4960 5831
4964 7059
4968 4969
4968 5472
4969 5011
4970 6317
4971 5910
4972 4973
4973 5296
4975 6925
4977 7302
4978 4979
4978 5257
4980 5618
4980 6092
4982 4983
4982 6420
4984 4985
4984 5156
4986 4987
4987 5774
4988 4989
4988 7444
4992 4993
4992 7488
4994 6477
4996 4997
4996 6330
4997 6390
4997 6955
4998 5369
4999 5000
5000 5031
5000 5033
5001 7094
5002 5003
5003 7211
5004 5005
5005 5536
5006 5007
5007 6592
5009 5010
5009 6700
5011 6532
5012 5013
5012 7558
5012 7833
5016 6306
5016 7278
5017 5018
5019 5020
5019 5636
5020 5574
5020 6611
5022 6782
5022 7619
5023 5380
5024 7539
5025 5026
5025 6636
5029 5410
5031 7642
5032 6379
5033 6715
5034 5987
5035 5036
5038 5039
5041 5590
5041 5971
5042 5043
5042 7055
5044 6472
5045 5046
5045 5078
5045 7447
5048 5049
5048 5435
5048 6043
5050 5294
5052 5542
5052 7455
5053 6608
5053 7368
5054 5055
5055 5386
5056 5057
5060 5099
5061 5965
5063 5064
5063 5327
5063 6272
5065 7467
5066 5177
5068 5069
5071 5072
5072 6886
5075 7018
5079 5080
5080 6485
5084 7074
5086 5087
5087 7247
5089 5090
5090 6195
5091 5092
5091 6293
5093 5094
5093 5939
5095 7132
5096 5097
5098 5099
5098 6397
5098 6421
5102 5103
5104 5336
5105 5106
5108 6287
5110 5258
5110 6855
5112 5113
5112 5972
5115 5709
5117 5118
5118 6785
5118 7332
5119 5898
5119 5911
5122 5123
5122 5867
5126 5127
5126 6427
5127 6622
5128 7810
5130 5223
5131 5668
5133 5134
5134 6001
5136 5137
5136 6799
5138 5139
5139 7012
5139 7224
5141 5792
5142 5143
5142 6128
5144 5145
5147 5148
5147 5906
5148 5478
5149 5150
5149 6299
5150 7591
5156 6895
5157 5913
5160 7373
5162 5163
5162 7254
5163 6443
5164 6524
5165 5213
5167 5168
5167 6584
5169 5565
5170 5957
5172 5173
5172 5398
5173 7017
5174 7377
5176 6044
5178 5179
5182 5183
5184 5428
5186 5187
5186 5713
5187 5235
5188 5189
5188 6473
5190 5191
5195 5499
5196 5304
5196 5838
5200 5201
5200 5492
5204 7787
5206 7065
5207 6183
5209 5210
5210 6692
5210 6759
5210 6865
5211 5212
5211 6039
5213 5214
5214 6026
5215 5216
5216 6747
5217 5218
5221 5222
5221 6520
5223 5777
5224 5619
5225 6081
5226 5227
5226 7153
5227 7115
5228 5520
5229 5230
5229 6346
5231 5232
5235 5236
5237 7524
5237 7528
5238 6408
5238 7713
5245 5246
5245 5879
5245 7769
5246 5308
5246 7375
5247 5248
5250 5363
5251 5252
5251 5984
5252 5917
5253 5254
5256 5332
5257 6044
5258 7644
5259 5260
5259 6752
5260 5290
5263 5264
5263 7198
5264 6248
5265 6943
5270 5963
5270 6115
5271 5272
5271 5380
5273 5274
5273 7299
5276 5277
5276 5561
5277 5911
5280 7402
5281 5750
5285 5286
5289 6992
5291 5292
5295 5356
5296 7016
5297 7024
5298 6009
5300 7782
5302 5303
5302 5885
5303 6805
5304 5721
5309 7363
5310 5502
5313 6076
5316 5317
5317 6521
5317 7690
5318 6858
5320 7580
5321 6445
5321 6551
5322 5512
5323 5324
5323 7324
5325 6242
5326 5327
5326 7754
5327 5679
5329 5330
5331 7342
5332 5333
5336 5337
5343 5344
5344 5972
5346 6522
5349 5675
5349 6050
5351 5352
5358 5359
5359 5773
5360 5361
5360 5675
5361 6610
5367 6910
5369 7069
5370 5371
5371 5625
5372 7369
5373 5374
5374 7188
5377 5378
5378 5521
5378 6661
5378 7202
5382 5383
5385 5386
5387 5388
5389 5485
5389 6350
5391 5392
5393 7573
5396 6708
5397 6159
5399 5400
5405 6717
5407 6014
5408 5409
5409 6896
5412 5601
5413 5414
5414 5510
5416 7477
5420 5421
5420 7072
5424 5425
5424 5650
5427 5915
5428 6049
5431 5432
5431 5779
5434 5435
5436 5691
5436 7772
5437 5438
5440 5441
5442 5659
5444 5445
5445 6219
5445 6889
5446 7107
5448 6791
5449 5450
5451 7450
5453 5454
5456 5457
5457 6277
5458 5459
5458 6201
5459 5832
5461 5839
5462 5463
5463 7448
5465 5466
5465 7343
5466 6518
5471 6335
5472 5473
5473 6155
5474 5475
5483 5484
5485 5731
5486 5987
5487 7712
5488 5766
5489 6373
5493 5494
5494 5875
5495 5496
5498 5822
5499 7486
5500 6036
5503 5504
5503 5851
5504 6315
5505 5506
5507 6375
5508 6116
5510 5511
5511 6577
5511 6938
5514 5515
5516 5517
5517 6516
5518 5519
5518 5894
5523 5524
5524 7144
5526 5527
5527 6801
5532 6331
5534 5535
5534 6552
5536 5537
5538 5539
5538 6031
5539 6907
5540 5541
5540 5554
5544 5545
5544 6038
5548 5549
5548 5613
5549 6496
5550 5551
5553 6699
5554 5951
5554 6741
5555 5556
5555 7690
5557 6235
5558 6428
5562 5819
5564 5565
5564 5922
5567 5568
5569 5570
5569 6772
5571 5940
5571 7727
5573 5629
5573 6360
5575 5576
5576 6357
5578 6215
5579 6537
5579 7099
5580 6886
5581 5582
5582 7086
5582 7147
5584 6214
5585 5586
5586 5970
5586 6756
5587 5825
5588 6655
5589 5649
5591 6761
5593 5594
5595 6520
5596 5597
5598 5599
5598 6804
5599 5920
5601 5866
5603 6746
5604 5605
5605 6517
5606 7530
5609 5610
5610 6212
5617 7474
5617 7632
5621 7042
5622 5623
5622 6760
5626 5627
5626 5735
5630 5631
5630 6858
5634 7621
5635 7020
5637 6625
5637 6749
5638 7544
5639 5640
5639 7118
5642 5643
5647 7176
5648 6180
5652 5653
5654 7150
5655 6924
5655 7053
5656 5657
5659 6198
5659 6522
5661 5662
5661 6761
5662 7508
5664 5665
5664 6985
5666 5667
5666 6887
5669 5670
5669 6197
5671 5672
5672 7036
5675 6610
5676 5677
5679 6507
5680 5681
5681 6172
5683 5684
5684 6803
5685 6396
5686 5687
5687 7230
5691 6840
5691 7323
5692 5693
5694 7395
5695 6343
5698 6579
5700 5701
5701 7246
5705 5706
5707 6976
5710 6560
5714 5760
5714 6270
5715 5716
5717 5718
5719 7629
5724 5725
5728 5729
5731 6024
5734 6936
5738 7515
5739 5740
5742 5743
5745 6879
5747 5748
5747 6584
5751 5752
5752 6087
5753 5754
5753 6126
5755 5756
5757 5865
5759 6702
5759 7806
5762 5763
5764 5765
5764 7103
5766 6904
5767 5768
5767 6488
5768 7394
5769 5770
5769 7814
5772 5773
5772 6499
5773 5797
5775 5776
5778 5779
5782 6052
5784 5785
5786 5891
5787 5788
5787 6186
5789 5790
5789 6554
5790 7610
5792 7497
5795 5796
5796 5803
5797 7287
5800 5801
5804 6735
5805 7490
5805 7729
5806 7347
5808 5809
5809 6068
5812 7682
5815 6935
5816 5817
5816 7032
5818 5819
5819 6784
5827 5828
5827 6130
5829 6955
5833 6542
5835 5836
5837 6432
5839 5840
5841 6137
5843 5844
5844 7630
5845 5846
5847 5856
5847 6151
5848 5849
5850 7514
5851 7382
5852 5853
5852 5956
5853 6975
5854 5855
5854 7127
5858 7645
5858 7774
5860 6122
5863 5906
5864 6961
5865 5866
5869 7451
5872 5873
5875 5876
5877 7767
5881 6088
5883 5884
5884 5980
5886 6173
5887 5888
5888 7605
5889 6467
5892 7431
5902 7617
5903 6788
5903 7818
5904 7067
5905 6355
5905 6519
5908 5909
5910 7134
5911 6089
5913 6249
5915 5985
5920 7356
5923 5996
5923 7581
5925 6146
5926 5927
5926 6777
5928 5929
5931 5932
5934 5935
5935 6504
5941 6167
5942 5943
5943 6099
5947 5948
5948 7725
5950 6140
5952 5953
5953 5983
5955 5956
5957 7766
5958 5959
5960 6434
5961 7169
5964 5965
5965 7436
5967 5968
5970 5971
5970 7327
5971 6007
5973 5974
5973 6446
5975 6674
5977 5978
5979 5980
5979 6719
5981 6102
5983 5984
5986 7016
5990 7808
5994 7219
5997 5998
5997 6995
6001 6144
6003 6004
6003 7229
6011 6012
6012 6361
6014 7587
6015 6016
6016 7755
6017 6018
6017 6993
6019 6020
6020 6743
6021 7129
6022 6981
6024 6025
6025 6863
6026 6027
6027 6444
6028 6029
6028 7087
6032 6988
6034 6147
6036 6037
6036 6189
6038 6588
6040 6280
6042 6043
6043 6053
6045 6046
6047 7169
6053 6054
6056 6057
6060 7223
6063 6064
6066 6067
6066 6102
6067 6179
6071 6072
6071 6755
6073 7166
6075 6076
6077 6078
6079 6080
6082 6083
6082 6992
6083 7807
6085 6086
6086 6853
6089 6716
6090 7753
6093 7795
6095 7385
6100 6821
6101 7104
6103 6104
6103 6732
6106 7248
6108 7326
6111 7874
6112 6980
6113 6114
6113 7309
6115 6671
6116 6117
6119 7637
6120 6121
6122 7304
6123 7160
6126 6406
6129 6786
6131 6132
6133 6134
6133 7337
6134 7612
6135 6136
6135 6402
6137 6450
6143 6821
6145 6645
6145 7104
6146 6337
6153 6308
6157 7802
6158 7400
6158 7522
6161 6162
6162 6986
6163 6164
6167 6168
6172 6853
6173 6370
6174 6175
6176 6749
6177 6178
6178 6901
6181 7716
6184 6185
6186 6474
6189 6216
6190 6191
6190 7278
6192 6193
6196 6197
6196 7479
6199 6806
6200 7058
6202 6305
6202 7200
6203 6204
6206 7717
6212 6213
6213 7078
6215 7297
6216 7230
6217 6752
6219 7056
6221 6222
6226 6455
6230 6231
6236 6237
6237 7468
6241 6346
6244 6245
6244 7577
6245 7087
6247 6567
6248 7538
6251 6687
6253 6994
6256 6257
6258 7155
6260 6648
6261 6262
6264 6367
6269 6859
6270 6658
6271 6913
6273 7279
6274 6275
6274 6425
6280 6281
6282 7513
6288 7049
6291 6725
6294 6295
6297 6526
6298 6354
6299 7177
6301 6725
6303 7344
6304 7689
6309 7786
6311 6312
6315 6316
6317 6318
6318 7135
6321 6322
6321 7226
6323 6324
6324 7560
6328 7263
6330 6572
6332 6333
6336 6337
6338 6339
6341 7191
6351 7620
6353 7548
6354 7850
6357 6358
6358 6915
6362 6363
6362 7392
6368 6615
6369 6757
6371 7205
6374 6375
6374 7116
6376 6794
6377 7724
6381 6382
6381 7053
6383 6479
6387 6711
6387 7652
6388 7702
6390 6505
6397 6398
6400 6401
6401 7309
6405 6406
6405 7417
6412 6944
6416 6417
6418 6419
6418 7140
6418 7440
6419 6648
6420 7304
6423 6424
6424 6660
6425 7805
6430 6431
6432 6433
6436 6437
6436 7447
6438 6439
6440 6441
6440 6541
6447 6448
6452 7305
6453 6454
6458 6459
6460 6626
6461 6681
6465 7434
6469 6470
6469 7643
6470 7548
6476 6798
6480 6481
6484 6713
6485 6903
6490 6689
6491 6492
6491 6597
6492 7697
6493 6494
6495 7473
6500 6501
6509 6510
6514 6515
6522 6893
6522 7289
6529 7176
6530 6531
6534 6535
6536 6596
6539 7463
6540 6541
6544 6545
6544 7380
6544 7553
6548 6549
6559 7680
6560 6616
6561 6562
6565 6987
6570 7723
6573 6574
6574 7362
6575 6576
6580 6581
6582 6583
6590 6875
6597 7639
6600 6601
6600 6713
6601 6652
6602 6603
6602 6896
6608 7179
6610 7076
6612 6613
6612 7015
6616 6617
6627 7700
6631 6632
6631 7240
6632 7007
6635 7779
6637 7525
6638 6639
6638 7526
6641 7486
6642 6643
6643 7530
6644 6645
6644 7675
6649 6650
6649 6671
6651 6666
6653 6923
6654 6812
6667 6668
6668 7460
6675 6676
6679 6680
6681 6982
6682 7643
6685 6686
6693 6694
6696 6697
6704 6705
6706 7556
6707 7789
6708 6709
6712 6899
6714 6715
6714 7286
6720 6721
6726 7307
6730 6731
6736 6737
6739 7272
6741 6742
6742 6845
6742 7119
6743 7678
6744 6917
6745 7502
6754 7694
6756 7070
6763 6764
6763 7060
6765 7329
6771 7170
6771 7456
6775 6776
6775 6925
6780 6781
6787 6788
6787 7048
6788 6862
6789 7531
6792 7658
6795 6796
6804 7259
6809 7796
6810 7285
6815 6816
6824 6825
6824 7126
6830 6831
6831 7763
6833 7027
6836 7101
6850 6851
6855 6856
6857 7017
6866 7031
6870 6871
6871 7194
6872 6873
6878 6879
6878 7384
6884 6885
6884 7815
6887 7711
6888 7234
6891 6892
6897 6898
6897 7764
6904 6951
6912 6913
6915 6932
6919 7370
6921 7501
6928 7413
6929 6930
6938 7238
6941 6942
6945 7623
6953 6954
6956 7088
6957 6958
6963 7315
6966 6967
6970 7063
6983 7025
6986 7577
6990 7510
6999 7157
7004 7005
7007 7008
7013 7014
7014 7227
7025 7026
7029 7030
7033 7229
7034 7035
7039 7040
7039 7167
7045 7046
7047 7048
7054 7353
7057 7058
7061 7062
7081 7082
7082 7159
7089 7090
7090 7594
7095 7189
7095 7314
7096 7878
7098 7488
7101 7698
7109 7110
7113 7870
7116 7181
7117 7118
7119 7120
7125 7126
7128 7129
7132 7778
7135 7136
7140 7260
7141 7142
7147 7245
7149 7282
7152 7153
7160 7161
7162 7163
7164 7471
7169 7208
7170 7257
7187 7408
7188 7665
7191 7361
7193 7454
7196 7262
7199 7200
7199 7262
7218 7219
7223 7578
7226 7227
7233 7234
7235 7267
7241 7242
7249 7250
7252 7253
7255 7256
7257 7258
7263 7634
7265 7266
7265 7715
7268 7800
7273 7274
7276 7277
7277 7539
7281 7397
7281 7580
7290 7291
7296 7537
7317 7318
7319 7681
7321 7679
7322 7611
7325 7491
7345 7346
7347 7348
7354 7357
7355 7846
7366 7367
7373 7374
7385 7386
7393 7515
7405 7636
7405 7842
7406 7407
7406 7480
7410 7638
7426 7427
7429 7430
7447 7534
7448 7449
7451 7452
7467 7498
7468 7469
7473 7474
7482 7483
7482 7508
7483 7489
7492 7493
7492 7505
7494 7517
7510 7545
7512 7872
7513 7571
7517 7686
7518 7519
7528 7529
7538 7571
7557 7562
7587 7747
7589 7610
7592 7593
7603 7604
7612 7801
7615 7616
7625 7626
7627 7737
7651 7652
7658 7659
7663 7764
7670 7671
7684 7685
7692 7693
7699 7743
7804 7805
7857 7858
