0 500
0 54
0 882
0 377
0 315
0 383
0 812
0 332
0 823
0 941
0 116
0 599
0 824
0 317
0 375
0 308
0 105
0 309
0 228
0 254
0 978
0 180
0 323
0 110
0 73
0 601
0 10
0 582
0 828
0 827
0 189
0 124
0 86
0 410
0 946
0 670
0 362
0 206
0 961
0 297
0 573
0 916
0 787
0 256
0 121
0 313
0 729
0 964
0 160
0 342
0 681
0 688
0 372
0 496
1 624
1 382
1 807
1 952
1 882
1 521
1 84
1 515
1 297
1 20
1 652
1 388
1 942
1 555
1 405
1 910
1 543
1 426
1 261
1 558
1 70
1 129
1 902
1 530
1 81
1 77
1 977
1 172
1 763
1 893
1 618
1 757
1 967
1 802
1 594
1 628
1 572
1 929
1 541
1 221
1 267
1 164
1 670
1 695
1 484
1 667
1 274
1 92
1 107
1 790
1 920
2 548
2 215
2 64
2 179
2 165
2 803
2 962
2 929
2 837
2 914
2 418
2 939
2 694
2 658
2 669
2 660
2 705
2 632
2 699
2 322
2 119
2 940
2 396
2 552
2 222
2 531
2 285
2 501
2 152
2 522
2 149
2 46
2 584
2 624
2 676
2 188
2 718
2 735
2 744
2 754
2 255
2 278
2 296
2 857
2 912
2 919
2 450
2 947
2 654
2 361
2 122
2 368
2 386
2 715
2 133
3 841
3 416
3 488
3 592
3 54
3 547
3 105
3 715
3 424
3 796
3 782
3 920
3 220
3 819
3 463
3 503
3 123
3 533
3 128
3 629
3 750
3 890
3 371
3 33
3 435
3 118
3 693
3 616
3 580
3 338
3 675
3 792
3 990
3 650
3 307
3 974
3 941
3 102
3 900
3 208
3 630
3 85
4 366
4 514
4 884
4 16
4 57
4 400
4 654
4 895
4 595
4 636
4 862
4 602
4 882
4 955
4 873
4 777
4 262
4 302
4 763
4 290
4 613
4 913
4 247
4 192
4 177
4 193
4 800
4 901
4 524
4 526
4 41
4 54
4 600
4 106
4 625
4 646
4 655
4 710
4 723
4 257
4 294
4 295
4 946
4 475
4 498
4 809
4 351
4 506
4 885
5 668
5 879
5 611
5 550
5 487
5 517
5 556
5 757
5 981
5 954
5 823
5 809
5 109
5 27
5 537
5 29
5 546
5 807
5 326
5 594
5 346
5 609
5 894
5 184
5 434
5 682
5 599
5 557
6 676
6 399
6 217
6 742
6 54
6 328
6 441
6 454
6 900
6 651
6 776
6 708
6 782
6 435
6 335
6 208
6 733
6 503
6 118
6 768
7 676
7 278
7 608
7 542
7 866
7 868
7 367
7 960
7 413
7 216
7 192
7 15
7 226
7 937
7 528
7 25
7 576
7 96
7 354
7 102
7 620
7 455
7 294
7 623
8 874
8 418
8 653
8 318
8 982
8 367
8 520
8 137
8 207
8 881
8 735
8 292
8 618
8 663
8 119
8 13
8 401
8 170
8 565
8 55
8 822
8 201
8 716
8 614
8 879
8 203
8 134
8 706
8 967
9 754
9 528
9 542
9 465
9 894
9 211
9 448
9 995
9 180
9 557
9 253
9 424
9 45
9 58
9 586
9 87
9 94
9 623
9 162
9 270
9 863
9 480
9 762
9 522
10 354
10 537
10 319
10 806
10 110
10 241
10 317
10 828
10 377
10 73
10 812
10 410
10 105
10 827
10 323
10 189
10 682
10 308
10 601
10 228
10 843
10 357
10 309
10 529
10 386
10 98
10 977
10 723
10 757
10 968
10 683
10 496
10 329
10 435
10 180
10 116
10 254
10 607
10 419
11 857
11 673
11 878
11 520
11 137
11 356
11 13
11 833
11 201
11 999
11 904
11 996
11 869
11 754
11 309
11 518
11 34
11 647
11 118
11 19
11 152
11 565
11 719
11 622
11 879
11 881
11 498
11 697
11 293
11 441
12 800
12 301
12 214
12 536
12 327
12 958
12 245
12 415
12 917
12 416
12 349
12 234
12 838
12 396
12 711
12 775
12 404
12 378
12 318
12 279
12 233
12 813
12 266
12 460
12 937
12 71
12 982
12 562
12 248
12 467
12 190
12 876
12 653
12 79
12 979
12 481
12 242
12 513
12 673
12 173
12 968
12 499
12 303
12 687
12 443
12 510
12 736
12 479
12 789
12 841
12 353
12 652
12 672
12 617
12 845
12 695
12 913
12 202
12 593
12 878
12 972
12 254
12 137
12 549
12 725
12 140
12 125
12 566
12 535
12 539
12 261
12 281
12 489
12 908
12 639
12 749
12 243
12 339
12 427
12 622
12 525
12 766
12 361
12 391
12 671
12 901
12 675
12 690
12 779
13 520
13 137
13 879
13 201
13 23
13 756
13 622
13 207
13 614
13 999
13 869
13 204
13 716
13 55
13 728
13 89
13 148
13 719
13 833
13 170
13 565
13 401
13 217
13 754
13 853
13 390
13 637
13 292
13 51
13 959
13 308
13 890
13 223
13 727
13 139
13 19
13 152
13 822
13 465
13 996
13 306
13 103
13 40
13 628
13 888
13 107
13 419
13 557
14 891
14 583
14 211
14 538
14 218
14 250
14 402
14 372
14 226
14 395
14 109
14 656
14 174
14 871
14 908
14 961
14 421
14 875
14 516
14 158
14 240
14 880
14 770
14 714
14 56
14 276
14 987
14 885
14 685
14 154
14 490
14 773
14 566
14 44
14 53
14 150
14 570
14 37
14 249
14 704
14 489
14 431
14 136
14 808
14 893
14 28
14 157
14 642
14 883
14 922
14 452
14 728
14 604
14 537
14 511
14 162
14 643
14 711
14 260
14 393
14 95
14 746
14 988
14 346
14 433
14 835
14 52
15 291
15 792
15 690
15 454
15 286
15 293
15 447
15 145
15 92
15 419
15 82
15 692
15 66
15 385
15 430
15 408
15 603
15 896
15 90
15 647
15 764
15 734
15 181
15 75
15 858
15 429
15 686
15 120
15 689
15 414
15 195
15 974
15 707
15 153
15 727
15 58
15 538
15 811
15 584
15 84
15 396
15 39
15 333
15 770
15 755
15 569
15 863
15 441
15 997
16 854
16 602
16 524
16 302
16 771
16 797
16 864
16 526
16 35
16 290
16 821
16 539
16 336
16 786
16 844
16 39
16 333
16 850
16 945
16 921
16 391
16 638
16 946
16 475
16 887
16 589
16 862
16 361
16 423
16 147
16 895
16 636
16 166
16 321
16 185
16 349
16 411
16 519
16 245
16 847
16 703
16 911
16 738
16 814
16 126
16 281
16 367
16 315
16 592
16 646
16 299
16 412
16 498
16 555
16 342
16 793
16 871
17 528
17 450
17 455
17 866
17 101
17 518
17 237
17 608
17 641
17 452
17 102
17 297
17 100
17 466
17 637
17 883
17 577
17 96
17 449
17 719
17 728
17 771
17 559
17 270
17 228
17 961
18 248
18 243
18 349
18 279
18 303
18 903
18 466
18 481
18 499
18 683
18 467
18 775
18 190
18 513
18 427
18 266
18 214
18 673
18 876
18 391
18 983
18 693
18 972
18 106
18 149
18 844
18 623
18 177
18 711
18 221
18 749
18 272
18 813
18 396
18 404
18 979
18 510
18 450
18 726
18 222
18 151
18 949
19 711
19 25
19 520
19 137
19 756
19 148
19 239
19 456
19 253
19 833
19 822
19 881
19 401
19 529
19 356
19 614
19 716
19 207
19 217
19 344
19 728
19 201
19 465
19 204
19 879
19 152
19 55
19 358
19 394
19 162
19 861
19 56
19 50
19 908
19 947
19 845
19 584
19 867
19 405
19 354
19 23
19 202
19 342
19 534
20 536
20 600
20 261
20 515
20 902
20 84
20 77
20 525
20 260
20 560
20 140
20 545
20 936
20 330
20 334
20 568
20 885
20 909
21 188
21 404
21 396
21 653
21 353
21 273
21 214
21 876
21 79
21 173
21 531
21 700
21 494
21 559
21 363
21 536
21 562
21 687
21 177
21 243
21 264
21 780
21 801
21 318
21 349
21 886
21 415
21 427
21 979
21 402
21 549
22 119
22 668
22 412
22 97
22 471
22 478
22 131
22 725
22 508
22 417
22 992
22 724
22 898
22 68
22 926
22 651
22 954
22 458
22 146
22 713
22 468
22 304
22 511
22 933
22 439
22 901
22 709
22 677
22 434
22 368
22 817
22 161
22 292
22 132
22 224
22 851
22 804
22 446
22 778
22 544
22 256
22 252
22 799
22 444
22 648
22 906
22 847
22 965
22 769
22 355
22 925
22 143
22 343
22 613
22 225
22 271
22 386
22 616
22 387
22 989
22 425
22 791
22 972
22 835
22 393
22 803
22 924
22 202
22 280
22 730
22 177
22 887
22 788
22 701
22 777
22 850
22 82
22 572
22 738
22 467
22 329
22 321
22 116
22 174
22 299
22 103
22 700
22 598
22 498
22 734
22 153
22 916
22 600
22 762
22 298
22 334
22 193
22 482
23 137
23 344
23 565
23 756
23 904
23 615
23 919
23 408
23 264
23 170
23 55
23 833
23 716
23 719
23 89
23 996
23 881
23 839
24 777
24 691
24 619
24 448
24 334
24 930
24 167
24 360
24 574
24 108
24 121
24 693
24 963
24 861
24 127
24 272
24 983
24 710
24 30
24 338
24 516
24 357
24 571
24 62
24 607
24 144
24 675
24 291
24 888
24 892
24 392
24 949
24 975
24 408
24 649
25 800
25 512
25 519
25 407
25 853
25 452
25 413
25 964
25 237
25 866
25 641
25 878
25 830
25 384
25 910
25 592
25 806
25 725
25 283
25 542
25 868
25 101
25 620
25 367
25 455
25 216
25 329
25 323
25 116
25 675
25 790
25 496
26 841
26 217
26 589
26 315
26 189
26 823
26 110
26 824
26 828
26 73
26 342
26 978
26 410
26 241
26 582
26 228
26 311
26 968
26 510
26 63
26 837
26 819
26 697
26 997
26 180
26 309
26 323
26 332
26 599
26 105
26 116
26 53
27 481
27 517
27 531
27 870
27 643
27 644
27 986
27 469
27 546
27 487
27 981
27 952
27 104
27 593
27 556
27 807
27 29
27 188
27 312
27 308
27 769
27 958
27 790
27 859
27 32
27 678
27 326
27 346
27 609
27 494
27 238
27 302
27 992
27 949
27 997
28 927
28 452
28 152
28 822
28 807
28 994
28 308
28 140
28 265
28 714
28 893
28 109
28 871
28 249
28 490
28 226
28 402
28 773
28 421
28 908
28 875
28 570
28 158
28 372
28 770
28 44
28 685
28 431
28 516
28 154
28 880
28 240
28 31
28 808
28 961
28 56
28 52
28 373
28 53
28 802
28 227
28 276
28 566
28 150
28 236
28 558
28 479
28 485
28 298
28 359
28 553
28 646
28 697
28 222
28 184
28 825
28 645
28 617
28 106
28 870
28 235
28 701
28 626
28 682
28 118
29 912
29 741
29 643
29 517
29 537
29 159
29 678
29 758
29 501
29 986
29 870
29 760
29 759
29 419
29 592
29 372
29 887
29 853
29 204
29 807
29 326
29 981
29 609
29 645
29 935
29 127
29 714
30 173
30 273
30 339
30 248
30 741
30 639
30 243
30 71
30 787
30 463
30 925
30 491
30 313
30 679
30 711
30 749
30 318
30 349
30 886
30 378
30 396
30 404
30 460
30 481
30 959
30 289
30 107
30 441
30 208
31 210
31 743
31 598
31 811
31 492
31 93
31 949
31 899
31 728
31 878
31 460
31 808
31 52
31 53
31 372
31 402
31 987
31 240
31 768
32 857
32 622
32 756
32 957
32 820
32 902
32 995
32 713
32 441
32 374
32 155
32 571
32 607
32 121
32 127
32 675
32 698
32 753
32 809
32 392
32 433
32 975
32 734
32 286
32 158
33 36
33 488
33 306
33 67
33 763
33 543
33 411
33 265
33 128
33 649
33 796
33 435
33 220
33 557
33 46
33 115
33 88
33 848
33 477
33 676
33 951
33 208
33 733
33 629
33 503
33 474
34 536
34 219
34 710
34 498
34 374
34 206
34 581
34 606
34 484
34 471
34 459
34 223
34 364
34 591
34 781
34 945
34 182
34 144
34 247
34 743
34 455
34 978
34 547
34 695
34 60
34 76
34 988
34 610
34 628
34 381
34 708
34 930
34 193
34 158
34 696
34 522
35 221
35 346
35 175
35 524
35 103
35 805
35 147
35 882
35 200
35 811
35 785
35 115
35 726
35 977
35 375
35 261
35 831
35 305
35 54
35 589
35 595
35 710
35 763
35 257
35 294
35 820
35 884
35 412
35 58
35 997
35 44
36 255
36 668
36 962
36 676
36 548
36 934
36 939
36 624
36 316
36 744
36 694
36 584
36 759
36 814
36 940
36 296
36 705
36 215
36 483
36 735
36 369
36 914
36 322
36 399
36 188
36 153
36 314
36 720
36 632
36 938
36 800
36 418
36 923
36 179
36 837
36 660
36 935
36 396
36 44
36 442
36 607
36 256
36 234
36 521
36 707
36 250
36 294
36 91
36 274
36 425
36 119
36 669
36 718
36 754
36 803
36 829
36 857
36 919
36 927
36 204
36 766
36 746
36 129
36 343
36 689
36 920
37 188
37 620
37 239
37 425
37 75
37 656
37 714
37 908
37 431
37 240
37 53
37 566
37 160
37 632
37 778
37 505
37 363
37 109
37 372
37 402
37 987
37 900
37 495
37 740
38 668
38 284
38 919
38 498
38 633
38 120
38 56
38 656
38 522
38 662
38 88
38 133
38 560
38 605
38 689
38 766
38 345
38 489
38 358
38 600
38 967
38 213
38 231
39 536
39 639
39 404
39 232
39 642
39 552
39 462
39 627
39 854
39 895
39 57
39 486
39 549
39 521
39 968
39 213
39 41
39 595
39 646
39 666
39 710
39 723
39 211
39 763
39 821
39 882
39 412
39 498
39 670
39 270
39 713
39 274
39 688
40 986
40 57
40 411
40 376
40 457
40 203
40 244
40 100
40 196
40 43
40 633
40 45
40 985
40 995
40 980
40 340
40 523
40 87
40 635
40 845
40 596
40 836
40 883
40 370
40 69
40 788
40 765
40 486
40 224
40 338
40 452
40 818
40 719
40 830
40 738
40 677
40 207
40 70
40 756
40 58
40 586
40 80
40 94
40 619
40 162
40 270
40 815
40 305
40 863
40 448
40 994
40 983
40 566
40 372
40 213
41 165
41 735
41 739
41 481
41 830
41 104
41 269
41 785
41 106
41 412
41 257
41 300
41 299
41 626
41 627
41 166
41 294
41 873
41 595
41 990
41 646
41 864
41 147
41 636
41 771
41 403
41 625
41 945
41 589
41 277
41 820
41 423
41 638
41 333
41 610
41 459
41 77
41 904
41 716
41 576
41 971
41 140
41 501
41 591
41 347
41 685
41 505
41 920
41 439
41 54
41 655
41 710
41 280
41 821
41 475
41 936
41 196
41 305
41 144
41 66
41 385
42 283
42 60
42 613
42 133
42 779
42 231
42 85
42 818
42 691
42 419
42 484
42 472
42 567
42 859
42 496
42 497
43 718
43 251
43 998
43 619
43 579
43 883
43 505
43 792
43 471
43 298
43 482
43 45
43 559
43 58
43 586
43 87
43 94
43 623
43 203
43 270
43 806
43 305
43 826
43 845
43 980
43 994
43 995
43 323
43 975
43 733
44 418
44 749
44 243
44 404
44 546
44 701
44 748
44 601
44 144
44 949
44 975
44 689
44 697
44 702
44 399
44 92
44 692
44 53
44 136
44 987
44 240
45 939
45 404
45 703
45 806
45 826
45 287
45 836
45 765
45 442
45 559
45 448
45 80
45 74
45 970
45 370
45 340
45 185
45 436
45 523
45 788
45 601
45 321
45 685
45 621
45 233
45 242
45 96
45 382
45 778
45 297
45 58
45 579
45 94
45 657
45 203
45 270
45 815
45 994
45 995
45 433
45 706
45 918
46 676
46 632
46 658
46 718
46 314
46 735
46 669
46 399
46 912
46 914
46 694
46 720
46 179
46 366
46 737
46 284
46 699
46 579
46 70
46 752
46 965
46 266
46 840
46 592
46 119
46 153
46 668
46 754
46 296
46 857
46 919
46 451
46 481
46 719
46 996
46 771
46 475
46 530
46 842
46 174
46 213
47 216
47 524
47 794
47 423
47 752
47 626
47 526
47 701
47 437
47 211
47 797
47 397
47 869
47 187
47 136
47 831
47 54
47 589
47 600
47 602
47 106
47 638
47 646
47 212
47 257
47 805
47 821
47 862
47 882
47 955
47 475
47 498
47 762
47 130
47 846
47 973
47 747
48 326
48 580
48 524
48 701
48 583
48 794
48 777
48 873
48 779
48 628
48 362
48 889
48 54
48 602
48 636
48 646
48 654
48 211
48 763
48 257
48 94
48 252
48 817
48 949
48 53
49 479
49 481
49 996
49 509
49 525
49 269
49 592
49 500
49 184
49 631
49 117
49 932
49 888
49 818
49 816
49 467
49 50
49 306
49 947
49 585
49 587
49 726
49 621
49 755
49 766
49 777
49 942
49 140
49 842
50 814
50 642
50 269
50 755
50 306
50 621
50 222
50 998
50 194
50 580
50 552
50 525
50 307
50 319
50 631
50 500
50 416
50 600
50 778
50 806
50 739
50 991
50 962
50 753
50 947
50 957
50 585
50 655
50 299
50 496
51 188
51 518
51 367
51 528
51 216
51 576
51 868
51 379
51 491
51 878
51 350
51 477
51 852
51 357
51 933
51 461
51 608
51 96
51 102
51 455
51 537
51 114
51 334
52 584
52 302
52 281
52 402
52 109
52 158
52 227
52 566
52 405
52 140
52 559
52 991
52 361
52 53
52 880
52 372
52 885
52 656
52 685
52 174
52 714
52 987
53 694
53 396
53 602
53 270
53 842
53 392
53 430
53 226
53 150
53 250
53 880
53 893
53 154
53 431
53 875
53 490
53 360
53 61
53 633
53 652
53 695
53 854
53 742
53 372
53 402
53 158
53 714
53 987
54 705
54 735
54 494
54 524
54 336
54 257
54 794
54 492
54 539
54 884
54 797
54 406
54 295
54 895
54 931
54 921
54 811
54 640
54 200
54 955
54 583
54 106
54 412
54 854
54 625
54 147
54 771
54 820
54 498
54 945
54 946
54 514
54 763
54 333
54 290
54 862
54 57
54 432
54 475
54 666
54 300
54 852
54 299
54 786
54 423
54 101
54 429
54 773
54 359
54 899
54 843
54 193
54 682
54 389
54 489
54 116
54 235
54 670
54 313
54 867
54 493
54 592
54 886
54 721
54 362
54 600
54 636
54 654
54 655
54 710
54 211
54 229
54 294
54 821
54 882
54 847
54 373
54 85
55 632
55 510
55 520
55 756
55 881
55 869
55 152
55 204
55 565
55 996
55 217
55 622
55 456
55 716
55 344
55 465
55 999
55 89
55 207
55 356
55 879
55 529
55 253
55 170
55 719
55 728
55 401
55 822
55 498
55 138
55 579
55 679
55 670
55 604
55 956
55 197
55 132
55 220
55 954
55 418
55 816
55 213
55 292
55 614
55 537
55 609
55 381
55 544
55 151
55 160
55 926
55 86
55 254
55 392
55 419
55 961
56 748
56 623
56 381
56 144
56 689
56 265
56 802
56 893
56 489
56 490
56 222
56 246
56 563
56 985
56 372
56 685
57 138
57 354
57 89
57 277
57 492
57 290
57 945
57 212
57 283
57 91
57 139
57 146
57 595
57 636
57 147
57 710
57 205
57 257
57 475
57 995
57 959
57 799
57 846
57 892
57 603
57 497
58 718
58 378
58 611
58 269
58 523
58 559
58 970
58 657
58 994
58 883
58 586
58 287
58 411
58 806
58 966
58 635
58 436
58 980
58 428
58 985
58 203
58 162
58 633
58 505
58 670
58 596
58 169
58 185
58 995
58 836
58 623
58 579
58 863
58 597
58 922
58 563
58 196
58 815
58 340
58 703
58 457
58 991
58 87
58 788
58 270
58 100
58 74
58 80
58 422
58 826
58 448
58 845
58 329
58 244
58 765
58 182
58 370
58 305
58 813
58 195
58 184
58 72
58 237
58 672
58 766
58 223
58 235
58 912
58 102
58 502
58 319
58 299
58 509
58 489
58 880
58 355
58 95
58 479
58 295
58 580
58 336
58 890
58 978
58 94
58 325
58 848
58 441
59 841
59 478
59 511
59 392
59 846
59 612
59 130
59 328
59 901
59 119
59 829
59 514
59 62
59 618
59 681
59 745
59 753
59 892
59 424
59 949
59 90
59 310
60 418
60 585
60 767
60 294
60 77
60 263
60 471
60 480
60 345
60 488
60 433
60 402
60 915
60 76
60 865
60 360
60 83
60 662
61 179
61 418
61 881
61 307
61 306
61 438
61 440
61 957
61 223
61 226
61 903
61 956
61 319
61 585
61 209
61 755
61 766
61 424
61 734
62 391
62 412
62 995
62 575
62 235
62 360
62 191
62 588
62 745
62 433
62 753
62 798
62 795
62 171
62 397
62 956
62 664
62 975
62 328
62 574
62 612
62 693
62 911
62 392
62 163
62 897
62 144
62 698
62 281
62 236
62 708
62 722
62 861
62 389
62 311
62 659
62 424
62 541
62 553
62 971
62 472
62 409
62 618
62 617
62 848
62 540
62 230
62 502
62 963
62 702
62 127
62 681
62 892
62 135
62 949
62 607
62 65
62 532
62 667
62 842
62 284
62 175
62 232
62 224
62 981
62 954
62 700
62 640
62 778
62 763
62 716
62 299
62 138
62 518
62 460
62 495
62 398
62 993
62 380
62 582
62 797
62 980
62 248
62 109
62 660
62 688
62 279
62 533
62 121
62 774
63 772
63 393
63 527
63 663
63 691
63 572
63 477
63 573
63 72
63 461
63 358
63 97
63 321
63 856
63 122
63 751
63 114
63 748
63 885
63 517
63 907
63 302
63 833
63 227
63 887
63 239
63 834
63 203
63 144
63 603
64 739
64 284
64 278
64 451
64 857
64 874
64 347
64 735
64 322
64 188
64 832
64 361
64 771
64 590
64 420
64 624
64 119
64 632
64 668
64 718
64 754
64 255
64 803
64 296
64 810
64 814
64 912
64 914
64 418
64 673
64 565
64 207
64 80
64 87
64 544
65 177
65 879
65 850
65 368
65 417
65 180
65 116
65 465
65 587
65 489
65 481
65 127
65 144
65 681
65 698
65 708
65 842
65 888
65 892
65 950
65 975
66 937
66 654
66 863
66 974
66 83
66 706
66 351
66 872
66 832
66 454
66 82
66 324
66 997
66 145
66 385
66 282
66 99
66 755
66 497
66 290
66 595
66 587
66 727
66 605
66 75
66 603
66 107
66 126
66 134
66 689
66 193
66 790
66 286
66 384
66 913
66 419
66 441
66 796
67 711
67 609
67 306
67 504
67 222
67 891
67 993
67 319
67 246
67 726
67 727
67 585
67 312
67 580
67 587
67 766
67 438
67 642
67 228
67 942
67 156
67 751
67 590
67 940
67 592
67 598
67 755
67 631
67 902
67 597
67 457
67 254
67 392
67 470
68 757
68 585
68 882
68 579
68 544
68 648
68 271
68 368
68 218
68 677
68 732
68 616
68 983
68 791
68 769
68 304
68 992
68 420
68 149
68 817
68 446
68 387
68 434
68 899
68 965
68 132
68 468
68 762
68 898
68 577
68 583
68 837
68 566
68 313
68 214
68 764
68 467
68 815
68 369
68 573
68 642
68 652
68 613
68 143
68 713
68 289
68 835
68 901
68 926
68 417
68 935
68 541
68 930
68 880
68 665
69 759
69 71
69 520
69 623
69 287
69 340
69 169
69 563
69 836
69 249
69 682
69 473
69 600
69 688
69 586
69 87
69 94
69 619
69 162
69 196
69 203
69 270
69 305
69 863
69 980
69 994
69 995
69 859
70 718
70 314
70 488
70 646
70 257
70 515
70 267
70 652
70 910
70 936
70 942
70 943
70 594
70 452
70 645
70 631
70 199
70 582
70 77
70 84
70 586
70 271
70 254
70 685
71 660
71 720
71 914
71 536
71 562
71 396
71 172
71 683
71 221
71 214
71 673
71 234
71 513
71 382
71 151
71 815
71 286
71 561
71 703
71 824
71 173
71 177
71 749
71 248
71 780
71 787
71 318
71 404
71 415
71 427
71 460
71 481
71 184
71 942
71 81
71 551
71 648
72 903
72 996
72 850
72 406
72 527
72 538
72 691
72 445
72 477
72 519
72 610
72 662
72 676
72 473
72 97
72 751
72 845
72 995
72 888
72 897
72 913
72 435
73 278
73 919
73 878
73 643
73 306
73 592
73 610
73 289
73 180
73 824
73 323
73 699
73 852
73 250
73 978
73 342
73 116
73 254
73 913
73 900
73 782
74 879
74 475
74 772
74 657
74 633
74 203
74 596
74 523
74 495
74 555
74 386
74 658
74 586
74 182
74 185
74 765
74 815
74 448
74 980
74 994
74 995
74 143
74 225
75 624
75 937
75 106
75 448
75 547
75 228
75 888
75 197
75 83
75 578
75 447
75 92
75 195
75 384
75 293
75 984
75 98
75 337
75 120
75 454
75 156
75 689
75 764
75 974
75 790
75 324
75 385
75 697
75 918
75 688
75 686
75 145
75 707
75 414
75 186
75 684
75 193
75 178
75 568
75 134
75 82
75 359
75 896
75 430
75 997
75 706
75 259
75 792
75 647
75 437
75 179
75 194
75 334
75 316
75 553
75 515
75 785
75 681
75 696
75 595
75 174
75 80
75 758
75 446
75 137
75 508
75 237
75 500
75 379
75 708
75 649
75 690
75 734
75 286
75 351
75 419
75 441
75 522
76 919
76 683
76 499
76 631
76 600
76 850
76 263
76 695
76 916
76 374
76 459
76 839
76 223
76 840
76 380
76 176
76 988
76 721
76 582
76 522
76 862
76 193
76 109
76 236
76 205
76 179
76 634
76 591
76 345
76 381
76 410
76 823
76 782
76 390
77 418
77 89
77 525
77 129
77 388
77 652
77 936
77 330
77 530
77 545
77 943
77 902
77 186
77 728
77 165
77 287
77 906
77 184
77 455
77 815
77 992
77 337
77 419
77 516
78 744
78 453
78 305
78 484
78 725
78 98
78 684
78 568
78 706
78 652
78 330
78 767
78 815
78 603
78 120
78 134
78 689
78 690
78 351
78 974
78 885
79 536
79 562
79 272
79 279
79 488
79 741
79 958
79 679
79 234
79 416
79 245
79 382
79 848
79 314
79 803
79 124
79 622
79 798
79 674
79 683
79 687
79 177
79 749
79 243
79 301
79 825
79 349
79 378
79 903
79 396
79 404
79 589
79 498
79 114
79 541
79 892
80 563
80 586
80 370
80 287
80 244
80 559
80 788
80 555
80 506
80 641
80 814
80 87
80 94
80 623
80 670
80 203
80 305
80 863
80 411
80 994
80 298
80 675
80 92
80 782
80 967
81 536
81 621
81 515
81 652
81 530
81 543
81 936
81 129
81 987
81 258
81 318
81 505
82 754
82 427
82 598
82 563
82 345
82 146
82 149
82 924
82 898
82 375
82 514
82 413
82 392
82 603
82 107
82 120
82 690
82 692
82 706
82 734
82 790
82 324
82 351
82 441
83 624
83 919
83 264
83 378
83 868
83 863
83 289
83 178
83 156
83 706
83 792
83 286
83 198
83 98
83 120
83 92
83 688
83 99
83 568
83 134
83 764
83 181
83 615
83 348
83 578
83 186
83 293
83 385
83 506
83 697
83 359
83 90
83 676
83 473
83 281
83 581
83 111
83 816
83 140
83 389
83 238
83 354
83 730
83 313
83 339
83 734
83 790
83 419
83 441
83 454
83 997
84 881
84 636
84 261
84 267
84 530
84 936
84 942
84 330
84 388
84 606
84 898
84 700
84 183
84 586
84 563
84 980
84 613
84 689
85 829
85 712
85 137
85 175
85 891
85 589
85 648
85 235
85 949
85 768
85 133
85 779
85 909
85 549
85 967
85 564
85 859
85 740
86 912
86 595
86 205
86 511
86 180
86 308
86 823
86 827
86 124
86 605
86 472
86 903
86 105
86 254
86 733
87 179
87 780
87 622
87 595
87 277
87 475
87 523
87 586
87 169
87 788
87 836
87 596
87 922
87 203
87 157
87 994
87 579
87 995
87 100
87 623
87 422
87 329
87 442
87 863
87 196
87 340
87 185
87 94
87 448
87 559
87 563
87 376
87 162
87 244
87 980
87 374
87 339
87 727
87 127
87 568
87 251
87 201
87 904
87 649
87 737
87 229
87 314
87 733
87 910
87 851
87 652
87 643
87 459
87 633
87 670
87 270
87 305
87 342
87 607
88 248
88 787
88 279
88 244
88 851
88 317
88 557
88 133
88 390
88 522
88 779
88 818
88 967
88 486
88 629
88 831
88 635
88 609
88 721
88 106
88 371
88 859
88 740
89 251
89 520
89 137
89 822
89 716
89 170
89 456
89 622
89 356
89 529
89 144
89 635
89 885
89 740
89 758
89 765
89 920
89 750
90 624
90 233
90 294
90 804
90 511
90 568
90 286
90 690
90 832
90 95
90 324
90 647
90 145
90 181
90 351
90 688
90 764
90 430
90 337
90 407
90 576
90 199
90 919
90 676
90 260
90 602
90 130
90 156
90 692
90 193
90 790
90 385
91 857
91 964
91 103
91 805
91 180
91 309
91 824
91 827
91 323
91 978
91 601
91 105
91 324
91 675
91 627
91 205
91 512
91 554
91 116
91 729
91 740
92 718
92 919
92 243
92 391
92 293
92 259
92 385
92 615
92 974
92 699
92 522
92 836
92 120
92 689
92 193
92 706
92 790
92 331
92 351
92 454
92 877
93 455
93 811
93 244
93 434
93 983
93 901
93 386
93 298
93 965
93 709
93 664
93 528
93 221
93 306
93 143
93 146
93 713
93 260
93 289
93 835
93 343
93 935
93 144
93 809
93 341
93 930
94 487
94 910
94 563
94 579
94 586
94 995
94 596
94 203
94 623
94 788
94 635
94 442
94 765
94 185
94 100
94 883
94 966
94 436
94 329
94 703
94 991
94 244
94 196
94 182
94 670
94 597
94 376
94 305
94 922
94 619
94 836
94 826
94 863
94 370
94 340
94 806
94 422
94 411
94 448
94 375
94 785
94 948
94 540
94 230
94 732
94 528
94 762
94 192
94 545
94 551
94 532
94 876
94 849
94 963
94 455
94 728
94 893
94 371
94 355
94 270
94 815
94 845
94 994
94 847
94 468
94 144
94 987
95 188
95 513
95 711
95 614
95 346
95 666
95 257
95 820
95 417
95 254
95 607
95 121
95 328
95 603
95 107
95 120
95 689
95 690
95 734
95 790
95 331
95 337
95 441
96 172
96 248
96 518
96 519
96 542
96 830
96 450
96 712
96 102
96 866
96 407
96 641
96 101
96 367
96 577
96 320
96 528
96 283
96 452
96 237
96 512
96 413
96 379
96 216
96 350
96 868
96 853
96 491
96 449
96 170
96 465
96 241
96 809
96 883
96 961
96 668
96 696
96 873
96 97
96 282
96 858
96 223
96 614
96 455
96 755
96 882
96 619
96 143
96 671
96 557
97 937
97 772
97 905
97 527
97 663
97 538
97 691
97 187
97 572
97 122
97 183
97 831
97 834
97 393
97 453
97 573
97 461
97 497
97 380
97 388
97 689
97 505
97 490
97 564
97 114
97 985
97 202
97 851
97 949
97 395
97 352
98 510
98 426
98 381
98 603
98 126
98 896
98 156
98 181
98 324
98 697
98 99
98 872
98 193
98 733
98 192
98 307
98 831
98 542
98 511
98 643
98 350
98 107
98 686
98 688
98 689
98 690
98 734
98 790
98 286
98 337
98 351
98 441
98 454
99 687
99 622
99 879
99 346
99 238
99 592
99 391
99 473
99 965
99 281
99 291
99 603
99 638
99 253
99 169
99 803
99 522
99 107
99 126
99 689
99 697
99 706
99 734
99 790
99 286
99 324
99 454
99 435
100 923
100 137
100 517
100 862
100 559
100 563
100 579
100 586
100 618
100 449
100 538
100 177
100 150
100 623
100 657
100 244
100 270
100 815
100 305
100 863
100 448
100 457
100 994
100 995
100 607
100 675
100 568
100 690
101 694
101 296
101 542
101 830
101 608
101 712
101 379
101 512
101 452
101 964
101 731
101 367
101 458
101 867
101 503
101 206
101 887
101 623
101 489
101 449
101 450
101 493
101 211
101 143
101 163
102 676
102 919
102 349
102 320
102 853
102 964
102 608
102 464
102 620
102 866
102 125
102 491
102 449
102 216
102 868
102 455
102 367
102 576
102 712
102 542
102 413
102 379
102 283
102 452
102 512
102 878
102 962
102 971
102 191
102 134
102 443
102 786
102 732
102 144
102 342
102 581
102 524
102 970
102 800
102 133
102 641
102 450
102 678
102 269
102 595
102 910
102 599
102 681
102 930
102 348
102 384
103 399
103 536
103 755
103 524
103 600
103 797
103 336
103 636
103 916
103 360
103 646
103 654
103 655
103 710
103 723
103 257
103 820
103 821
103 850
103 606
103 992
103 607
104 318
104 830
104 517
104 650
104 537
104 546
104 678
104 807
104 556
104 326
104 469
104 487
104 757
104 894
104 986
104 644
104 760
104 494
104 531
104 870
104 981
104 781
104 896
104 955
104 734
104 950
104 825
104 813
104 284
104 904
104 203
104 574
105 483
105 382
105 396
105 587
105 763
105 994
105 298
105 823
105 323
105 978
105 599
105 601
105 116
105 308
105 241
105 342
105 843
105 317
105 315
105 377
105 254
105 180
105 582
105 824
105 375
105 124
105 357
105 383
105 828
105 682
105 261
105 289
105 433
105 238
105 879
105 299
105 863
105 522
105 372
105 661
105 588
105 144
105 424
105 281
106 222
106 524
106 589
106 600
106 602
106 294
106 666
106 882
106 636
106 752
106 475
106 295
106 403
106 654
106 539
106 884
106 873
106 701
106 717
106 300
106 492
106 640
106 990
106 710
106 638
106 400
106 805
106 887
106 166
106 336
106 423
106 583
106 931
106 655
106 333
106 626
106 526
106 785
106 205
106 432
106 921
106 412
106 115
106 391
106 160
106 871
106 751
106 791
106 897
106 761
106 604
106 840
106 662
106 398
106 929
106 569
106 853
106 622
106 139
106 705
106 928
106 814
106 558
106 263
106 211
106 763
106 299
106 850
106 946
106 498
106 305
106 329
106 309
106 127
107 217
107 655
107 448
107 994
107 180
107 601
107 571
107 975
107 120
107 419
107 441
107 268
107 430
107 331
107 689
107 384
107 259
107 764
107 359
107 258
107 647
107 282
107 447
107 197
107 684
107 706
107 181
107 293
107 790
107 429
107 145
107 348
107 198
107 193
107 944
107 896
107 195
107 454
107 156
107 840
107 807
107 602
107 410
107 835
107 237
107 801
107 340
107 576
107 993
107 279
107 341
107 616
107 304
107 465
107 756
107 455
107 690
107 734
107 337
107 858
107 351
107 987
108 234
108 481
108 691
108 448
108 132
108 472
108 191
108 798
108 664
108 730
108 433
108 776
108 607
108 389
108 434
108 748
108 990
108 977
108 802
108 786
108 202
108 140
108 167
108 753
108 291
108 809
108 888
108 892
108 950
108 975
108 764
108 497
109 668
109 243
109 526
109 412
109 304
109 901
109 764
109 265
109 656
109 276
109 395
109 373
109 566
109 227
109 685
109 802
109 226
109 770
109 714
109 431
109 343
109 311
109 279
109 637
109 594
109 906
109 913
109 175
109 450
109 467
109 899
109 372
109 421
109 174
109 961
109 987
110 737
110 952
110 847
110 941
110 180
110 309
110 308
110 823
110 827
110 323
110 375
110 254
110 706
110 656
111 514
111 524
111 423
111 336
111 115
111 852
111 666
111 391
111 626
111 475
111 765
111 269
111 696
111 465
111 636
111 646
111 710
111 211
111 229
111 763
111 294
111 882
111 412
111 498
111 564
111 281
111 842
111 888
111 880
111 747
112 584
112 624
112 451
112 548
112 923
112 940
112 800
112 694
112 744
112 414
112 367
112 625
112 218
112 676
112 188
112 718
112 720
112 255
112 296
112 837
112 857
112 919
112 418
112 524
112 654
112 710
112 122
112 256
112 140
112 892
112 419
113 720
113 868
113 728
113 184
113 709
113 574
113 128
113 900
113 920
113 696
113 208
113 519
113 534
113 630
113 118
114 269
114 117
114 211
114 850
114 882
114 772
114 572
114 831
114 748
114 751
114 538
114 461
114 672
114 834
114 905
114 453
114 358
114 485
114 961
114 836
114 776
114 535
114 708
114 377
114 571
114 337
115 914
115 595
115 710
115 811
115 627
115 406
115 432
115 466
115 151
115 898
115 238
115 636
115 638
115 666
115 763
115 361
115 884
115 412
115 955
115 436
115 442
115 134
116 284
116 929
116 982
116 592
116 882
116 823
116 827
116 323
116 332
116 342
116 599
116 357
116 180
116 978
116 254
116 601
116 124
116 317
116 843
116 383
116 682
116 941
116 308
116 507
116 518
116 861
116 304
116 783
116 387
116 697
116 334
116 140
116 350
116 161
116 575
116 871
116 402
117 810
117 546
117 525
117 307
117 306
117 184
117 319
117 755
117 134
117 776
117 631
117 820
117 133
118 143
118 798
118 454
118 128
118 782
118 533
118 208
118 733
118 747
118 503
118 435
118 630
118 535
118 365
118 761
118 750
118 649
118 335
118 463
118 796
118 371
118 920
118 696
118 495
118 557
118 629
118 345
118 812
118 313
118 489
118 456
118 295
118 745
118 136
118 120
118 653
118 543
118 254
119 584
119 624
119 754
119 720
119 940
119 255
119 718
119 739
119 929
119 837
119 914
119 418
119 399
119 632
119 369
119 857
119 810
119 699
119 874
119 620
119 775
119 707
119 563
119 568
119 409
119 267
119 623
119 190
119 634
119 153
119 668
119 188
119 735
119 912
119 919
119 683
119 172
119 749
119 318
119 719
119 756
119 498
119 225
119 662
120 248
120 303
120 415
120 565
120 368
120 145
120 790
120 429
120 974
120 268
120 282
120 337
120 193
120 984
120 924
120 997
120 331
120 832
120 385
120 293
120 706
120 134
120 690
120 684
120 792
120 783
120 939
120 994
120 413
120 936
120 862
120 124
120 404
120 674
120 444
120 273
120 177
120 815
120 734
120 454
121 754
121 499
121 621
121 541
121 607
121 667
121 846
121 553
121 235
121 745
121 140
121 897
121 795
121 848
121 618
121 274
121 975
121 236
121 397
121 612
121 127
121 328
121 424
121 963
121 932
121 588
121 693
121 167
121 969
121 171
121 575
121 130
121 569
121 729
121 230
121 842
121 409
121 392
121 892
121 363
121 311
121 971
121 502
121 664
121 681
121 949
121 532
121 389
121 930
121 433
121 950
121 684
121 585
121 837
121 469
121 451
121 616
121 371
121 991
121 820
121 867
121 179
121 400
121 278
121 466
121 463
121 537
121 394
121 369
121 183
121 988
121 603
121 614
121 718
121 675
121 708
121 291
121 888
121 733
122 998
122 361
122 772
122 538
122 748
122 691
122 573
122 473
122 358
122 477
122 831
122 905
122 393
122 328
122 230
122 415
122 838
122 176
122 559
122 784
122 256
122 899
123 382
123 529
123 766
123 646
123 498
123 652
123 358
123 162
123 661
123 298
123 334
123 136
123 900
123 535
123 796
123 557
123 208
123 503
123 496
124 233
124 945
124 448
124 225
124 682
124 180
124 823
124 827
124 323
124 332
124 342
124 599
124 601
124 375
124 254
124 140
124 975
124 568
124 790
124 924
125 739
125 518
125 519
125 542
125 830
125 577
125 350
125 620
125 878
125 484
125 449
125 455
125 216
125 493
125 636
125 646
125 586
125 143
125 160
125 992
125 324
126 326
126 742
126 589
126 636
126 863
126 601
126 603
126 872
126 259
126 647
126 430
126 145
126 858
126 512
126 261
126 940
126 683
126 421
126 962
126 722
126 368
126 156
126 734
126 790
126 337
126 351
126 419
126 441
127 278
127 687
127 716
127 996
127 916
127 502
127 569
127 236
127 774
127 617
127 472
127 956
127 142
127 753
127 846
127 561
127 975
127 433
127 392
127 861
127 191
127 664
127 130
127 618
127 722
127 360
127 607
127 612
127 541
127 949
127 762
127 947
127 990
127 555
127 878
127 728
127 345
127 292
127 606
127 420
127 486
127 955
127 999
127 375
127 140
127 144
127 675
127 698
127 708
127 715
127 809
127 892
127 424
128 416
128 487
128 710
128 623
128 826
128 143
128 961
128 951
128 733
128 371
128 463
128 630
128 696
128 973
128 220
128 208
128 310
128 723
128 971
128 523
128 591
128 198
128 800
128 133
128 273
128 433
128 649
128 533
128 557
128 435
128 335
128 747
129 919
129 460
129 556
129 580
129 600
129 680
129 543
129 426
129 558
129 977
129 297
129 530
129 828
129 940
129 539
129 511
129 902
129 267
129 652
129 936
129 942
129 330
129 305
129 812
130 718
130 177
130 655
130 157
130 442
130 541
130 575
130 618
130 569
130 955
130 979
130 689
130 285
130 842
130 930
130 949
130 684
130 208
131 243
131 427
131 544
131 616
131 434
131 613
131 355
131 965
131 935
131 983
131 368
131 508
131 420
131 804
131 709
131 975
131 148
131 877
131 721
131 223
131 844
131 577
131 551
131 132
131 648
131 713
131 762
131 292
131 298
131 835
131 851
131 926
131 992
131 511
131 795
131 950
131 447
131 714
132 242
132 512
132 565
132 550
132 509
132 936
132 905
132 663
132 586
132 815
132 985
132 544
132 425
132 671
132 901
132 289
132 304
132 724
132 954
132 791
132 444
132 225
132 616
132 446
132 511
132 799
132 709
132 368
132 292
132 933
132 906
132 394
132 817
132 468
132 199
132 252
132 648
132 271
132 804
132 161
132 149
132 652
132 600
132 352
132 503
132 337
132 267
132 956
132 219
132 889
132 631
132 373
132 540
132 220
132 278
132 825
132 749
132 946
132 211
132 725
132 762
132 260
132 835
132 343
132 992
132 384
133 399
133 537
133 752
133 994
133 835
133 140
133 681
133 949
133 630
133 700
133 507
133 560
133 496
133 909
133 474
133 470
133 662
133 139
133 231
133 486
133 907
133 497
133 605
133 398
133 932
133 267
133 756
133 538
133 733
133 535
133 825
133 228
133 221
133 696
133 522
133 549
133 818
133 967
133 213
134 694
134 349
134 460
134 982
134 216
134 493
134 521
134 523
134 559
134 603
134 764
134 286
134 351
134 359
134 647
134 858
134 506
134 384
134 568
134 832
134 178
134 984
134 145
134 944
134 790
134 193
134 408
134 684
134 692
134 259
134 414
134 198
134 348
134 896
134 688
134 186
134 258
134 282
134 482
134 385
134 181
134 337
134 428
134 250
134 376
134 683
134 382
134 939
134 833
134 328
134 651
134 280
134 656
134 594
134 549
134 517
134 966
134 587
134 190
134 510
134 932
134 734
134 419
134 441
134 974
134 961
134 231
135 396
135 542
135 868
135 196
135 612
135 618
135 617
135 849
135 503
135 957
135 183
135 185
135 322
135 144
135 675
135 163
135 681
135 842
135 888
135 892
135 930
135 424
135 949
135 975
135 168
136 720
136 519
136 595
136 600
136 655
136 657
136 661
136 974
136 372
136 738
136 227
136 489
136 908
136 871
136 802
136 893
136 770
136 704
136 734
136 386
136 721
136 842
136 528
136 537
136 964
136 754
136 656
136 987
136 567
137 857
137 904
137 520
137 728
137 996
137 833
137 356
137 401
137 719
137 622
137 822
137 716
137 456
137 756
137 204
137 614
137 170
137 207
137 565
137 465
137 253
137 529
137 869
137 879
137 148
137 217
137 881
137 201
137 239
137 235
137 183
137 681
137 882
137 625
137 419
137 672
137 450
137 179
137 702
137 910
137 894
137 823
137 449
137 746
137 269
137 294
137 821
137 579
137 343
137 511
137 254
138 639
138 233
138 510
138 272
138 248
138 353
138 536
138 741
138 301
138 251
138 562
138 264
138 396
138 243
138 327
138 415
138 529
138 839
138 860
138 703
138 975
138 462
138 173
138 711
138 221
138 378
138 404
138 427
138 460
138 481
138 576
138 583
138 811
138 368
138 935
138 561
138 612
139 314
139 874
139 813
139 731
139 998
139 701
139 610
139 240
139 979
139 975
139 662
140 669
140 296
140 466
140 869
140 646
140 992
140 569
140 574
140 575
140 659
140 612
140 681
140 392
140 753
140 664
140 949
140 702
140 274
140 715
140 541
140 930
140 675
140 561
140 472
140 911
140 963
140 975
140 142
140 969
140 693
140 397
140 607
140 540
140 328
140 745
140 311
140 409
140 588
140 191
140 617
140 596
140 806
140 991
140 205
140 157
140 700
140 754
140 952
140 407
140 686
140 871
140 342
140 355
140 528
140 882
140 594
140 144
140 667
140 708
140 291
140 842
140 888
140 790
140 773
141 669
141 699
141 927
141 979
141 994
141 899
141 341
141 656
141 390
141 779
141 587
141 973
141 665
141 859
141 740
142 912
142 460
142 261
142 772
142 244
142 980
142 541
142 607
142 782
142 225
142 646
142 144
142 675
142 167
142 681
142 745
142 753
142 795
142 809
142 842
142 892
142 392
142 930
142 424
142 949
142 950
142 975
143 810
143 481
143 164
143 751
143 648
143 199
143 151
143 252
143 304
143 160
143 225
143 444
143 925
143 901
143 334
143 271
143 769
143 724
143 468
143 224
143 954
143 458
143 511
143 732
143 835
143 713
143 256
143 161
143 965
143 935
143 292
143 394
143 983
143 899
143 146
143 218
143 671
143 804
143 725
143 661
143 298
143 778
143 420
143 155
143 368
143 933
143 926
143 791
143 989
143 499
143 891
143 195
143 908
143 922
143 370
143 647
143 426
143 454
143 166
143 202
143 453
143 626
143 837
143 883
143 620
143 762
143 260
143 289
143 817
143 343
143 992
144 669
144 757
144 211
144 176
144 541
144 575
144 569
144 693
144 963
144 953
144 617
144 753
144 328
144 571
144 502
144 722
144 971
144 235
144 291
144 795
144 360
144 363
144 715
144 708
144 675
144 274
144 774
144 848
144 793
144 341
144 897
144 930
144 846
144 472
144 607
144 659
144 574
144 311
144 745
144 167
144 561
144 389
144 969
144 776
144 236
144 842
144 618
144 532
144 681
144 424
144 433
144 809
144 849
144 230
144 409
144 650
144 943
144 940
144 775
144 726
144 380
144 737
144 912
144 636
144 819
144 364
144 196
144 270
144 638
144 921
144 784
144 542
144 151
144 740
144 712
144 225
144 567
144 974
144 392
144 950
144 975
145 562
145 177
145 479
145 452
145 192
145 498
145 156
145 690
145 692
145 193
145 734
145 790
145 286
145 351
145 419
145 430
145 441
145 454
146 153
146 723
146 980
146 651
146 778
146 740
146 579
146 299
146 151
146 260
146 289
146 298
146 817
146 835
146 851
146 368
146 926
146 417
146 935
146 425
146 511
146 630
147 255
147 923
147 264
147 589
147 595
147 636
147 638
147 280
147 887
147 882
147 166
147 723
147 716
147 597
147 670
147 872
147 898
147 193
147 947
147 211
147 763
147 257
147 805
147 299
147 850
147 412
147 498
147 992
147 692
148 929
148 904
148 401
148 719
148 822
148 752
148 221
148 617
148 502
148 204
148 217
148 356
148 756
148 621
148 863
148 225
148 607
148 667
149 415
149 979
149 455
149 595
149 211
149 412
149 185
149 959
149 544
149 396
149 428
149 155
149 713
149 725
149 799
149 298
149 817
149 835
149 851
149 368
149 901
149 926
149 935
149 511
149 975
150 510
150 520
150 640
150 854
150 845
150 992
150 702
150 265
150 808
150 402
150 158
150 685
150 987
151 632
151 639
151 884
151 285
151 616
151 648
151 160
151 989
151 258
151 453
151 152
151 762
151 260
151 289
151 368
151 386
151 926
151 417
151 935
151 992
151 511
151 533
152 803
152 520
152 529
152 207
152 565
152 904
152 833
152 401
152 879
152 716
152 622
152 427
152 402
152 182
152 744
152 745
152 996
152 614
152 459
152 289
152 901
152 372
152 497
153 624
153 694
153 939
153 347
153 938
153 720
153 296
153 284
153 934
153 940
153 962
153 255
153 369
153 584
153 803
153 451
153 418
153 929
153 483
153 278
153 829
153 676
153 744
153 705
153 919
153 789
153 161
153 254
153 319
153 178
153 911
153 419
153 813
153 415
153 736
153 745
153 668
153 188
153 718
153 754
153 855
153 996
153 306
153 805
153 325
153 601
153 618
153 402
154 625
154 710
154 599
154 228
154 603
154 265
154 372
154 402
154 398
154 888
154 685
154 174
154 714
154 987
154 240
154 733
155 388
155 523
155 169
155 994
155 648
155 791
155 989
155 804
155 616
155 613
155 899
155 304
155 538
155 188
155 850
155 919
155 369
155 278
155 713
155 725
155 225
155 289
155 298
155 835
155 334
155 851
155 343
155 368
155 901
155 926
155 417
155 935
155 992
155 163
155 930
155 557
156 221
156 741
156 763
156 579
156 564
156 581
156 603
156 408
156 832
156 924
156 692
156 586
156 360
156 665
156 608
156 319
156 678
156 180
156 487
156 168
156 689
156 734
156 790
156 351
156 974
156 900
157 255
157 378
157 401
157 586
157 657
157 428
157 596
157 581
157 524
157 722
157 670
157 203
157 305
157 826
157 863
157 994
157 435
157 662
158 683
158 207
158 222
158 270
158 815
158 975
158 875
158 372
158 249
158 704
158 489
158 871
158 250
158 893
158 516
158 685
158 802
158 885
158 908
158 402
158 373
158 808
158 174
158 276
158 735
158 729
158 868
158 688
158 637
158 356
158 188
158 482
158 595
158 878
158 240
159 347
159 716
159 537
159 494
159 650
159 807
159 232
159 531
159 326
159 743
159 629
159 166
159 199
159 853
159 856
159 952
159 981
159 346
159 487
159 757
159 631
159 663
159 865
159 628
159 992
159 950
159 779
160 584
160 755
160 613
160 648
160 935
160 318
160 643
160 260
160 289
160 298
160 835
160 847
160 343
160 368
160 386
160 417
160 992
160 447
160 875
160 373
161 833
161 299
161 436
161 648
161 724
161 544
161 295
161 195
161 776
161 559
161 756
161 713
161 298
161 835
161 334
161 851
161 343
161 368
161 417
161 818
162 868
162 585
162 504
162 633
162 376
162 370
162 340
162 428
162 922
162 826
162 244
162 995
162 991
162 657
162 196
162 559
162 703
162 169
162 475
162 319
162 364
162 852
162 211
162 528
162 708
162 934
162 823
162 855
162 203
162 815
162 305
162 863
162 442
162 448
162 457
162 994
162 762
162 334
162 601
162 311
162 950
162 734
163 483
163 679
163 903
163 867
163 992
163 575
163 675
163 532
163 753
163 892
163 561
163 235
163 932
163 472
163 729
163 911
163 553
163 722
163 956
163 291
163 745
163 795
163 518
163 802
163 423
163 306
163 299
163 907
163 232
163 391
163 959
163 167
163 681
163 698
163 708
163 842
163 930
163 975
163 973
163 247
164 510
164 194
164 261
164 388
164 515
164 910
164 555
164 892
164 775
164 552
164 936
164 330
164 916
164 547
164 331
165 624
165 632
165 660
165 668
165 927
165 278
165 857
165 983
165 734
165 888
165 718
165 720
165 754
165 296
165 837
165 914
165 243
165 481
165 719
165 398
166 718
166 415
166 611
166 589
166 595
166 600
166 625
166 646
166 210
166 592
166 742
166 710
166 229
166 763
166 257
166 821
166 412
166 945
166 475
166 498
166 704
166 213
167 531
167 580
167 598
167 511
167 541
167 588
167 618
167 675
167 569
167 722
167 617
167 693
167 933
167 836
167 568
167 547
167 662
167 735
167 644
167 753
167 774
167 311
167 842
167 341
167 892
167 392
167 930
167 949
167 975
168 735
168 829
168 726
168 475
168 619
168 994
168 417
168 603
168 832
168 676
168 456
168 246
168 917
168 689
168 690
168 706
168 734
168 790
168 337
168 858
168 351
168 441
168 454
168 997
168 506
168 557
169 179
169 221
169 319
169 586
169 597
169 623
169 991
169 505
169 635
169 947
169 245
169 618
169 622
169 203
169 765
169 270
169 305
169 329
169 863
169 448
169 994
169 965
169 983
169 675
169 230
169 392
169 950
169 568
169 714
169 497
170 960
170 996
170 401
170 465
170 207
170 719
170 999
170 601
170 418
170 449
170 283
170 961
170 833
170 614
170 622
170 879
170 881
170 756
170 755
170 586
170 270
170 564
170 835
170 180
171 576
171 326
171 821
171 305
171 899
171 682
171 607
171 612
171 681
171 690
171 869
171 658
171 947
171 795
171 842
171 392
171 950
171 975
172 562
172 639
172 673
172 674
172 219
172 214
172 536
172 958
172 711
172 818
172 179
172 613
172 221
172 736
172 741
172 243
172 248
172 825
172 318
172 886
172 396
172 404
172 427
172 460
172 481
172 547
172 176
172 325
172 392
172 975
172 603
173 562
173 639
173 339
173 968
173 273
173 673
173 674
173 353
173 303
173 318
173 654
173 217
173 224
173 935
173 310
173 218
173 534
173 177
173 711
173 749
173 801
173 886
173 382
173 404
173 427
173 625
173 701
173 696
173 629
174 821
174 616
174 343
174 230
174 875
174 885
174 373
174 656
174 265
174 961
174 431
174 196
174 186
174 357
174 510
174 703
174 679
174 714
174 987
174 247
175 190
175 519
175 452
175 642
175 462
175 976
175 194
175 727
175 312
175 889
175 345
175 184
175 957
175 319
175 192
175 585
175 621
175 755
175 246
175 882
175 942
175 544
175 394
175 675
176 296
176 264
176 318
176 396
176 559
176 863
176 784
176 547
176 610
176 564
176 417
176 420
176 252
176 959
176 202
176 591
176 345
176 606
176 818
177 754
177 536
177 562
177 683
177 813
177 749
177 466
177 479
177 221
177 789
177 780
177 396
177 248
177 711
177 467
177 876
177 234
177 301
177 825
177 327
177 886
177 979
177 416
177 404
177 629
177 503
177 227
177 364
177 508
177 556
177 852
177 592
177 677
177 331
177 318
177 378
177 427
177 460
177 481
177 229
177 180
177 441
177 240
178 451
178 301
178 396
178 904
178 345
178 812
178 675
178 949
178 603
178 689
178 690
178 706
178 734
178 419
178 441
178 454
178 482
178 506
179 668
179 676
179 705
179 912
179 275
179 483
179 255
179 759
179 803
179 754
179 215
179 874
179 978
179 687
179 993
179 268
179 718
179 720
179 857
179 914
179 919
179 207
179 333
179 475
179 835
179 809
179 522
180 451
180 301
180 886
180 519
180 758
180 377
180 824
180 941
180 241
180 812
180 332
180 228
180 682
180 828
180 309
180 317
180 827
180 308
180 410
180 189
180 323
180 599
180 342
180 601
180 901
180 432
180 333
180 249
180 632
180 194
180 709
180 816
180 934
180 503
180 739
180 254
180 675
180 975
180 286
181 837
181 211
181 485
181 623
181 753
181 603
181 688
181 689
181 410
181 658
181 664
181 190
181 706
181 734
181 790
181 286
181 351
181 385
181 441
181 454
181 402
182 754
182 396
182 525
182 595
182 772
182 538
182 559
182 579
182 586
182 619
182 505
182 961
182 907
182 669
182 581
182 583
182 459
182 203
182 305
182 329
182 980
182 985
182 994
182 802
183 243
183 396
183 479
183 602
183 772
183 393
183 663
183 691
183 751
183 538
183 473
183 856
183 590
183 715
183 563
183 504
183 824
183 641
183 931
183 334
183 851
183 843
184 251
184 620
184 525
184 306
184 222
184 592
184 587
184 598
184 621
184 742
184 580
184 319
184 462
184 642
184 891
184 585
184 867
184 998
184 860
184 269
184 766
184 861
184 754
184 554
184 464
184 584
184 234
184 887
184 225
184 755
184 187
184 980
184 343
184 773
185 221
185 886
185 936
185 586
185 619
185 633
185 922
185 196
185 845
185 428
185 966
185 563
185 305
185 457
185 270
185 863
185 657
185 579
185 340
185 747
185 861
185 458
185 762
185 578
185 453
185 432
185 870
185 741
185 338
185 806
185 448
185 980
185 994
185 995
185 725
185 337
186 188
186 562
186 318
186 853
186 298
186 309
186 681
186 689
186 690
186 813
186 291
186 982
186 900
186 790
186 286
186 351
186 419
186 430
186 454
186 421
187 221
187 396
187 979
187 330
187 772
187 663
187 691
187 863
187 555
187 268
187 572
187 473
187 994
187 199
187 260
187 334
187 827
188 624
188 632
188 418
188 366
188 837
188 744
188 483
188 668
188 800
188 940
188 451
188 215
188 288
188 316
188 810
188 923
188 737
188 919
188 669
188 660
188 278
188 275
188 699
188 939
188 720
188 754
188 855
188 962
188 634
188 927
188 548
188 735
188 296
188 369
188 759
188 814
188 718
188 857
188 903
188 854
188 216
188 390
188 545
188 726
188 387
188 521
188 199
188 426
188 228
188 295
188 750
188 355
188 388
188 255
188 803
188 874
188 912
188 711
188 517
188 646
188 498
188 196
188 827
188 708
189 548
189 399
189 866
189 960
189 216
189 595
189 602
189 815
189 823
189 824
189 827
189 323
189 342
189 599
189 254
189 360
190 536
190 318
190 499
190 382
190 234
190 639
190 741
190 521
190 275
190 852
190 711
190 233
190 243
190 245
190 248
190 780
190 272
190 801
190 813
190 349
190 378
190 396
190 404
190 427
190 460
190 982
190 344
190 592
190 701
190 298
190 309
190 323
190 689
191 396
191 481
191 319
191 475
191 261
191 586
191 298
191 334
191 851
191 935
191 574
191 575
191 607
191 675
191 681
191 745
191 842
191 341
191 888
191 892
191 392
191 930
191 975
191 877
192 914
192 711
192 719
192 210
192 609
192 525
192 269
192 319
192 500
192 462
192 680
192 779
192 962
192 493
192 726
192 993
192 621
192 755
192 667
192 795
192 360
193 810
193 837
193 789
193 344
193 509
193 257
193 902
193 680
193 476
193 847
193 468
193 198
193 414
193 928
193 684
193 706
193 454
193 429
193 832
193 422
193 637
193 228
193 440
193 381
193 711
193 638
193 238
193 887
193 600
193 714
193 906
193 734
193 790
193 441
194 711
194 642
194 525
194 269
194 438
194 440
194 957
194 592
194 311
194 870
194 988
194 621
194 755
194 631
194 766
194 254
194 291
194 967
194 213
195 548
195 653
195 234
195 528
195 212
195 821
195 203
195 199
195 298
195 599
195 842
195 846
195 950
195 603
195 689
195 690
195 706
195 734
195 790
195 351
195 441
195 656
196 548
196 624
196 512
196 642
196 246
196 710
196 905
196 523
196 586
196 623
196 428
196 873
196 464
196 453
196 909
196 208
196 203
196 815
196 329
196 863
196 442
196 448
196 994
196 995
196 851
196 575
196 385
197 919
197 427
197 299
197 955
197 590
197 994
197 762
197 472
197 568
197 734
197 790
197 419
197 441
197 656
198 736
198 401
198 622
198 638
198 921
198 448
198 591
198 618
198 950
198 689
198 690
198 706
198 790
198 351
198 419
198 441
198 997
199 803
199 481
199 716
199 229
199 921
199 648
199 651
199 935
199 661
199 343
199 379
199 957
199 436
199 806
199 725
199 252
199 289
199 298
199 835
199 847
199 851
199 368
199 901
199 511
199 599
199 337
199 441
199 696
200 273
200 524
200 539
200 583
200 595
200 625
200 636
200 646
200 710
200 302
200 771
200 717
200 512
200 679
200 349
200 304
200 795
200 394
200 723
200 211
200 294
200 821
200 882
200 412
200 475
200 498
200 691
200 285
200 334
200 332
200 599
200 790
201 255
201 825
201 904
201 520
201 456
201 253
201 286
201 244
201 651
201 213
201 919
201 996
201 614
201 622
201 881
201 498
201 670
201 709
201 847
201 508
201 511
202 736
202 593
202 509
202 312
202 539
202 453
202 559
202 781
202 959
202 840
202 338
202 374
202 547
202 459
202 345
202 628
202 364
202 626
202 936
202 744
202 209
202 205
202 827
202 865
202 890
203 923
203 955
203 527
203 559
203 563
203 586
203 670
203 329
203 845
203 966
203 448
203 244
203 633
203 657
203 422
203 597
203 806
203 505
203 991
203 579
203 305
203 411
203 863
203 287
203 836
203 635
203 442
203 815
203 619
203 883
203 980
203 995
203 376
203 907
203 834
203 233
203 872
203 569
203 868
203 944
203 481
203 312
203 789
203 690
203 320
203 473
203 758
203 451
203 887
203 953
203 270
203 436
203 706
204 520
204 401
204 833
204 716
204 881
204 356
204 904
204 565
204 614
204 622
204 407
204 660
204 566
204 527
204 351
204 626
204 719
204 344
204 996
204 611
204 995
204 364
204 386
204 965
204 254
205 548
205 399
205 589
205 595
205 602
205 646
205 654
205 710
205 854
205 475
205 864
205 432
205 946
205 794
205 955
205 638
205 307
205 925
205 861
205 793
205 622
205 834
205 211
205 294
205 299
205 821
205 862
205 884
205 945
205 588
205 681
206 548
206 584
206 718
206 927
206 493
206 263
206 564
206 285
206 547
206 325
206 604
206 591
206 865
206 769
206 434
206 682
206 975
206 441
207 318
207 520
207 565
207 719
207 611
207 727
207 996
207 622
207 879
207 881
207 525
207 222
207 498
207 260
207 599
207 708
207 286
207 880
207 421
207 213
208 396
208 493
208 537
208 994
208 926
208 782
208 696
208 463
208 890
208 310
208 761
208 533
208 365
208 220
208 900
208 733
208 362
208 649
208 495
208 796
208 503
208 831
208 544
208 423
208 878
208 267
208 621
208 753
208 780
208 287
208 995
208 655
208 868
208 352
208 629
208 630
208 665
209 346
209 642
209 525
209 307
209 957
209 585
209 592
209 462
209 766
209 381
209 661
209 236
209 549
209 361
209 998
209 755
209 631
209 666
209 569
209 790
209 997
209 880
210 668
210 537
210 807
210 986
210 981
210 531
210 494
210 643
210 346
210 463
210 306
210 394
210 609
210 232
210 509
210 621
210 475
210 835
211 857
211 993
211 654
211 526
211 636
211 524
211 432
211 262
211 763
211 640
211 921
211 852
211 723
211 229
211 212
211 437
211 290
211 336
211 645
211 295
211 475
211 666
211 752
211 717
211 931
211 850
211 625
211 882
211 811
211 423
211 915
211 844
211 794
211 655
211 990
211 701
211 746
211 302
211 955
211 492
211 873
211 358
211 546
211 795
211 574
211 669
211 694
211 702
211 330
211 541
211 488
211 390
211 740
211 263
211 833
211 283
211 854
211 361
211 412
211 946
211 498
211 428
211 935
211 392
211 240
212 837
212 438
212 526
212 638
212 646
212 701
212 710
212 752
212 271
212 371
212 774
212 588
212 257
212 882
212 884
212 412
212 461
212 298
212 351
213 699
213 243
213 636
213 267
213 270
213 480
213 628
213 425
213 842
213 286
213 779
213 665
213 662
213 497
213 740
213 909
213 818
213 534
213 549
213 398
213 560
213 567
213 486
213 522
213 889
213 320
213 863
213 506
213 629
213 399
213 777
213 778
213 759
213 491
213 231
213 877
213 496
214 668
214 347
214 513
214 536
214 639
214 674
214 711
214 734
214 221
214 749
214 243
214 248
214 801
214 825
214 841
214 886
214 378
214 415
214 427
214 460
214 982
214 520
214 556
214 592
214 646
214 498
214 977
214 865
214 906
214 599
214 698
214 286
214 408
215 584
215 632
215 668
215 718
215 720
215 658
215 395
215 777
215 277
215 553
215 641
215 754
215 759
215 255
215 829
215 857
215 366
215 914
215 919
215 927
215 418
215 939
215 683
215 838
215 475
215 392
215 733
216 519
216 542
216 608
216 868
216 620
216 512
216 830
216 964
216 576
216 866
216 455
216 367
216 413
216 320
216 449
216 407
216 853
216 283
216 962
216 592
216 857
216 340
216 477
216 586
216 361
216 381
216 217
216 743
216 946
216 745
217 255
217 456
217 719
217 529
217 642
217 622
217 879
217 229
217 882
217 297
217 762
217 935
217 342
217 375
217 892
218 801
218 993
218 786
218 295
218 544
218 713
218 676
218 289
218 817
218 835
218 851
218 343
218 901
218 926
218 417
218 511
218 753
219 536
219 639
219 653
219 783
219 466
219 233
219 736
219 266
219 554
219 404
219 903
219 234
219 761
219 438
219 867
219 829
219 248
219 801
219 318
219 349
219 378
219 382
219 396
219 427
219 481
219 525
219 338
219 997
220 314
220 807
220 595
220 540
220 675
220 930
220 324
220 533
220 535
220 920
220 557
220 435
220 335
220 733
220 352
220 747
220 629
221 653
221 683
221 234
221 251
221 825
221 349
221 841
221 813
221 242
221 243
221 266
221 382
221 467
221 248
221 460
221 749
221 404
221 416
221 264
221 481
221 801
221 838
221 687
221 527
221 355
221 434
221 532
221 567
221 658
221 996
221 783
221 318
221 378
221 396
221 427
221 511
221 793
221 560
222 318
222 525
222 552
222 440
222 585
222 726
222 727
222 998
222 269
222 306
222 246
222 462
222 947
222 631
222 438
222 724
222 315
222 792
222 838
222 621
222 755
222 766
222 524
222 654
222 902
222 386
222 323
222 930
222 734
223 263
223 959
223 459
223 345
223 374
223 285
223 781
223 840
223 380
223 595
223 586
223 815
223 726
223 283
223 787
223 514
223 480
223 575
223 888
223 734
223 454
223 630
224 660
224 982
224 613
224 334
224 330
224 917
224 774
224 452
224 298
224 817
224 835
224 851
224 343
224 368
224 425
224 511
224 561
224 795
224 685
225 455
225 719
225 881
225 453
225 263
225 544
225 713
225 935
225 847
225 926
225 256
225 434
225 616
225 778
225 508
225 762
225 271
225 925
225 439
225 769
225 444
225 671
225 799
225 387
225 334
225 724
225 258
225 570
225 512
225 798
225 678
225 633
225 836
225 915
225 656
225 625
225 835
225 851
225 343
225 368
225 901
225 417
225 992
225 941
225 332
225 291
225 897
226 318
226 524
226 654
226 701
226 267
226 753
226 808
226 402
226 685
227 639
227 801
227 593
227 981
227 986
227 766
227 595
227 425
227 372
227 885
227 402
227 740
228 789
228 822
228 406
228 652
228 672
228 623
228 725
228 289
228 835
228 410
228 941
228 823
228 827
228 323
228 332
228 342
228 843
228 599
228 317
228 898
228 275
228 470
228 956
228 754
228 763
228 540
228 742
228 375
228 254
228 698
228 276
228 435
228 567
229 720
229 736
229 526
229 589
229 595
229 602
229 646
229 654
229 701
229 412
229 625
229 963
229 738
229 601
229 746
229 763
229 811
229 884
229 946
229 475
229 498
229 270
229 781
229 480
229 298
229 392
229 351
230 857
230 438
230 884
230 990
230 847
230 532
230 667
230 281
230 424
230 561
230 659
230 314
230 819
230 772
230 414
230 427
230 505
230 753
230 795
230 930
230 949
230 975
230 549
231 671
231 809
231 987
231 630
231 768
231 779
231 560
231 967
231 859
231 470
231 474
231 907
231 486
231 549
231 497
231 695
231 366
231 524
231 547
231 649
231 683
231 763
232 275
232 731
232 719
232 643
232 644
232 537
232 807
232 981
232 609
232 593
232 894
232 346
232 326
232 952
232 760
232 501
232 361
232 723
232 336
232 245
232 630
232 363
232 770
232 238
232 509
232 957
232 786
232 299
232 559
232 865
232 348
233 554
233 562
233 673
233 683
233 711
233 510
233 687
233 958
233 679
233 968
233 674
233 917
233 775
233 965
233 631
233 852
233 640
233 379
233 749
233 243
233 248
233 780
233 801
233 813
233 318
233 349
233 886
233 416
233 427
233 460
233 481
233 910
233 994
233 795
234 513
234 562
234 683
234 662
234 306
234 696
234 264
234 813
234 825
234 318
234 378
234 396
234 404
234 415
234 427
234 460
234 979
234 465
234 498
234 831
234 564
234 949
234 790
235 673
235 935
235 607
235 675
235 708
235 729
235 745
235 646
235 912
235 604
235 288
235 753
235 281
235 795
235 842
235 392
235 930
235 975
235 997
236 624
236 451
236 465
236 585
236 500
236 862
236 475
236 321
236 799
236 298
236 541
236 574
236 681
236 808
236 724
236 250
236 422
236 714
236 753
236 892
236 392
236 949
236 975
236 324
236 419
237 513
237 813
237 481
237 519
237 542
237 830
237 608
237 354
237 868
237 620
237 642
237 533
237 363
237 638
237 257
237 412
237 436
237 433
237 974
238 565
238 643
238 537
238 556
238 981
238 678
238 609
238 760
238 952
238 305
238 864
238 795
238 420
238 757
238 758
238 894
238 946
238 936
238 445
238 334
238 901
238 809
238 384
238 880
238 535
239 529
239 401
239 565
239 822
239 719
239 996
239 879
239 979
239 726
239 455
239 756
239 556
239 884
239 975
239 337
239 419
239 402
240 718
240 829
240 378
240 765
240 425
240 790
240 880
240 373
240 402
240 685
240 987
240 808
240 961
240 431
240 885
240 516
240 250
240 566
240 875
240 893
240 561
240 533
240 519
240 483
240 553
240 347
240 364
240 828
241 711
241 243
241 608
241 710
241 309
241 823
241 323
241 342
241 599
241 601
241 375
242 857
242 418
242 536
242 639
242 687
242 741
242 841
242 461
242 590
242 971
242 243
242 264
242 273
242 801
242 813
242 318
242 349
242 396
242 427
242 460
242 379
242 731
242 292
242 745
243 536
243 554
243 562
243 674
243 736
243 787
243 982
243 653
243 903
243 841
243 396
243 917
243 968
243 749
243 378
243 958
243 510
243 349
243 303
243 979
243 460
243 481
243 683
243 775
243 825
243 404
243 264
243 838
243 273
243 988
243 309
243 637
243 512
243 907
243 809
243 821
243 450
243 528
243 254
243 998
243 789
243 801
243 813
243 339
243 427
243 957
243 602
243 863
243 994
243 505
243 823
244 929
244 272
244 318
244 456
244 559
244 619
244 340
244 845
244 305
244 703
244 436
244 826
244 670
244 994
244 638
244 397
244 965
244 313
244 706
244 449
244 780
244 270
244 815
244 329
244 863
244 995
244 684
244 372
244 435
245 562
245 673
245 674
245 711
245 481
245 683
245 826
245 268
245 429
245 305
245 248
245 264
245 825
245 318
245 378
245 396
245 427
245 868
245 344
245 469
245 743
245 525
245 438
245 631
245 309
245 265
246 525
246 552
246 307
246 726
246 867
246 755
246 440
246 312
246 427
246 275
246 795
246 251
246 631
246 766
246 602
246 790
246 875
247 464
247 593
247 839
247 511
247 254
247 675
247 753
247 900
247 782
247 557
247 535
247 732
247 622
247 873
247 733
247 747
247 630
248 536
248 639
248 711
248 415
248 479
248 673
248 838
248 775
248 816
248 789
248 780
248 353
248 378
248 749
248 841
248 279
248 266
248 382
248 876
248 466
248 443
248 327
248 783
248 958
248 404
248 968
248 736
248 481
248 979
248 396
248 741
248 683
248 510
248 801
248 562
248 825
248 813
248 444
248 646
248 332
248 965
248 766
248 319
248 296
248 637
248 470
248 522
248 355
248 724
248 631
248 625
248 694
248 274
248 976
248 302
248 264
248 318
248 886
248 727
248 640
248 815
248 988
249 676
249 927
249 396
249 350
249 261
249 772
249 619
249 648
249 823
249 675
249 684
249 372
249 402
249 685
249 987
250 322
250 801
250 518
250 294
250 412
250 995
250 729
250 265
250 875
250 372
250 885
250 656
250 685
251 683
251 687
251 711
251 736
251 749
251 415
251 614
251 801
251 825
251 318
251 841
251 886
251 378
251 460
251 481
251 328
252 346
252 977
252 547
252 713
252 762
252 935
252 355
252 368
252 425
252 271
252 616
252 983
252 836
252 474
252 801
252 518
252 953
252 907
252 778
252 298
252 835
252 334
252 478
252 992
252 511
252 454
253 632
253 314
253 273
253 979
253 520
253 719
253 344
253 614
253 881
253 600
253 523
253 994
253 569
253 753
253 337
254 801
254 958
254 326
254 626
254 821
254 309
254 827
254 323
254 601
254 375
254 410
254 978
254 941
254 824
254 582
254 828
254 308
254 377
254 489
254 327
254 266
254 773
254 369
254 877
254 564
255 584
255 632
255 658
255 668
255 699
255 718
255 720
255 735
255 676
255 418
255 857
255 912
255 739
255 366
255 814
255 962
255 914
255 278
255 296
255 483
255 927
255 754
255 660
255 347
255 744
255 938
255 829
255 275
255 934
255 800
255 548
255 634
255 669
255 314
255 923
255 316
255 840
255 678
255 501
255 922
255 450
255 432
255 592
255 337
255 734
255 330
255 522
255 691
255 762
255 577
255 960
255 928
255 284
255 803
255 320
255 600
255 717
255 586
255 725
255 835
255 360
255 950
255 324
255 818
256 556
256 580
256 544
256 648
256 713
256 452
256 793
256 851
256 368
256 901
256 417
256 935
256 425
256 965
256 992
256 511
256 975
256 734
256 885
257 878
257 326
257 583
257 600
257 763
257 767
257 655
257 295
257 887
257 645
257 277
257 290
257 423
257 850
257 589
257 945
257 864
257 539
257 931
257 498
257 640
257 625
257 862
257 294
257 406
257 821
257 524
257 811
257 786
257 746
257 873
257 437
257 526
257 262
257 391
257 443
257 789
257 265
257 715
257 842
257 409
257 648
257 366
257 734
257 306
257 297
257 378
257 857
257 888
257 596
257 299
257 361
257 882
257 884
257 412
257 835
257 926
257 774
257 892
257 433
257 419
258 378
258 993
258 457
258 892
258 689
258 706
258 734
258 611
258 286
258 351
258 441
259 780
259 622
259 477
259 806
259 309
259 823
259 795
259 568
259 603
259 684
259 689
259 690
259 706
259 489
259 837
259 453
259 981
259 379
259 269
259 790
259 286
259 331
259 997
259 796
260 669
260 674
260 868
260 833
260 514
260 299
260 677
260 835
260 804
260 778
260 613
260 926
260 906
260 289
260 355
260 368
260 425
260 439
260 483
260 452
260 910
260 338
260 412
260 792
260 614
260 427
260 952
260 334
260 851
260 417
260 935
260 992
260 607
260 503
261 939
261 427
261 728
261 600
261 636
261 977
261 936
261 942
261 943
261 530
261 555
261 680
261 388
261 405
261 543
261 545
261 860
261 798
261 650
261 549
261 504
261 595
261 573
261 652
261 330
261 784
261 935
261 281
261 733
262 739
262 919
262 456
262 556
262 891
262 539
262 600
262 646
262 655
262 666
262 701
262 763
262 543
262 856
262 821
262 391
262 498
262 425
263 718
263 407
263 321
263 374
263 285
263 839
263 484
263 784
263 628
263 381
263 325
263 581
263 916
263 480
263 606
263 865
263 364
263 610
263 380
263 471
263 591
263 526
263 725
263 597
263 483
263 582
263 603
263 272
263 664
263 651
263 352
263 735
263 564
263 547
263 345
263 298
264 658
264 919
264 639
264 741
264 825
264 349
264 404
264 801
264 353
264 499
264 695
264 354
264 654
264 429
264 813
264 816
264 318
264 886
264 396
264 460
264 481
264 821
264 745
264 753
264 842
264 630
265 639
265 711
265 815
265 575
265 656
265 875
265 402
265 802
265 961
265 570
265 441
265 813
265 937
265 750
265 335
265 372
265 685
265 987
265 740
266 513
266 736
266 339
266 424
266 288
266 754
266 304
266 303
266 318
266 841
266 378
266 396
266 415
266 427
266 589
266 646
266 292
266 992
266 823
266 753
266 842
266 419
267 624
267 382
267 884
267 426
267 530
267 943
267 936
267 545
267 388
267 680
267 942
267 405
267 833
267 363
267 860
267 491
267 807
267 951
267 543
267 330
267 411
267 790
267 435
267 503
268 687
268 303
268 530
268 325
268 575
268 603
268 686
268 689
268 690
268 706
268 286
268 351
268 419
268 441
268 454
268 665
269 456
269 642
269 525
269 592
269 727
269 976
269 440
269 319
269 307
269 585
269 438
269 947
269 580
269 306
269 631
269 312
269 860
269 500
269 891
269 598
269 680
269 811
269 443
269 429
269 554
269 499
269 993
269 998
269 621
269 755
269 766
269 901
269 697
269 385
270 306
270 636
270 710
270 523
270 559
270 563
270 586
270 765
270 883
270 422
270 806
270 670
270 596
270 305
270 448
270 579
270 922
270 505
270 287
270 370
270 442
270 657
270 411
270 863
270 985
270 980
270 836
270 329
270 845
270 340
270 703
270 815
270 788
270 635
270 633
270 597
270 826
270 376
270 619
270 970
270 623
270 905
270 482
270 767
270 516
270 347
270 285
270 688
270 717
270 714
270 421
270 517
270 923
270 737
270 639
270 783
270 432
270 467
270 436
270 994
270 588
271 609
271 646
271 400
271 942
271 648
271 671
271 732
271 292
271 915
271 708
271 644
271 717
271 860
271 799
271 298
271 817
271 835
271 851
271 926
271 935
271 425
271 992
271 424
271 984
271 997
272 914
272 711
272 353
272 466
272 442
272 872
272 651
272 801
272 825
272 378
272 396
272 404
272 427
272 499
272 620
272 894
272 600
272 305
272 839
273 536
273 639
273 687
273 711
273 383
273 474
273 801
273 825
273 318
273 841
273 349
273 886
273 382
273 396
273 415
273 427
273 481
273 519
273 868
273 407
273 494
273 648
273 375
273 341
273 534
274 412
274 540
274 541
274 574
274 675
274 753
274 767
274 793
274 892
274 930
274 950
274 975
275 624
275 718
275 744
275 754
275 296
275 669
275 800
275 940
275 737
275 857
275 829
275 694
275 322
275 584
275 281
275 549
275 751
275 959
275 503
275 869
275 814
275 837
275 912
275 919
275 731
275 675
275 341
275 568
275 441
276 631
276 589
276 602
276 425
276 607
276 472
276 770
276 773
276 764
276 450
276 880
276 372
276 656
276 421
276 961
276 987
276 533
277 741
277 998
277 766
277 524
277 589
277 595
277 600
277 602
277 640
277 654
277 710
277 459
277 294
277 862
277 882
277 884
277 412
277 475
277 498
277 515
277 672
278 584
278 624
278 668
278 669
278 718
278 720
278 754
278 829
278 855
278 739
278 288
278 934
278 842
278 976
278 869
278 706
278 915
278 284
278 296
278 810
278 857
278 399
278 927
278 418
278 650
278 527
278 298
279 513
279 536
279 562
279 639
279 674
279 683
279 749
279 404
279 510
279 893
279 458
279 558
279 584
279 290
279 801
279 318
279 378
279 396
279 427
279 481
279 473
279 448
279 360
279 997
280 718
280 404
280 631
280 600
280 602
280 636
280 646
280 723
280 854
280 437
280 733
280 465
280 457
280 671
280 754
280 882
280 945
280 475
280 559
280 901
280 441
281 810
281 717
281 563
281 978
281 588
281 675
281 681
281 698
281 753
281 618
281 949
281 369
281 744
281 482
281 842
281 392
281 930
281 950
281 282
281 533
282 584
282 660
282 711
282 349
282 602
282 299
282 305
282 603
282 690
282 790
282 321
282 419
282 974
282 506
283 512
283 519
283 641
283 868
283 576
283 853
283 455
283 437
283 522
283 589
283 542
283 620
283 960
283 452
283 464
283 719
283 531
283 487
283 646
283 701
283 746
283 862
283 994
283 949
284 584
284 632
284 668
284 718
284 735
284 754
284 624
284 940
284 759
284 658
284 855
284 927
284 739
284 934
284 912
284 699
284 854
284 597
284 607
284 595
284 300
284 459
284 980
284 296
284 857
284 919
284 418
284 979
284 692
285 320
285 631
285 945
285 475
285 781
285 325
285 695
285 564
285 784
285 865
285 988
285 547
285 344
285 306
285 323
285 618
285 808
285 591
285 606
285 610
285 778
285 454
286 718
286 546
286 329
286 368
286 603
286 689
286 706
286 790
286 858
286 615
286 324
286 974
286 924
286 707
286 348
286 928
286 408
286 918
286 944
286 997
286 430
286 734
286 454
286 872
286 832
286 447
286 293
286 578
286 981
286 498
286 671
286 860
286 623
286 679
286 683
286 935
286 798
286 917
286 820
286 925
286 564
286 364
286 351
286 419
286 441
286 796
287 523
287 559
287 563
287 586
287 623
287 657
287 670
287 758
287 537
287 746
287 815
287 305
287 329
287 863
287 436
287 442
287 448
287 985
287 994
287 610
287 774
287 706
288 632
288 658
288 676
288 718
288 720
288 735
288 739
288 410
288 764
288 570
288 675
288 857
288 536
288 801
288 415
288 416
288 982
288 587
288 992
288 827
288 790
289 418
289 654
289 613
289 648
289 817
289 677
289 899
289 983
289 713
289 965
289 386
289 343
289 508
289 925
289 724
289 304
289 791
289 972
289 420
289 847
289 651
289 926
289 439
289 511
289 434
289 769
289 851
289 661
289 835
289 954
289 415
289 712
289 685
289 834
289 576
289 510
289 610
289 818
289 392
289 350
289 363
289 868
289 957
289 520
289 298
289 334
289 368
289 417
289 992
289 842
289 888
289 362
289 549
290 947
290 524
290 595
290 600
290 602
290 636
290 654
290 294
290 821
290 882
290 884
290 412
290 475
290 607
290 950
291 514
291 654
291 990
291 675
291 681
291 708
291 745
291 753
291 722
291 861
291 433
291 612
291 911
291 882
291 970
291 520
291 642
291 842
291 424
291 975
291 503
292 719
292 663
292 671
292 769
292 334
292 898
292 361
292 837
292 482
292 408
292 835
292 851
292 935
292 992
292 511
293 415
293 868
293 455
293 392
293 688
293 689
293 734
293 790
293 458
293 641
293 441
293 733
294 676
294 460
294 600
294 646
294 763
294 805
294 602
294 887
294 539
294 873
294 852
294 645
294 723
294 412
294 931
294 921
294 300
294 945
294 391
294 955
294 701
294 524
294 638
294 777
294 822
294 658
294 680
294 543
294 683
294 522
294 468
294 541
294 593
294 935
294 563
294 671
294 299
294 850
294 882
294 884
294 475
294 667
294 337
295 524
295 600
295 645
295 654
295 655
295 771
295 395
295 663
295 842
295 680
295 821
295 884
295 412
295 946
295 948
295 657
295 305
295 847
295 740
296 632
296 668
296 676
296 735
296 737
296 699
296 669
296 658
296 810
296 927
296 938
296 803
296 316
296 857
296 800
296 934
296 369
296 962
296 759
296 634
296 874
296 418
296 451
296 801
296 727
296 964
296 315
296 456
296 709
296 303
296 317
296 902
296 402
296 343
296 640
296 399
296 919
296 687
296 879
296 723
296 777
296 884
296 748
296 835
297 427
297 979
297 767
297 652
297 910
297 936
297 626
297 989
297 912
297 942
297 330
297 905
297 840
297 851
297 506
298 919
298 493
298 646
298 299
298 412
298 695
298 343
298 725
298 334
298 511
298 434
298 458
298 544
298 954
298 446
298 972
298 899
298 835
298 906
298 724
298 778
298 901
298 989
298 898
298 804
298 386
298 420
298 769
298 914
298 842
298 403
298 668
298 958
298 963
298 988
298 851
298 926
298 417
298 425
298 992
298 682
298 603
298 885
299 634
299 919
299 524
299 589
299 595
299 636
299 654
299 811
299 432
299 767
299 785
299 746
299 600
299 852
299 492
299 645
299 723
299 655
299 797
299 666
299 423
299 931
299 844
299 821
299 361
299 336
299 777
299 873
299 591
299 434
299 748
299 455
299 325
299 817
299 978
299 673
299 653
299 884
299 475
299 865
300 668
300 524
300 636
300 654
300 710
300 723
300 805
300 313
300 342
300 905
300 821
300 412
300 946
300 677
300 926
300 698
300 341
300 419
300 352
301 562
301 674
301 679
301 711
301 741
301 813
301 736
301 427
301 513
301 504
301 965
301 540
301 727
301 378
301 903
301 396
301 404
301 937
301 460
301 481
301 475
301 305
301 459
301 628
301 381
301 769
301 753
302 803
302 526
302 589
302 595
302 600
302 602
302 655
302 866
302 504
302 963
302 820
302 862
302 882
302 475
302 498
302 772
302 863
302 978
303 874
303 536
303 711
303 813
303 551
303 539
303 496
303 318
303 378
303 396
303 427
303 982
303 525
303 677
303 892
303 351
304 349
304 600
304 521
304 544
304 648
304 756
304 469
304 839
304 835
304 334
304 851
304 368
304 901
304 992
304 511
305 399
305 488
305 498
305 902
305 559
305 563
305 586
305 619
305 883
305 995
305 980
305 505
305 966
305 457
305 422
305 703
305 523
305 765
305 442
305 994
305 991
305 815
305 670
305 985
305 845
305 922
305 970
305 340
305 448
305 597
305 596
305 836
305 788
305 826
305 657
305 623
305 370
305 833
305 516
305 747
305 592
305 601
305 706
305 816
305 777
305 381
305 791
305 570
305 693
305 876
305 372
305 334
305 720
305 695
305 863
305 992
305 975
305 649
306 399
306 749
306 580
306 319
306 621
306 957
306 867
306 525
306 726
306 552
306 976
306 963
306 605
306 780
306 414
306 982
306 438
306 585
306 998
306 710
307 378
307 552
307 631
307 742
307 714
307 972
307 821
307 690
307 585
307 726
307 654
307 723
307 941
307 745
307 949
307 441
307 685
308 868
308 815
308 935
308 682
308 383
308 941
308 526
308 485
308 797
308 869
308 823
308 323
308 599
308 601
309 755
309 831
309 845
309 985
309 812
309 375
309 828
309 823
309 383
309 317
309 700
309 863
309 693
309 321
309 827
309 323
309 978
309 342
309 599
309 601
310 919
310 631
310 846
310 858
310 454
310 482
310 900
310 782
310 435
310 557
310 352
310 649
310 621
310 742
310 330
310 603
310 866
310 733
310 747
310 629
311 322
311 741
311 813
311 327
311 556
311 655
311 845
311 317
311 571
311 607
311 675
311 681
311 745
311 753
311 971
311 472
311 708
311 541
311 975
311 502
311 525
311 830
311 579
311 754
311 808
311 456
311 314
311 431
311 533
311 476
311 454
311 842
311 360
311 888
311 392
311 949
312 705
312 642
312 525
312 440
312 860
312 876
312 708
312 648
312 580
312 592
312 621
312 755
312 766
312 858
312 385
313 891
313 863
313 892
313 522
313 779
313 665
313 818
313 967
313 859
313 740
313 497
314 624
314 632
314 676
314 718
314 720
314 735
314 754
314 803
314 810
314 973
314 857
314 399
314 919
314 927
314 418
314 537
314 473
314 815
314 613
314 835
314 899
314 790
315 927
315 318
315 830
315 544
315 651
315 851
315 827
315 846
315 342
315 930
315 685
316 548
316 584
316 624
316 632
316 668
316 718
316 735
316 810
316 857
316 399
316 914
316 919
316 881
316 585
316 595
316 426
316 610
316 832
316 390
317 510
317 585
317 412
317 691
317 432
317 919
317 323
317 978
317 599
317 601
317 681
317 689
317 441
317 997
318 536
318 711
318 749
318 801
318 404
318 789
318 903
318 736
318 481
318 479
318 687
318 958
318 378
318 467
318 775
318 488
318 443
318 673
318 813
318 979
318 876
318 327
318 825
318 349
318 554
318 679
318 353
318 937
318 639
318 415
318 562
318 653
318 841
318 783
318 787
318 513
318 816
318 838
318 741
318 982
318 339
318 631
318 997
318 564
318 409
318 842
318 878
318 786
318 506
318 584
318 369
318 817
318 901
318 745
318 734
318 659
318 540
318 764
318 719
318 427
318 821
318 485
318 941
318 681
319 914
319 378
319 415
319 344
319 517
319 642
319 525
319 621
319 504
319 742
319 755
319 587
319 727
319 552
319 580
319 726
319 744
319 607
319 548
319 973
319 632
319 554
319 818
319 674
319 998
319 766
319 746
319 412
319 926
319 897
319 974
319 875
320 855
320 929
320 404
320 427
320 542
320 452
320 354
320 868
320 367
320 830
320 528
320 576
320 379
320 577
320 700
320 938
320 408
320 584
320 515
320 620
320 450
320 455
320 493
320 833
320 381
320 675
320 975
320 689
320 706
320 764
321 855
321 427
321 499
321 785
321 772
321 905
321 538
321 948
321 473
321 935
321 410
321 840
321 748
321 751
321 591
321 770
321 733
322 632
322 634
322 676
322 718
322 754
322 829
322 962
322 584
322 855
322 554
322 994
322 612
322 472
322 857
322 399
322 919
322 923
322 927
322 418
322 711
322 894
322 916
322 599
323 632
323 863
323 823
323 843
323 582
323 599
323 812
323 375
323 410
323 941
323 682
323 342
323 824
323 383
323 377
323 474
323 355
323 773
323 782
323 700
323 661
323 813
323 618
323 889
323 407
323 733
323 978
323 675
323 997
323 362
324 676
324 418
324 813
324 396
324 427
324 636
324 375
324 930
324 603
324 689
324 690
324 790
324 348
324 872
324 707
324 858
324 337
324 686
324 706
324 997
324 385
324 568
324 647
324 804
324 779
324 929
324 450
324 941
324 661
324 648
324 466
324 552
324 574
324 419
324 441
324 773
325 857
325 912
325 378
325 959
325 781
325 628
325 471
325 721
325 839
325 459
325 484
325 564
325 480
325 840
325 610
325 688
325 882
325 403
325 915
325 345
325 865
325 381
325 817
325 920
325 890
325 662
326 608
326 644
326 537
326 807
326 346
326 611
326 594
326 758
326 643
326 650
326 469
326 531
326 757
326 517
326 870
326 546
326 494
326 986
326 981
326 509
326 743
326 487
326 952
326 760
326 943
326 541
326 379
326 349
326 751
326 559
326 630
326 711
326 451
326 657
326 607
326 352
327 536
327 562
327 639
327 783
327 825
327 543
327 701
327 358
327 761
327 339
327 349
327 886
327 378
327 396
327 427
327 979
327 538
327 442
327 541
327 675
327 522
328 418
328 541
328 575
328 667
328 675
328 729
328 753
328 793
328 795
328 809
328 533
328 848
328 341
328 888
328 930
328 949
328 615
329 639
329 559
329 586
329 623
329 657
329 815
329 966
329 788
329 970
329 411
329 863
329 457
329 442
329 370
329 505
329 523
329 924
329 513
329 403
329 658
329 848
329 694
329 801
329 571
329 994
329 564
329 345
329 686
329 734
330 652
330 942
330 515
330 910
330 680
330 902
330 555
330 545
330 543
330 521
330 943
330 641
330 812
330 383
330 716
330 344
330 463
330 578
330 400
330 550
330 476
330 751
330 596
330 387
331 529
331 448
331 342
331 706
331 790
331 337
331 408
331 688
331 359
331 928
331 913
331 432
331 766
331 811
331 925
331 637
331 491
331 385
331 419
331 441
331 454
331 974
331 987
332 687
332 935
332 823
332 828
332 357
332 941
332 814
332 462
332 797
332 978
332 599
332 375
333 583
333 595
333 636
333 654
333 710
333 763
333 688
333 519
333 380
333 850
333 412
333 945
333 475
333 769
333 978
333 424
333 987
333 533
334 816
334 620
334 946
334 995
334 544
334 725
334 762
334 899
334 511
334 983
334 906
334 724
334 343
334 616
334 713
334 677
334 769
334 444
334 368
334 925
334 355
334 954
334 804
334 425
334 661
334 926
334 468
334 817
334 446
334 420
334 898
334 851
334 613
334 417
334 965
334 835
334 799
334 972
334 847
334 387
334 791
334 955
334 771
334 800
334 931
334 777
334 685
334 707
334 966
334 350
334 472
334 765
334 783
334 914
334 656
334 901
334 935
334 992
334 424
335 930
335 900
335 649
335 535
335 796
335 557
335 435
335 629
335 733
335 513
335 934
335 621
335 986
335 443
336 481
336 595
336 600
336 636
336 811
336 862
336 882
336 884
336 412
336 475
336 498
336 607
337 512
337 853
337 491
337 597
337 994
337 689
337 690
337 734
337 790
337 454
337 944
337 692
337 447
337 414
337 832
337 792
337 568
337 684
337 385
337 506
337 686
337 543
337 521
337 960
337 805
337 972
337 881
337 426
337 804
337 351
337 430
337 441
337 482
337 629
338 399
338 821
338 538
338 784
338 564
338 695
338 484
338 946
338 410
338 910
338 646
338 865
338 364
338 381
338 553
339 634
339 513
339 639
339 687
339 801
339 825
339 383
339 698
339 417
339 369
339 847
339 378
339 396
339 427
339 460
339 982
339 481
339 878
339 524
339 795
340 584
340 369
340 646
340 523
340 559
340 670
340 815
340 863
340 448
340 457
340 835
340 892
340 790
340 880
341 624
341 825
341 449
341 600
341 541
341 561
341 569
341 575
341 675
341 698
341 745
341 753
341 809
341 842
341 793
341 502
341 424
341 433
341 617
341 729
341 397
341 849
341 610
341 788
341 697
341 608
341 507
341 912
341 892
341 930
341 949
341 975
341 385
341 768
342 510
342 682
342 978
342 357
342 601
342 941
342 823
342 599
342 377
342 824
342 843
342 470
342 960
342 999
342 526
342 453
342 501
342 511
342 375
342 603
342 706
342 385
343 399
343 636
343 448
343 648
343 651
343 817
343 835
343 851
343 778
343 439
343 544
343 425
343 434
343 972
343 724
343 791
343 387
343 394
343 661
343 965
343 459
343 389
343 678
343 759
343 477
343 392
343 442
343 400
343 605
343 346
343 573
343 386
343 901
343 926
343 511
343 832
344 554
344 520
344 401
344 565
344 833
344 456
344 356
344 999
344 725
344 467
344 996
344 622
344 879
344 514
344 475
344 863
344 790
345 450
345 464
345 411
345 564
345 591
345 865
345 784
345 459
345 988
345 840
345 374
345 721
345 547
345 551
345 610
345 628
345 581
345 380
345 484
345 839
345 531
345 702
345 844
345 860
345 848
345 565
345 753
345 906
345 527
345 426
345 381
345 392
345 975
346 650
346 531
346 807
346 550
346 556
346 981
346 986
346 593
346 644
346 611
346 894
346 517
346 643
346 962
346 359
346 609
346 757
346 509
346 916
346 547
346 368
346 848
346 402
346 782
346 733
347 624
347 668
347 718
347 720
347 857
347 939
347 800
347 498
347 835
347 655
347 366
347 399
347 919
347 418
347 749
347 382
347 766
347 368
347 890
348 404
348 583
348 361
348 544
348 603
348 686
348 689
348 706
348 734
348 790
348 569
348 351
348 419
348 454
349 399
349 562
349 639
349 687
349 736
349 749
349 801
349 536
349 674
349 378
349 838
349 903
349 353
349 917
349 466
349 789
349 787
349 396
349 404
349 499
349 467
349 679
349 711
349 813
349 493
349 359
349 526
349 514
349 649
349 643
349 452
349 763
349 699
349 459
349 612
349 686
349 632
349 427
349 460
349 481
349 356
349 475
349 478
349 715
349 892
349 690
349 697
349 372
349 920
349 818
350 853
350 354
350 830
350 577
350 519
350 449
350 960
350 841
350 429
350 922
350 608
350 455
350 493
350 636
350 391
350 563
350 392
350 890
351 505
351 628
351 541
351 930
351 603
351 615
351 689
351 734
351 408
351 918
351 858
351 913
351 686
351 690
351 997
351 944
351 578
351 359
351 482
351 984
351 647
351 896
351 928
351 697
351 385
351 974
351 441
351 684
351 924
351 419
351 764
351 384
351 414
351 568
351 430
351 872
351 871
351 520
351 677
351 970
351 821
351 658
351 852
351 708
351 386
351 713
351 411
351 839
351 940
351 809
351 632
351 794
351 613
351 538
351 461
351 606
351 907
351 567
352 676
352 725
352 745
352 900
352 435
352 913
352 869
352 747
353 857
353 912
353 536
353 562
353 639
353 673
353 674
353 711
353 741
353 749
353 801
353 378
353 903
353 404
353 427
353 460
353 979
353 710
353 905
353 995
353 965
353 690
354 542
354 491
354 455
354 512
354 407
354 871
354 368
354 868
354 620
354 641
354 450
354 452
354 678
354 755
354 802
355 388
355 459
355 648
355 732
355 817
355 835
355 851
355 417
355 511
355 575
355 753
355 424
356 456
356 716
356 719
356 996
356 869
356 822
356 728
356 999
356 737
356 689
356 721
356 914
356 574
356 942
356 622
356 879
356 613
356 835
357 451
357 565
357 723
357 572
357 410
357 823
357 978
357 599
357 601
357 842
357 768
358 548
358 711
358 542
358 811
358 772
358 393
358 538
358 948
358 445
358 590
358 473
358 485
358 453
358 898
358 551
358 933
358 613
358 791
358 724
358 751
358 995
358 715
358 969
358 768
359 624
359 632
359 626
359 935
359 745
359 603
359 615
359 689
359 690
359 706
359 734
359 790
359 419
359 454
359 997
360 874
360 868
360 650
360 980
360 459
360 553
360 698
360 842
360 722
360 774
360 502
360 879
360 880
360 888
360 392
360 975
360 689
361 608
361 526
361 589
361 595
361 636
361 640
361 710
361 723
361 821
361 654
361 946
361 945
361 524
361 403
361 663
361 409
361 981
361 521
361 824
361 489
361 412
361 475
361 498
361 994
361 417
362 593
362 406
362 571
362 482
362 402
362 782
362 533
362 696
362 733
362 880
362 747
362 630
362 890
363 783
363 378
363 955
363 553
363 575
363 588
363 607
363 675
363 681
363 698
363 715
363 753
363 809
363 842
363 848
363 888
363 392
363 930
363 975
364 563
364 591
364 610
364 959
364 398
364 921
364 438
364 473
364 823
364 681
364 858
365 857
365 401
365 525
365 772
365 992
365 693
365 900
365 782
365 535
365 796
365 557
365 435
365 511
366 632
366 668
366 718
366 720
366 810
366 829
366 857
366 369
366 483
366 837
366 912
366 938
366 658
366 881
366 873
366 864
366 922
366 469
366 646
366 960
366 399
366 919
366 923
366 851
366 790
366 454
366 549
367 542
367 577
367 868
367 620
367 493
367 830
367 519
367 457
367 580
367 741
367 378
367 490
367 455
367 811
367 708
367 753
367 997
368 803
368 957
368 850
368 946
368 725
368 817
368 851
368 804
368 925
368 613
368 724
368 954
368 778
368 709
368 732
368 677
368 468
368 933
368 899
368 434
368 651
368 983
368 791
368 713
368 835
368 394
368 799
368 425
368 458
368 446
368 901
368 847
368 478
368 511
368 616
368 965
368 661
368 671
368 417
368 439
368 409
368 984
368 418
368 379
368 619
368 460
368 443
368 450
368 691
368 939
368 489
368 693
368 735
368 607
368 530
368 371
368 401
368 606
368 792
368 926
368 935
368 992
368 745
368 373
369 624
369 676
369 720
369 735
369 857
369 742
369 605
369 786
369 457
369 399
369 919
369 929
369 868
369 790
369 987
370 919
370 711
370 641
370 811
370 559
370 586
370 657
370 815
370 863
370 980
370 994
370 553
370 472
371 614
371 766
371 980
371 835
371 851
371 392
371 533
371 535
371 796
371 557
371 435
371 733
371 747
371 857
372 862
372 623
372 425
372 827
372 675
372 402
372 893
372 908
372 885
372 875
372 516
372 373
372 489
372 714
372 479
372 662
372 651
372 735
372 894
372 474
372 869
372 589
372 687
372 987
372 435
373 829
373 520
373 537
373 445
373 840
373 950
373 384
373 880
373 885
373 987
373 802
373 516
373 861
373 425
373 552
373 661
373 421
373 685
374 427
374 807
374 602
374 784
374 959
374 988
374 480
374 865
374 381
375 718
375 839
375 410
375 941
375 823
375 978
375 599
375 383
375 824
375 601
375 812
375 843
375 827
375 377
375 957
375 380
375 632
375 559
375 697
375 501
375 557
375 761
375 618
375 892
376 460
376 512
376 455
376 400
376 559
376 586
376 597
376 765
376 815
376 581
376 493
376 448
376 994
376 995
376 992
376 930
377 585
377 884
377 545
377 428
377 865
377 812
377 941
377 823
377 827
377 978
377 599
377 566
378 939
378 536
378 639
378 711
378 749
378 801
378 841
378 886
378 427
378 736
378 382
378 674
378 683
378 979
378 741
378 653
378 466
378 775
378 787
378 460
378 968
378 780
378 982
378 488
378 673
378 876
378 816
378 510
378 554
378 415
378 499
378 481
378 813
378 898
378 768
378 500
378 755
378 406
378 892
378 551
378 733
378 458
378 520
378 567
378 890
378 963
378 929
378 568
378 451
378 850
378 396
378 464
378 521
378 448
378 618
378 842
379 584
379 737
379 528
379 542
379 868
379 762
379 641
379 964
379 712
379 493
379 807
380 853
380 710
380 564
380 591
380 610
380 763
380 677
380 951
380 696
381 867
381 784
381 547
381 988
381 628
381 480
381 840
381 916
381 564
381 959
381 591
381 721
381 865
381 781
381 440
381 401
381 760
381 734
381 684
381 658
382 536
382 711
382 749
382 801
382 816
382 886
382 683
382 741
382 893
382 771
382 427
382 979
382 488
382 510
382 985
383 823
383 824
383 827
383 808
383 533
383 750
384 894
384 578
384 692
384 790
384 697
384 626
384 441
384 454
385 876
385 544
385 603
385 690
385 734
385 974
385 944
385 688
385 615
385 918
385 697
385 686
385 684
385 832
385 711
385 774
385 655
385 956
385 900
385 997
385 961
385 533
386 562
386 583
386 835
386 847
386 444
386 925
386 443
386 704
386 388
386 935
386 511
386 885
386 557
387 977
387 840
387 651
387 713
387 835
387 851
387 568
387 551
387 512
387 901
387 935
387 425
387 992
387 511
388 735
388 977
388 936
388 555
388 426
388 521
388 943
388 543
388 708
388 836
388 757
388 888
388 910
388 610
388 713
388 992
388 843
388 441
388 503
389 780
389 510
389 996
389 525
389 726
389 607
389 675
389 753
389 846
389 892
389 392
389 930
389 975
389 890
390 979
390 640
390 975
390 474
390 889
390 507
390 637
390 768
390 560
390 818
390 907
390 408
390 709
390 664
390 890
390 515
391 399
391 466
391 621
391 589
391 595
391 602
391 636
391 763
391 820
391 882
391 777
391 625
391 640
391 785
391 498
391 460
391 704
391 940
391 793
391 412
391 946
391 540
391 574
391 435
392 718
392 952
392 726
392 607
392 675
392 708
392 949
392 774
392 846
392 969
392 930
392 722
392 861
392 664
392 953
392 502
392 617
392 730
392 753
392 795
392 956
392 409
392 809
392 971
392 532
392 424
392 659
392 433
392 729
392 975
392 963
392 793
392 553
392 932
392 745
392 702
392 982
392 910
392 712
392 862
392 595
392 545
392 437
392 446
392 555
392 967
392 887
392 834
392 808
393 639
393 958
393 643
393 609
393 726
393 636
393 772
393 527
393 856
393 948
393 538
393 672
393 905
393 477
393 476
393 969
393 416
393 759
393 720
393 437
393 890
393 502
393 746
393 691
393 445
393 748
393 949
393 706
393 408
393 696
394 801
394 936
394 762
394 817
394 851
394 935
394 992
394 511
394 588
394 698
394 848
395 683
395 833
395 716
395 623
395 806
395 706
395 419
395 430
395 880
395 930
395 685
395 987
396 536
396 554
396 562
396 653
396 687
396 749
396 780
396 783
396 813
396 801
396 775
396 741
396 674
396 816
396 443
396 416
396 787
396 488
396 903
396 466
396 679
396 479
396 825
396 711
396 415
396 838
396 404
396 958
396 876
396 437
396 617
396 424
396 902
396 398
396 584
396 784
396 891
396 867
396 581
396 964
396 587
396 469
396 847
396 427
396 460
396 481
396 862
396 713
396 441
397 739
397 927
397 868
397 807
397 817
397 607
397 675
397 842
397 930
397 424
397 949
397 975
397 690
397 441
398 452
398 602
398 873
398 498
398 530
398 988
398 842
398 888
398 522
398 754
398 865
398 629
398 899
398 665
398 740
398 496
399 624
399 632
399 668
399 718
399 720
399 803
399 829
399 857
399 451
399 584
399 744
399 923
399 669
399 694
399 938
399 660
399 634
399 927
399 800
399 962
399 810
399 759
399 735
399 483
399 855
399 739
399 914
399 919
399 837
399 676
399 740
399 576
399 467
399 970
399 746
399 817
399 696
399 655
399 418
399 917
399 501
399 755
399 600
399 574
399 846
399 930
399 441
399 629
400 947
400 440
400 524
400 589
400 595
400 602
400 636
400 646
400 655
400 723
400 821
400 405
400 838
400 720
400 921
400 475
400 498
400 635
400 765
400 616
400 930
400 522
401 903
401 460
401 465
401 529
401 565
401 879
401 622
401 614
401 719
401 936
401 747
401 744
401 452
401 822
401 881
401 541
401 975
401 549
401 967
402 711
402 801
402 473
402 425
402 430
402 431
402 421
402 656
402 770
402 875
402 738
402 489
402 880
402 490
402 799
402 891
402 558
402 907
402 613
402 688
402 412
402 685
402 714
402 987
403 404
403 868
403 487
403 595
403 600
403 655
403 763
403 805
403 821
403 850
403 882
403 884
403 475
403 498
403 572
403 417
404 536
404 639
404 687
404 825
404 780
404 443
404 749
404 499
404 982
404 801
404 415
404 416
404 467
404 679
404 683
404 979
404 510
404 958
404 562
404 876
404 816
404 554
404 427
404 674
404 787
404 673
404 741
404 937
404 466
404 481
404 736
404 841
404 488
404 888
404 871
404 961
404 650
404 694
404 732
404 654
404 971
404 986
404 583
404 453
404 724
404 868
404 548
404 504
404 445
404 760
404 967
404 542
404 755
404 946
404 806
404 851
404 987
405 810
405 857
405 427
405 510
405 614
405 811
405 515
405 521
405 910
405 842
405 832
405 961
405 942
405 865
405 975
405 522
405 470
406 825
406 427
406 514
406 524
406 589
406 595
406 602
406 701
406 805
406 821
406 862
406 884
406 945
406 475
406 762
406 753
406 474
407 512
407 830
407 853
407 868
407 866
407 620
407 519
407 745
407 643
407 582
407 455
407 644
407 981
407 654
407 663
407 980
407 549
407 740
408 705
408 927
408 868
408 726
408 826
408 706
408 790
408 743
408 577
408 811
408 441
409 620
409 524
409 541
409 618
409 675
409 715
409 745
409 753
409 842
409 888
409 930
409 949
410 996
410 524
410 586
410 582
410 682
410 843
410 989
410 497
410 491
410 593
410 415
410 827
410 601
410 421
410 533
411 813
411 937
411 947
411 475
411 619
411 623
411 863
411 845
411 826
411 457
411 563
411 991
411 566
411 659
411 960
411 871
411 818
411 655
411 448
411 994
411 995
411 817
412 639
412 650
412 487
412 524
412 589
412 600
412 627
412 654
412 710
412 723
412 785
412 666
412 602
412 526
412 514
412 955
412 854
412 746
412 811
412 645
412 882
412 771
412 862
412 638
412 655
412 646
412 498
412 423
412 432
412 946
412 767
412 805
412 864
412 492
412 945
412 852
412 844
412 475
412 777
412 437
412 583
412 701
412 743
412 999
412 546
412 806
412 973
412 633
412 748
412 715
412 782
412 830
412 618
412 876
412 998
412 954
412 582
412 977
412 960
412 451
412 599
412 990
412 568
413 668
413 801
413 825
413 886
413 512
413 519
413 853
413 620
413 895
413 986
413 609
413 994
413 835
413 851
414 460
414 450
414 766
414 589
414 636
414 965
414 992
414 603
414 689
414 790
414 441
415 803
415 639
415 653
415 687
415 711
415 749
415 825
415 886
415 903
415 937
415 536
415 816
415 683
415 479
415 510
415 673
415 968
415 513
415 467
415 566
415 655
415 504
415 537
415 814
415 965
415 595
415 672
415 427
415 460
415 577
415 935
415 681
415 734
415 818
416 536
416 562
416 639
416 711
416 736
416 780
416 801
416 886
416 428
416 724
416 921
416 528
416 427
416 481
416 494
416 543
416 851
417 800
417 914
417 986
417 642
417 544
417 817
417 835
417 847
417 851
417 677
417 972
417 791
417 732
417 724
417 671
417 898
417 804
417 725
417 511
417 769
417 899
417 709
417 657
417 561
417 795
417 870
417 999
417 790
417 836
417 707
417 894
417 562
417 548
417 608
417 425
417 992
417 629
418 718
418 720
418 735
418 754
418 803
418 857
418 919
418 923
418 927
418 938
418 914
418 632
418 739
418 451
418 940
418 874
418 694
418 669
418 676
418 634
418 855
418 483
418 800
418 934
418 744
418 814
418 584
418 540
418 727
418 886
418 433
418 761
418 880
418 868
418 884
418 525
418 466
418 448
418 560
419 545
419 926
419 689
419 734
419 790
419 568
419 697
419 706
419 896
419 684
419 997
419 832
419 984
419 741
419 802
419 966
419 765
419 493
419 691
419 441
419 506
420 427
420 494
420 713
420 762
420 835
420 926
420 935
420 425
420 992
420 511
420 532
420 522
421 562
421 639
421 870
421 681
421 773
421 802
421 656
421 704
421 726
421 917
421 967
421 725
421 987
422 805
422 586
422 623
422 670
422 815
422 863
422 769
422 985
422 994
422 995
422 630
423 524
423 539
423 595
423 655
423 882
423 884
423 945
423 475
423 498
423 753
423 888
424 455
424 869
424 600
424 572
424 541
424 675
424 681
424 753
424 809
424 842
424 911
424 956
424 553
424 612
424 618
424 730
424 659
424 472
424 975
424 532
424 888
424 722
424 774
424 868
424 902
424 789
424 994
424 507
424 513
424 436
424 434
424 860
424 998
424 556
424 949
425 874
425 711
425 452
425 817
425 835
425 851
425 925
425 935
425 725
425 478
425 983
425 709
425 444
425 926
425 778
425 799
425 439
425 898
425 458
425 906
425 895
425 646
425 987
425 642
425 964
425 607
425 606
425 499
425 856
425 511
425 681
425 745
425 880
426 673
426 466
426 481
426 641
426 902
426 652
426 427
426 600
426 942
426 948
426 935
426 978
426 568
427 668
427 536
427 562
427 711
427 801
427 813
427 639
427 513
427 741
427 979
427 968
427 775
427 466
427 687
427 886
427 673
427 674
427 789
427 787
427 780
427 736
427 838
427 679
427 841
427 510
427 903
427 783
427 488
427 443
427 460
427 816
427 937
427 481
427 749
427 917
427 718
427 555
427 978
427 663
427 484
427 436
427 898
427 970
427 716
427 833
427 792
427 632
427 677
427 547
427 502
427 936
427 636
427 820
427 869
427 580
427 497
428 979
428 510
428 936
428 559
428 586
428 623
428 765
428 845
428 863
428 615
428 442
428 994
428 995
428 695
428 987
429 520
429 873
429 498
429 603
429 706
429 734
429 790
430 624
430 632
430 450
430 529
430 643
430 433
430 689
430 690
430 790
430 913
430 578
430 942
430 796
430 602
430 546
430 847
430 985
430 441
430 967
431 632
431 931
431 935
431 478
431 823
431 685
431 987
432 631
432 524
432 583
432 595
432 654
432 655
432 723
432 763
432 767
432 821
432 850
432 498
432 815
432 708
432 975
432 770
433 878
433 850
433 826
433 648
433 574
433 675
433 681
433 753
433 892
433 999
433 844
433 537
433 679
433 870
433 706
433 975
434 919
434 939
434 762
434 851
434 926
434 511
434 915
434 482
434 631
434 985
434 745
434 992
434 790
434 454
435 754
435 816
435 996
435 550
435 524
435 498
435 652
435 848
435 734
435 782
435 535
435 557
435 920
435 533
435 463
435 973
435 495
435 819
435 630
435 629
435 649
435 591
435 968
435 592
435 859
435 990
435 948
435 733
436 751
436 579
436 586
436 623
436 633
436 670
436 815
436 845
436 863
436 505
436 994
436 980
436 703
436 635
436 841
436 891
436 704
436 552
436 477
436 478
436 995
436 677
436 713
436 888
437 789
437 452
437 594
437 514
437 583
437 595
437 602
437 636
437 645
437 646
437 654
437 862
437 475
437 498
437 824
438 525
438 726
438 585
438 727
438 860
438 552
438 592
438 598
438 668
438 997
438 867
438 621
438 766
438 955
438 751
438 623
438 926
438 827
439 668
439 837
439 874
439 917
439 515
439 616
439 648
439 651
439 671
439 725
439 935
439 511
439 888
439 706
439 924
440 525
440 998
440 631
440 766
440 498
440 612
440 460
440 585
440 976
440 621
440 755
440 821
440 445
440 505
440 591
440 651
440 888
440 603
441 537
441 811
441 586
441 610
441 835
441 574
441 568
441 690
441 790
441 697
441 832
441 944
441 707
441 872
441 692
441 792
441 578
441 913
441 684
441 984
441 454
441 647
441 706
441 688
441 924
441 928
441 997
441 603
441 734
441 918
441 764
441 686
441 506
441 689
441 708
441 695
441 532
441 478
441 989
441 619
441 717
441 485
441 983
441 490
441 795
441 618
441 759
441 731
442 639
442 813
442 642
442 552
442 559
442 586
442 863
442 806
442 980
442 619
442 826
442 966
442 515
442 722
442 519
442 997
442 621
442 961
442 777
442 990
442 995
442 544
442 688
442 875
443 536
443 554
443 562
443 639
443 683
443 687
443 789
443 801
443 886
443 903
443 460
443 982
443 519
443 884
443 769
443 795
443 686
444 718
444 814
444 927
444 841
444 600
444 445
444 544
444 671
444 713
444 762
444 817
444 835
444 847
444 851
444 926
444 992
445 800
445 711
445 881
445 772
445 538
445 573
445 856
445 453
445 473
445 715
445 812
445 795
446 735
446 876
446 509
446 742
446 985
446 713
446 762
446 817
446 847
446 935
446 969
446 623
446 992
446 511
446 843
446 745
446 770
447 652
447 995
447 603
447 688
447 706
447 734
447 790
447 697
447 509
447 959
447 840
447 974
448 829
448 520
448 766
448 539
448 884
448 831
448 586
448 670
448 970
448 845
448 523
448 826
448 985
448 991
448 922
448 883
448 597
448 559
448 836
448 619
448 623
448 579
448 635
448 703
448 966
448 571
448 953
448 984
448 962
448 461
448 562
448 952
448 960
448 954
448 980
448 994
448 995
448 808
448 900
449 518
449 519
449 542
449 641
449 960
449 455
449 964
449 799
449 911
449 684
449 943
449 450
449 452
449 493
449 610
449 484
449 574
449 615
450 519
450 542
450 868
450 620
450 641
450 491
450 518
450 464
450 493
450 568
450 621
450 650
450 758
450 514
450 558
450 532
450 729
451 584
451 668
451 676
451 705
451 718
451 754
451 874
451 919
451 927
451 914
451 771
451 960
451 999
451 475
451 968
451 844
451 498
451 994
451 847
451 578
452 658
452 542
452 868
452 620
452 641
452 519
452 960
452 866
452 518
452 731
452 619
452 664
452 906
452 798
452 655
452 717
452 457
452 656
453 857
453 460
453 960
453 772
453 538
453 831
453 573
453 905
453 556
453 748
453 751
453 951
453 567
453 496
454 668
454 469
454 600
454 821
454 601
454 690
454 692
454 734
454 790
454 689
454 872
454 615
454 686
454 832
454 688
454 684
454 482
454 697
454 764
454 984
454 506
454 706
454 603
454 499
454 942
454 465
454 753
454 879
454 828
454 536
454 897
454 995
454 694
454 660
454 645
454 730
454 481
454 997
455 542
455 830
455 620
455 866
455 641
455 608
455 518
455 577
455 528
455 964
455 960
455 731
455 491
455 868
455 853
455 925
455 614
455 724
455 529
455 613
455 551
455 917
455 628
455 648
455 685
456 927
456 904
456 565
456 520
456 671
456 668
456 719
456 614
456 622
456 879
456 756
456 501
456 666
456 995
456 906
456 809
456 858
457 886
457 586
457 863
457 559
457 806
457 922
457 845
457 579
457 523
457 788
457 748
457 660
457 594
457 525
457 593
457 796
457 680
457 994
457 696
458 874
458 646
458 884
458 523
458 559
458 544
458 613
458 835
458 851
458 901
458 935
458 575
459 825
459 751
459 564
459 547
459 840
459 480
459 932
459 761
459 853
459 865
459 569
460 837
460 536
460 562
460 937
460 467
460 982
460 917
460 513
460 841
460 499
460 886
460 674
460 679
460 903
460 813
460 653
460 816
460 639
460 687
460 780
460 803
460 631
460 658
460 475
460 576
460 863
460 855
460 977
460 843
460 879
460 844
460 655
460 579
460 497
461 958
461 493
461 905
461 538
461 572
461 573
461 703
461 763
461 751
461 779
462 912
462 501
462 525
462 552
462 585
462 473
462 729
462 592
462 726
462 621
462 755
462 631
462 847
463 857
463 654
463 649
463 782
463 557
463 973
463 624
463 646
463 755
463 733
464 624
464 554
464 512
464 519
464 542
464 608
464 868
464 712
464 829
464 952
464 493
464 766
464 985
464 607
465 683
465 904
465 520
465 822
465 719
465 728
465 542
465 472
465 996
465 879
465 537
465 642
465 936
465 601
465 729
465 689
466 653
466 683
466 711
466 685
466 846
466 933
466 488
466 526
466 475
466 806
466 606
466 842
466 496
467 814
467 536
467 711
467 736
467 481
467 844
467 751
467 992
467 796
467 909
468 589
468 543
468 672
468 616
468 648
468 762
468 817
468 926
468 935
468 479
468 992
468 511
468 588
469 668
469 816
469 644
469 517
469 537
469 807
469 556
469 952
469 986
469 955
469 473
469 865
470 638
470 965
470 790
470 747
470 779
470 567
470 967
470 707
470 698
470 740
470 496
471 841
471 784
471 564
471 591
471 934
471 997
471 797
471 865
471 690
472 749
472 675
472 681
472 753
472 842
472 888
472 892
472 930
472 950
472 809
472 491
472 475
472 761
472 602
472 504
472 609
472 534
473 860
473 867
473 589
473 646
473 655
473 772
473 663
473 538
473 691
473 527
473 573
473 477
473 831
473 572
473 485
473 905
473 751
473 789
473 735
473 796
473 635
473 804
473 512
473 564
473 690
474 648
474 973
474 779
474 560
474 818
474 967
474 534
474 740
474 497
474 768
474 700
474 889
474 605
474 507
474 546
474 733
474 888
474 705
474 944
474 831
474 496
475 639
475 631
475 526
475 589
475 600
475 645
475 655
475 710
475 811
475 767
475 514
475 946
475 636
475 873
475 884
475 915
475 626
475 820
475 882
475 625
475 805
475 945
475 763
475 717
475 627
475 887
475 797
475 895
475 638
475 794
475 821
475 844
475 921
475 492
475 785
475 701
475 955
475 651
475 721
475 755
475 770
475 662
475 989
475 576
475 904
475 896
475 730
475 996
475 939
475 570
475 579
475 629
476 676
476 801
476 537
476 758
476 772
476 538
476 672
476 948
476 914
476 736
476 751
476 926
477 829
477 884
477 772
477 538
477 948
477 691
477 819
477 751
477 511
478 674
478 520
478 600
478 544
478 613
478 616
478 713
478 762
478 835
478 926
478 935
478 592
478 785
478 740
478 623
478 511
478 681
479 624
479 536
479 639
479 674
479 679
479 711
479 741
479 982
479 960
479 920
479 488
480 718
480 666
480 786
480 781
480 564
480 959
480 591
480 988
480 784
480 721
480 916
480 547
480 839
480 606
480 613
480 904
480 852
480 891
480 794
480 610
480 818
481 536
481 639
481 749
481 789
481 683
481 488
481 968
481 741
481 513
481 816
481 679
481 775
481 841
481 687
481 958
481 674
481 554
481 499
481 783
481 564
481 891
481 538
481 740
481 532
481 960
481 484
481 591
481 993
481 811
481 623
481 863
482 639
482 815
482 541
482 681
482 688
482 734
482 858
482 627
482 842
482 535
482 851
483 718
483 857
483 919
483 927
483 874
483 516
483 753
483 570
483 580
483 623
483 988
483 575
483 617
484 538
484 695
484 840
484 591
484 865
484 683
484 660
484 613
484 892
484 496
485 923
485 986
485 894
485 850
485 921
485 772
485 527
485 538
485 691
485 748
486 882
486 944
486 779
486 662
486 665
486 549
486 967
486 859
486 740
487 720
487 517
487 537
487 807
487 556
487 981
487 952
487 894
487 678
487 552
487 757
487 758
487 509
487 763
487 821
488 536
488 639
488 674
488 679
488 683
488 749
488 736
488 589
488 498
488 510
488 644
488 805
488 817
488 978
488 675
488 566
489 694
489 810
489 586
489 575
489 809
489 880
489 685
489 714
490 923
490 639
490 801
490 976
490 755
490 885
490 656
490 685
490 987
490 794
491 518
491 868
491 620
491 641
491 493
491 965
492 759
492 554
492 631
492 589
492 602
492 645
492 646
492 655
492 710
492 811
492 945
492 801
492 984
492 725
492 607
492 734
492 920
493 518
493 576
493 577
493 512
493 641
493 878
493 853
493 915
493 952
493 861
493 592
493 618
493 659
494 510
494 531
494 807
494 550
494 556
494 986
494 643
494 609
494 981
494 607
494 751
494 758
494 524
494 995
494 840
495 499
495 946
495 762
495 649
495 696
495 621
495 760
495 503
496 687
496 524
496 627
496 809
496 522
496 662
496 560
496 967
496 859
496 700
496 534
496 507
496 818
496 567
496 497
496 740
496 889
496 549
496 948
496 664
496 913
496 658
497 857
497 518
497 942
497 817
497 892
497 924
497 522
497 859
497 740
497 877
497 605
497 779
497 567
497 967
497 988
497 542
497 954
497 761
497 939
498 879
498 524
498 627
498 646
498 710
498 820
498 821
498 882
498 794
498 873
498 746
498 625
498 640
498 805
498 626
498 514
498 811
498 785
498 638
498 864
498 850
498 862
498 539
498 763
498 767
498 946
498 915
498 636
498 526
498 595
498 771
498 786
498 854
498 931
498 895
498 675
498 846
498 781
498 525
498 953
498 672
498 923
498 521
498 577
498 997
498 541
498 597
498 505
498 959
498 601
498 689
498 782
499 536
499 562
499 639
499 711
499 749
499 813
499 526
499 532
499 795
499 964
499 851
499 824
500 810
500 822
500 642
500 525
500 957
500 976
500 621
500 755
500 730
500 883
500 766
501 800
501 644
501 650
501 537
501 546
501 550
501 556
501 919
501 509
501 765
501 817
501 706
501 734
501 880
502 610
502 667
502 698
502 715
502 753
502 774
502 793
502 809
502 975
503 586
503 847
503 824
503 782
503 557
503 630
503 819
503 920
503 597
503 655
503 746
503 521
503 888
504 525
504 957
504 585
504 993
504 867
504 755
504 557
504 766
504 595
504 612
504 793
504 689
504 747
505 711
505 542
505 757
505 627
505 559
505 586
505 623
505 815
505 863
505 980
505 994
505 995
505 956
505 828
505 601
505 997
506 867
506 689
506 706
506 790
506 997
506 690
506 974
506 629
506 971
506 785
506 784
506 616
506 747
507 676
507 754
507 608
507 742
507 675
507 729
507 768
507 662
508 584
508 914
508 748
508 713
508 835
508 851
508 926
508 935
508 992
508 706
509 650
509 537
509 546
509 594
509 894
509 643
509 611
509 974
509 640
509 732
509 762
509 511
509 973
509 629
510 639
510 687
510 711
510 979
510 513
510 749
510 789
510 876
510 780
510 816
510 653
510 542
510 756
510 710
510 805
510 965
510 688
511 526
511 946
511 661
511 762
511 817
511 847
511 851
511 901
511 926
511 725
511 799
511 992
511 709
511 671
511 983
511 972
511 651
511 954
511 778
511 713
511 677
511 899
511 965
511 898
511 544
511 567
511 528
511 701
511 845
511 653
511 641
511 659
511 844
511 809
511 571
511 755
511 565
511 636
511 771
511 994
511 540
511 696
512 518
512 868
512 528
512 878
512 520
512 519
512 542
512 716
512 579
512 901
513 694
513 789
513 958
513 564
513 802
513 536
513 711
513 741
513 749
513 780
513 801
513 825
513 982
513 577
513 524
514 632
514 749
514 886
514 519
514 576
514 853
514 614
514 785
514 895
514 797
514 746
514 600
514 584
514 889
514 622
514 695
514 524
514 589
514 595
514 602
514 636
514 646
514 710
514 821
514 882
514 884
514 788
514 753
514 522
515 821
515 543
515 521
515 942
515 992
515 599
515 651
515 652
515 910
515 936
516 585
516 842
516 770
516 656
516 870
516 772
516 715
516 773
516 875
516 885
517 749
517 641
517 643
517 870
517 760
517 556
517 807
517 743
517 644
517 546
517 678
517 758
517 952
517 538
517 766
517 874
517 825
517 809
517 537
517 981
517 986
517 640
517 646
517 948
517 706
518 668
518 939
518 801
518 519
518 731
518 641
518 920
518 646
518 595
518 868
518 620
518 752
518 648
518 949
519 641
519 731
519 878
519 576
519 960
519 608
519 620
519 542
519 866
519 868
519 897
519 683
519 545
519 598
519 830
519 587
520 749
520 904
520 716
520 879
520 996
520 529
520 719
520 565
520 728
520 881
520 563
520 937
520 603
520 659
520 927
520 756
520 636
520 638
520 713
521 676
521 919
521 936
521 543
521 941
521 632
521 736
521 910
521 942
521 977
521 703
521 817
521 901
521 935
521 714
522 882
522 586
522 619
522 930
522 603
522 697
522 637
522 859
522 967
522 567
522 818
522 665
522 877
522 779
522 889
522 907
522 768
522 605
522 577
522 857
522 994
522 778
522 647
522 829
522 662
523 855
523 867
523 763
523 579
523 991
523 883
523 995
523 815
523 574
523 665
523 559
523 586
523 597
523 765
523 863
523 980
523 994
523 698
523 930
523 685
524 589
524 797
524 655
524 844
524 767
524 921
524 805
524 600
524 602
524 723
524 895
524 701
524 873
524 945
524 777
524 864
524 638
524 786
524 820
524 794
524 882
524 636
524 771
524 710
524 654
524 821
524 922
524 780
524 719
524 976
524 856
524 585
524 609
524 697
524 991
524 556
524 583
524 595
524 627
524 763
524 884
524 946
524 566
525 632
525 622
525 981
525 642
525 587
525 592
525 755
525 947
525 727
525 585
525 742
525 860
525 891
525 976
525 726
525 993
525 766
525 852
525 769
525 653
525 734
525 610
525 577
525 760
525 957
525 998
525 621
525 631
525 541
526 968
526 844
526 771
526 600
526 797
526 983
526 759
526 595
526 638
526 646
526 710
526 763
526 946
526 703
526 992
526 689
526 913
527 996
527 539
527 604
527 772
527 861
527 630
527 760
527 663
527 538
527 748
527 751
527 799
527 888
527 974
527 987
528 968
528 542
528 781
528 558
528 879
528 942
528 559
528 586
528 732
528 553
529 857
529 622
529 728
529 821
529 565
529 833
529 719
529 996
529 881
529 675
530 801
530 996
530 943
530 685
530 677
530 543
530 936
530 942
530 623
531 857
531 643
531 644
531 611
531 807
531 594
531 894
531 556
531 760
531 537
531 743
531 650
531 955
531 707
531 840
531 748
531 552
531 610
531 546
531 757
531 854
531 657
531 926
531 888
532 754
532 623
532 753
532 726
532 925
532 574
532 607
532 675
532 795
532 842
532 888
532 975
532 656
533 755
533 710
533 659
533 734
533 649
533 733
533 782
533 535
533 557
533 917
533 781
533 645
533 920
533 696
533 747
534 719
534 695
534 823
534 607
534 975
534 808
534 880
534 909
534 869
534 560
534 967
534 859
534 740
535 584
535 562
535 920
535 557
535 629
535 782
535 761
535 750
535 900
535 973
535 766
535 568
535 779
535 869
535 911
535 547
535 706
535 796
535 696
535 630
536 789
536 813
536 825
536 917
536 711
536 787
536 783
536 687
536 801
536 562
536 829
536 782
536 731
536 834
536 952
536 716
536 537
536 665
536 840
536 880
536 587
536 554
536 639
536 673
536 683
536 749
536 841
536 785
536 863
536 892
536 685
537 643
537 644
537 650
537 760
537 611
537 757
537 870
537 807
537 594
537 593
537 678
537 609
537 550
537 981
537 556
537 743
537 986
537 768
537 761
537 744
537 589
537 651
537 935
537 665
538 772
538 663
538 573
538 948
538 905
538 691
538 751
538 831
538 590
538 834
538 856
538 604
538 572
538 748
538 562
538 826
538 714
538 827
538 849
538 601
538 882
538 932
538 681
538 734
539 884
539 820
539 595
539 805
539 777
539 773
539 822
539 589
539 600
539 602
539 626
539 636
539 646
539 654
539 710
539 882
539 946
539 834
539 817
539 849
539 832
539 779
540 556
540 821
540 963
540 781
540 678
540 541
540 553
540 575
540 675
540 681
540 698
540 753
540 809
540 846
540 892
540 930
540 975
541 845
541 956
541 774
541 612
541 664
541 667
541 950
541 571
541 892
541 969
541 932
541 888
541 702
541 681
541 793
541 659
541 730
541 618
541 963
541 885
541 742
541 590
541 684
541 906
541 584
541 918
541 696
541 607
541 675
541 715
541 809
541 842
541 930
541 975
542 960
542 964
542 866
542 731
542 620
542 868
542 576
542 878
542 608
542 853
542 836
542 915
542 804
542 797
542 742
542 952
542 629
542 603
542 752
542 992
543 624
543 801
543 921
543 910
543 555
543 669
543 856
543 980
543 880
543 936
543 942
543 845
543 591
543 667
543 842
543 818
544 927
544 767
544 616
544 899
544 835
544 989
544 965
544 648
544 991
544 962
544 793
544 671
544 713
544 725
544 762
544 817
544 851
544 926
544 935
544 571
544 892
545 624
545 668
545 910
545 902
545 680
545 561
545 643
545 710
545 936
545 984
546 593
546 643
546 894
546 986
546 556
546 550
546 807
546 743
546 969
546 940
546 642
546 611
546 689
546 859
547 658
547 676
547 766
547 636
547 763
547 815
547 784
547 959
547 721
547 628
547 606
547 551
547 610
547 839
547 943
547 985
547 868
547 965
547 591
547 865
547 809
547 566
548 705
548 810
548 962
548 754
548 939
548 914
548 814
548 912
548 737
548 624
548 584
548 694
548 919
548 915
548 668
548 718
548 720
548 803
548 857
548 927
548 821
549 622
549 636
549 696
549 665
549 740
549 768
549 779
549 624
549 818
549 967
550 678
550 807
550 611
550 952
550 650
550 894
550 870
550 821
550 796
550 905
550 636
550 974
550 751
551 627
551 784
551 564
551 941
551 814
551 695
551 865
551 610
551 762
551 607
551 975
551 647
552 642
552 860
552 970
552 565
552 957
552 592
552 726
552 867
552 742
552 621
552 755
552 631
552 766
552 763
552 553
552 698
553 807
553 655
553 635
553 616
553 824
553 956
553 975
553 730
553 849
553 608
553 698
553 753
553 842
553 892
553 930
553 949
553 686
553 734
554 673
554 787
554 625
554 562
554 639
554 683
554 711
554 749
554 813
554 979
554 654
555 641
555 710
555 902
555 652
555 936
555 715
555 942
555 987
555 900
556 644
556 678
556 807
556 758
556 952
556 643
556 650
556 986
556 870
556 894
556 981
556 718
556 682
556 790
556 852
556 727
556 884
556 827
556 961
557 587
557 685
557 900
557 782
557 920
557 750
557 630
557 951
557 649
557 832
557 786
557 781
557 903
557 696
557 859
558 620
558 652
558 936
558 579
558 953
559 596
559 863
559 845
559 657
559 586
559 985
559 563
559 991
559 703
559 826
559 765
559 619
559 980
559 994
559 922
559 623
559 760
559 658
559 608
559 776
559 567
559 831
559 868
559 579
560 964
560 691
560 682
560 753
560 949
560 779
560 665
560 567
560 740
560 842
560 981
560 925
560 741
560 818
560 859
561 851
561 776
561 664
561 911
561 588
561 842
561 795
561 594
561 960
561 579
561 607
561 675
561 681
561 715
561 774
561 809
561 892
561 975
562 679
562 639
562 876
562 937
562 979
562 775
562 813
562 687
562 841
562 741
562 816
562 958
562 673
562 783
562 801
562 965
562 969
562 704
562 935
562 850
562 893
562 993
562 722
562 585
562 767
562 951
562 860
562 724
562 711
562 780
562 825
562 757
562 657
562 865
562 671
562 817
562 892
562 733
563 720
563 756
563 945
563 995
563 635
563 970
563 973
563 977
563 586
563 863
563 980
563 994
564 914
564 784
564 839
564 781
564 865
564 591
564 721
564 988
564 723
564 760
564 762
564 852
564 671
565 919
565 838
565 869
565 881
565 904
565 614
565 728
565 604
565 588
565 708
565 719
565 996
565 622
565 879
565 954
565 930
565 975
566 669
566 655
566 945
566 601
566 875
566 784
566 871
566 987
567 587
567 603
567 768
567 779
567 818
567 859
567 625
567 578
567 967
568 749
568 997
568 615
568 689
568 928
568 872
568 686
568 707
568 668
568 603
568 692
568 734
568 790
569 735
569 919
569 736
569 572
569 651
569 574
569 588
569 732
569 803
569 675
569 681
569 753
569 795
569 842
569 846
569 892
570 611
570 590
570 665
570 689
570 880
570 656
570 685
570 714
570 987
571 826
571 835
571 607
571 681
571 708
571 715
571 809
571 888
571 603
571 858
572 803
572 691
572 772
572 751
572 663
572 604
572 983
572 713
572 819
573 577
573 867
573 636
573 751
573 691
573 762
573 839
573 918
573 800
573 863
573 695
573 926
573 935
573 930
573 974
574 986
574 646
574 848
574 588
574 702
574 911
574 722
574 617
574 975
574 635
574 978
574 607
574 618
574 667
574 675
574 753
574 842
574 930
574 949
574 950
574 689
574 790
575 726
575 980
575 995
575 835
575 601
575 932
575 842
575 971
575 708
575 848
575 846
575 888
575 969
575 715
575 722
575 821
575 697
575 607
575 675
575 681
575 698
575 753
575 809
575 930
575 975
575 877
576 927
576 964
576 868
576 608
576 911
576 898
576 853
576 631
576 583
576 723
576 618
576 987
577 620
577 712
577 735
577 641
577 607
577 675
577 892
577 818
578 914
578 820
578 680
578 788
578 607
578 842
578 641
578 794
578 958
578 603
578 689
578 734
578 790
579 674
579 589
579 710
579 836
579 863
579 806
579 994
579 596
579 597
579 934
579 916
579 923
579 846
579 586
579 623
579 765
579 985
579 715
579 774
579 649
579 662
580 711
580 867
580 860
580 993
580 947
580 747
580 844
580 585
580 598
580 621
580 755
580 766
580 921
580 942
580 951
581 584
581 735
581 981
581 781
581 959
581 591
581 865
582 990
582 827
582 938
582 978
582 599
583 775
583 895
583 882
583 767
583 811
583 873
583 626
583 955
583 627
583 717
583 931
583 705
583 923
583 610
583 596
583 595
583 625
583 636
583 654
583 710
583 821
583 862
583 884
583 751
583 597
583 935
584 814
584 676
584 914
584 694
584 705
584 737
584 874
584 632
584 759
584 810
584 800
584 934
584 829
584 660
584 938
584 923
584 927
584 658
584 876
584 882
584 714
584 624
584 668
584 718
584 720
584 803
584 857
584 919
584 929
584 618
584 734
585 947
585 957
585 742
585 867
585 976
585 993
585 642
585 587
585 998
585 631
585 866
585 883
585 826
585 726
585 621
585 755
585 766
586 657
586 980
586 765
586 815
586 670
586 703
586 619
586 623
586 991
586 826
586 845
586 635
586 788
586 597
586 883
586 806
586 596
586 633
586 863
586 994
586 922
586 970
586 966
586 985
586 625
586 797
586 907
586 636
586 792
586 842
586 803
586 609
586 934
586 642
586 993
586 725
586 722
586 879
586 995
586 926
586 708
586 949
587 643
587 642
587 867
587 998
587 621
587 755
587 631
587 766
587 655
587 926
588 939
588 956
588 949
588 776
588 859
588 912
588 607
588 715
588 753
588 809
588 888
588 930
588 950
588 779
589 805
589 955
589 746
589 821
589 763
589 640
589 625
589 627
589 882
589 786
589 915
589 862
589 794
589 990
589 785
589 884
589 887
589 767
589 811
589 771
589 895
589 599
589 917
589 975
589 925
589 695
589 907
589 604
589 671
589 698
589 617
589 595
589 636
589 654
589 710
589 850
589 920
590 830
590 945
590 772
590 831
590 934
590 751
590 753
590 900
591 639
591 863
591 784
591 959
591 840
591 988
591 865
591 606
591 839
591 628
591 710
591 633
591 663
591 872
591 990
591 743
591 827
591 601
591 624
591 610
591 700
592 644
592 976
592 957
592 631
592 947
592 908
592 797
592 726
592 993
592 621
592 755
592 766
592 863
592 817
592 618
592 961
593 803
593 879
593 644
593 807
593 981
593 609
593 757
594 644
594 650
594 952
594 987
594 674
594 736
594 609
594 619
594 690
594 877
595 923
595 952
595 611
595 884
595 646
595 850
595 882
595 771
595 638
595 786
595 811
595 600
595 746
595 717
595 763
595 626
595 852
595 915
595 895
595 794
595 921
595 887
595 946
595 797
595 955
595 752
595 821
595 645
595 640
595 864
595 972
595 635
595 914
595 957
595 614
595 738
595 916
595 734
595 891
595 758
595 605
595 870
595 968
595 999
595 764
595 926
595 654
595 655
595 710
595 965
596 749
596 830
596 904
596 981
596 906
596 815
596 980
596 994
597 679
597 775
597 870
597 635
597 985
597 742
597 887
597 633
597 863
597 980
597 994
597 995
597 954
597 965
598 957
598 976
598 726
598 998
598 993
598 621
598 867
598 860
598 642
598 766
598 861
598 971
598 683
598 848
598 755
598 631
598 882
598 883
598 995
598 784
599 982
599 719
599 631
599 766
599 823
599 824
599 827
599 812
599 978
599 843
599 828
599 601
599 941
599 663
599 779
599 644
599 634
599 889
599 840
600 921
600 811
600 785
600 915
600 895
600 763
600 701
600 777
600 844
600 710
600 717
600 887
600 945
600 655
600 884
600 821
600 797
600 794
600 627
600 602
600 723
600 666
600 979
600 702
600 890
600 739
600 732
600 636
600 646
600 850
600 613
601 759
601 785
601 682
601 823
601 824
601 827
601 978
601 941
601 843
601 812
601 828
601 741
601 990
601 725
601 842
601 930
601 975
601 692
602 914
602 666
602 915
602 710
602 946
602 646
602 955
602 645
602 655
602 771
602 821
602 797
602 636
602 852
602 931
602 777
602 717
602 865
602 806
602 804
602 737
602 898
602 739
602 742
602 861
602 654
602 884
602 863
602 926
602 603
603 713
603 842
603 930
603 975
603 707
603 647
603 997
603 686
603 690
603 692
603 896
603 706
603 815
603 882
603 655
603 905
603 994
603 772
603 912
603 813
603 689
604 699
604 674
604 772
604 691
604 834
604 784
604 637
604 757
604 994
604 690
605 825
605 716
605 728
605 820
605 842
605 688
605 690
605 967
605 859
605 740
606 653
606 772
606 657
606 923
606 895
606 880
606 610
606 835
606 827
607 753
607 849
607 664
607 932
607 681
607 715
607 949
607 612
607 698
607 969
607 702
607 861
607 708
607 675
607 659
607 892
607 971
607 956
607 842
607 722
607 730
607 618
607 930
607 701
607 882
607 676
607 906
607 740
607 888
607 630
608 639
608 878
608 651
608 644
608 868
608 620
608 807
608 867
608 681
609 699
609 643
609 650
609 807
609 952
609 678
609 981
609 758
609 628
609 855
609 631
609 636
609 772
609 765
609 776
609 846
610 865
610 628
610 988
610 721
610 959
610 916
610 840
610 839
610 695
610 961
610 751
610 923
610 770
610 740
611 643
611 807
611 986
611 748
612 735
612 711
612 884
612 851
612 899
612 793
612 653
612 792
612 727
612 863
612 667
612 675
612 681
612 892
612 950
612 975
612 696
613 919
613 757
613 648
613 989
613 899
613 935
613 615
613 685
613 616
613 713
613 732
613 817
613 835
613 753
613 949
614 958
614 833
614 716
614 728
614 756
614 996
614 881
614 780
614 968
614 687
614 915
614 795
614 909
614 622
614 879
615 809
615 697
615 689
615 642
615 847
615 870
615 690
615 734
615 790
615 997
616 958
616 981
616 713
616 657
616 917
616 648
616 817
616 835
616 851
616 926
616 823
617 745
617 715
617 971
617 675
617 619
617 887
617 754
617 729
617 753
617 842
617 888
617 930
617 975
618 829
618 927
618 745
618 888
618 953
618 667
618 719
618 675
618 715
618 842
618 930
618 689
618 706
618 629
619 673
619 703
619 863
619 635
619 883
619 788
619 991
619 657
619 767
619 951
619 652
619 623
619 815
619 994
619 995
619 827
620 737
620 868
620 830
620 641
620 960
620 964
620 712
620 878
620 817
620 972
620 774
620 837
620 699
620 677
620 953
620 731
620 788
620 753
621 947
621 957
621 726
621 993
621 867
621 766
621 755
621 860
621 976
621 631
621 998
621 870
621 719
621 899
621 843
621 842
621 730
621 659
621 981
621 675
621 668
622 857
622 789
622 904
622 719
622 996
622 728
622 833
622 760
622 876
622 707
622 866
622 879
622 986
622 823
622 832
623 803
623 674
623 998
623 845
623 806
623 703
623 985
623 994
623 966
623 995
623 944
623 908
623 804
623 689
623 815
623 980
623 675
624 660
624 939
624 829
624 874
624 927
624 940
624 962
624 934
624 676
624 837
624 912
624 668
624 810
624 803
624 720
624 929
624 744
624 814
624 669
624 634
624 857
624 705
624 919
624 923
624 658
624 735
624 914
624 694
624 800
624 759
624 739
624 757
624 755
624 870
624 925
624 636
624 738
624 630
624 754
624 955
624 751
625 946
625 638
625 845
625 714
625 804
625 842
625 636
625 654
625 723
625 763
625 811
625 850
625 824
625 779
626 811
626 814
626 735
626 636
626 710
626 862
626 882
627 777
627 799
627 636
627 811
627 946
627 977
627 970
627 689
627 649
628 735
628 903
628 863
628 784
628 695
628 781
628 840
628 907
628 753
629 807
629 957
629 636
629 713
629 715
629 987
629 920
629 696
629 733
629 761
629 796
629 702
629 724
629 925
629 630
630 857
630 687
630 654
630 882
630 884
630 817
630 733
630 951
630 890
630 819
630 649
630 750
630 696
630 747
630 870
630 720
630 712
630 631
630 814
630 933
631 735
631 711
631 878
631 822
631 726
631 867
631 755
631 891
631 860
631 742
631 947
631 865
631 800
631 766
631 824
631 809
632 857
632 669
632 938
632 735
632 668
632 803
632 705
632 716
632 779
632 995
632 718
632 739
632 754
632 837
632 874
632 914
632 919
632 927
632 734
633 712
633 957
633 994
633 783
633 857
633 873
633 928
633 815
633 863
634 660
634 810
634 718
634 919
634 739
634 923
634 737
634 705
634 667
634 977
634 947
634 668
634 720
634 754
634 803
634 857
634 874
634 771
634 884
634 843
635 827
635 911
635 687
635 815
635 863
635 980
635 985
635 994
635 995
635 734
635 750
636 644
636 640
636 797
636 786
636 862
636 820
636 767
636 666
636 821
636 638
636 717
636 701
636 646
636 844
636 645
636 946
636 655
636 752
636 882
636 955
636 887
636 723
636 864
636 721
636 872
636 951
636 650
636 894
636 749
636 987
636 984
636 710
636 763
636 811
636 850
636 884
636 994
637 884
637 835
637 665
638 755
638 882
638 877
638 782
638 646
638 654
638 655
638 710
638 862
638 884
638 946
638 842
639 720
639 683
639 838
639 982
639 958
639 741
639 749
639 775
639 736
639 801
639 687
639 917
639 789
639 937
639 876
639 711
639 673
639 943
639 700
639 921
639 980
639 951
639 750
639 903
639 786
639 946
639 751
639 753
639 809
639 975
639 987
640 990
640 854
640 873
640 852
640 855
640 654
640 655
640 820
640 882
640 884
640 875
640 961
641 868
641 866
641 712
641 942
641 958
641 678
641 953
641 794
641 817
641 818
642 964
642 807
642 957
642 742
642 928
642 886
642 726
642 755
642 766
642 774
643 644
643 952
643 758
643 807
643 757
643 870
643 918
643 923
643 877
643 936
644 903
644 952
644 894
644 758
644 986
644 735
644 720
644 650
644 757
644 946
644 691
644 774
645 756
645 666
645 654
645 805
645 710
645 895
645 813
645 661
645 735
645 847
645 646
645 821
645 706
646 822
646 655
646 931
646 852
646 786
646 990
646 797
646 864
646 882
646 767
646 717
646 946
646 710
646 777
646 915
646 874
646 919
646 700
646 935
646 978
646 654
646 763
646 811
646 821
646 765
646 863
646 734
646 685
647 771
647 845
647 675
647 706
647 734
647 790
647 997
648 671
648 926
648 899
648 661
648 925
648 901
648 851
648 965
648 847
648 677
648 732
648 791
648 989
648 861
648 753
648 755
648 680
648 953
648 928
648 932
648 792
648 651
648 713
648 817
648 835
649 942
649 935
649 675
649 774
649 900
649 973
649 761
649 696
649 819
649 899
649 798
649 683
649 835
649 782
649 920
649 747
650 894
650 743
650 760
650 952
650 985
650 974
650 807
650 981
650 986
650 757
650 896
651 857
651 942
651 954
651 762
651 918
651 705
651 868
651 817
651 835
651 851
651 901
651 965
651 992
652 862
652 942
652 902
652 833
652 969
652 927
652 895
652 804
652 835
652 851
652 665
652 859
653 816
653 711
653 801
653 673
653 841
653 876
653 906
653 757
653 912
653 878
653 782
654 811
654 882
654 785
654 844
654 854
654 931
654 723
654 887
654 852
654 864
654 699
654 892
654 939
654 860
654 948
654 964
654 655
654 710
654 734
655 912
655 923
655 844
655 771
655 864
655 945
655 797
655 785
655 746
655 664
655 745
655 756
655 683
655 710
655 723
655 821
655 992
655 984
656 901
656 729
656 908
656 875
656 704
656 685
656 714
656 871
656 680
656 863
656 971
656 858
656 987
657 919
657 821
657 836
657 845
657 765
657 998
657 788
657 863
657 994
657 713
657 885
658 874
658 814
658 668
658 933
658 660
658 676
658 718
658 720
658 735
658 754
658 803
658 810
658 857
658 919
658 927
658 787
658 678
658 992
659 921
659 681
659 715
659 932
659 897
659 828
659 923
659 806
659 759
659 667
659 675
659 753
659 809
659 888
659 892
659 930
659 949
660 940
660 668
660 909
660 718
660 735
660 754
660 829
660 837
660 857
660 912
660 919
660 711
660 859
661 669
661 939
661 904
661 925
661 731
661 748
661 709
661 835
661 901
661 926
661 935
661 992
661 698
661 798
661 808
662 781
662 762
662 779
662 696
662 807
662 953
662 665
662 967
663 919
663 785
663 772
663 928
663 691
663 815
663 975
663 747
664 668
664 744
664 801
664 886
664 751
664 670
664 926
664 681
664 715
664 795
664 809
664 892
664 930
664 949
665 720
665 710
665 863
665 848
665 892
665 690
665 997
665 889
665 764
665 788
665 847
665 827
665 818
666 744
666 811
666 938
666 710
666 763
666 882
666 884
667 886
667 725
667 888
667 892
667 745
667 971
667 950
667 768
667 788
667 985
667 675
667 681
667 753
667 949
667 975
667 747
668 759
668 800
668 739
668 962
668 744
668 814
668 669
668 919
668 927
668 720
668 737
668 923
668 705
668 699
668 676
668 735
668 914
668 934
668 837
668 940
668 694
668 874
668 810
668 855
668 943
668 909
668 757
668 791
668 797
668 718
668 803
668 857
668 912
668 725
668 817
668 692
669 754
669 720
669 829
669 705
669 874
669 803
669 857
669 919
669 752
670 810
670 869
670 976
670 775
670 914
670 851
670 765
670 815
670 826
670 863
670 980
670 994
670 750
671 946
671 713
671 989
671 784
671 767
671 762
671 769
671 799
671 835
671 901
671 992
672 811
672 910
672 772
672 856
672 762
672 879
672 748
672 751
672 684
673 838
673 825
673 741
673 817
673 711
673 736
673 801
673 742
673 691
673 827
674 720
674 679
674 789
674 711
674 813
674 816
674 687
674 917
674 979
674 683
674 937
674 800
674 915
674 808
674 781
674 859
674 741
674 749
674 783
674 801
674 886
674 998
674 710
675 803
675 786
675 817
675 983
675 722
675 730
675 969
675 949
675 793
675 795
675 753
675 846
675 963
675 729
675 956
675 842
675 932
675 776
675 930
675 809
675 848
675 975
675 888
675 849
675 702
675 897
675 866
675 787
675 782
675 767
675 836
675 687
675 881
675 950
675 733
675 967
676 800
676 699
676 810
676 962
676 927
676 855
676 923
676 939
676 829
676 803
676 934
676 929
676 919
676 914
676 814
676 735
676 705
676 754
676 985
676 924
676 886
676 898
676 718
676 857
676 882
676 896
676 685
677 833
677 762
677 835
677 997
678 856
678 807
678 981
678 821
679 683
679 711
679 892
679 916
679 886
679 715
680 767
680 910
680 936
680 683
680 942
680 930
680 885
680 696
681 755
681 865
681 812
681 798
681 975
681 849
681 950
681 698
681 932
681 730
681 930
681 892
681 708
681 911
681 842
681 774
681 809
681 715
681 969
681 767
681 918
681 997
681 694
681 789
681 756
681 816
681 745
681 753
681 888
682 812
682 843
682 941
682 827
682 795
683 718
683 982
683 787
683 952
683 913
683 707
683 711
683 783
683 882
683 985
683 827
684 813
684 944
684 989
684 689
684 690
684 790
684 997
685 718
685 829
685 749
685 880
685 885
685 987
685 961
685 875
685 704
685 908
685 950
685 692
685 798
685 975
685 733
685 820
685 740
685 796
686 763
686 884
686 734
686 944
686 934
686 742
686 690
686 706
686 790
686 974
686 967
687 979
687 886
687 958
687 937
687 775
687 876
687 841
687 917
687 903
687 708
687 890
687 773
687 913
687 714
687 711
687 801
687 825
687 756
687 698
687 689
687 871
688 712
688 854
688 753
688 707
688 997
688 706
688 920
688 773
688 801
688 945
688 790
689 974
689 692
689 697
689 690
689 792
689 896
689 734
689 928
689 832
689 764
689 944
689 924
689 913
689 824
689 758
689 693
689 895
689 768
689 720
689 997
690 881
690 697
690 913
690 944
690 707
690 764
690 792
690 858
690 832
690 896
690 921
690 879
690 865
690 904
690 968
690 895
690 827
690 972
690 706
690 790
690 997
690 770
691 884
691 856
691 772
691 948
691 751
691 934
691 733
691 753
692 850
692 815
692 918
692 949
692 706
692 734
692 790
692 875
692 714
693 719
693 763
693 873
693 935
693 795
693 809
693 842
693 892
693 930
693 949
693 975
694 737
694 829
694 803
694 857
694 919
695 894
695 784
695 839
695 865
695 917
695 711
695 871
696 754
696 980
696 900
696 796
696 747
696 951
696 890
696 761
696 733
696 819
696 782
696 734
696 799
696 784
697 936
697 851
697 933
697 734
697 790
697 997
697 714
698 829
698 892
698 949
698 774
698 953
698 798
698 715
698 964
698 711
698 738
698 745
698 753
698 842
698 930
698 975
699 739
699 962
699 718
699 720
699 735
699 837
699 857
699 874
699 914
699 919
699 778
699 899
699 913
700 919
700 825
700 976
700 867
700 945
700 930
700 900
700 768
700 779
700 818
700 967
700 859
700 740
701 794
701 852
701 763
701 820
701 882
701 751
701 765
701 888
702 803
702 878
702 840
702 820
702 770
702 708
702 729
702 753
702 842
702 892
702 949
703 983
703 901
703 863
703 980
703 985
703 994
703 995
704 930
704 949
704 885
704 987
704 973
705 914
705 918
705 935
705 767
705 718
705 754
705 857
705 874
705 919
705 927
705 994
705 725
705 778
705 950
705 871
706 912
706 723
706 799
706 858
706 928
706 832
706 944
706 924
706 974
706 734
706 707
706 896
706 872
706 901
706 981
706 862
706 737
706 756
706 838
706 790
706 890
707 835
707 847
707 992
707 892
707 926
707 790
707 997
707 859
708 957
708 945
708 730
708 897
708 798
708 753
708 846
708 963
708 888
708 795
708 774
708 715
708 712
708 941
708 959
708 830
708 785
708 780
708 721
708 709
708 842
708 930
708 975
709 766
709 933
709 992
709 838
709 781
709 835
709 851
709 901
709 926
709 935
709 965
710 979
710 881
710 717
710 794
710 805
710 850
710 887
710 811
710 931
710 955
710 763
710 785
710 873
710 797
710 786
710 821
710 990
710 746
710 915
710 862
710 771
710 820
710 777
710 864
710 844
710 921
710 906
710 907
710 761
710 928
710 751
710 888
710 819
710 845
710 889
710 857
710 991
710 787
710 882
710 863
710 802
711 874
711 979
711 789
711 958
711 787
711 917
711 876
711 937
711 968
711 801
711 816
711 780
711 864
711 877
711 749
711 886
712 814
712 868
712 833
712 758
712 873
712 884
713 914
713 741
713 778
713 804
713 935
713 898
713 762
713 769
713 791
713 884
713 877
713 996
713 796
713 817
713 835
713 851
713 926
713 992
713 782
714 997
714 875
714 802
714 893
714 773
714 987
714 799
714 737
714 854
714 939
714 807
714 828
714 897
715 986
715 949
715 971
715 956
715 930
715 975
715 950
715 724
715 886
715 829
715 903
715 891
715 981
715 729
715 809
715 842
715 888
715 892
716 718
716 999
716 881
716 824
716 719
716 996
716 879
716 756
717 749
717 853
717 786
717 802
717 958
717 723
717 821
717 884
717 790
718 927
718 857
718 912
718 735
718 938
718 800
718 803
718 934
718 919
718 739
718 759
718 754
718 744
718 810
718 829
718 814
718 923
718 940
718 874
718 939
718 855
718 720
718 837
718 929
718 737
718 743
718 960
718 884
718 853
718 992
718 828
718 821
718 909
718 787
718 832
719 822
719 833
719 869
719 996
719 999
719 881
719 728
719 789
719 879
719 842
720 800
720 754
720 934
720 923
720 810
720 855
720 914
720 795
720 947
720 888
720 868
720 768
720 999
720 735
720 744
720 837
720 857
720 919
720 789
721 957
721 936
721 772
721 784
721 836
721 901
721 779
722 748
722 745
722 753
722 888
722 892
722 975
723 807
723 786
723 884
723 864
723 915
723 785
723 921
723 895
723 955
723 844
723 794
723 752
723 945
723 805
723 862
723 857
723 799
723 933
723 760
723 813
723 968
723 914
723 982
724 923
724 905
724 835
724 851
724 901
724 965
724 782
724 951
725 813
725 799
725 778
725 901
725 899
725 847
725 762
725 835
725 935
725 846
725 974
725 984
726 976
726 742
726 766
726 755
726 957
726 891
726 998
726 926
726 756
726 973
726 872
726 821
726 851
727 947
727 957
727 867
727 755
727 978
728 927
728 996
728 879
728 865
728 795
728 885
729 837
729 946
729 806
729 969
729 911
729 953
729 873
729 842
729 888
729 930
729 975
730 857
730 912
730 833
730 807
730 851
730 830
730 961
730 793
730 809
730 888
730 892
730 930
730 949
730 975
731 914
731 853
731 868
731 878
731 814
731 751
731 757
732 992
732 884
732 968
732 931
732 835
732 901
732 827
733 757
733 900
733 747
733 973
733 951
733 819
733 761
733 920
733 783
733 867
733 795
734 850
734 980
734 918
734 984
734 858
734 974
734 896
734 872
734 924
734 913
734 761
734 789
734 744
734 818
734 929
734 941
734 793
734 800
734 790
734 997
735 737
735 962
735 912
735 800
735 739
735 829
735 857
735 759
735 837
735 887
735 943
735 750
735 882
735 818
735 754
735 919
735 886
736 886
736 877
736 872
736 788
736 851
737 922
737 814
737 857
737 912
737 919
737 927
737 879
737 863
738 903
738 998
738 965
738 880
738 885
738 987
739 803
739 929
739 891
739 857
739 912
739 919
739 927
740 789
740 894
740 959
740 967
740 859
740 818
740 907
740 768
740 945
740 811
740 874
740 825
740 773
740 864
740 761
741 813
741 914
741 772
741 749
741 825
741 886
742 957
742 766
742 997
743 841
743 807
743 758
743 894
743 988
743 832
744 816
744 930
744 754
744 912
744 919
744 917
744 920
745 963
745 953
745 829
745 942
745 985
745 785
745 753
745 774
745 892
745 930
745 949
745 975
745 790
746 924
746 763
746 850
746 882
746 839
746 935
747 946
747 900
747 890
747 951
747 920
747 761
747 753
747 935
748 772
748 948
748 905
748 834
748 880
748 863
748 987
749 886
749 780
749 876
749 979
749 813
749 968
749 816
749 838
749 825
749 937
749 804
749 785
749 950
749 846
749 875
749 753
749 997
750 772
750 762
750 823
750 900
750 773
750 890
751 754
751 772
751 948
751 856
751 905
751 831
751 843
751 791
752 805
752 884
752 946
753 965
753 932
753 892
753 930
753 846
753 776
753 953
753 956
753 774
753 971
753 949
753 795
753 911
753 975
753 842
753 848
753 768
753 858
753 967
753 783
753 915
753 869
754 919
754 914
754 940
754 810
754 927
754 800
754 939
754 934
754 929
754 984
754 847
754 866
754 921
754 769
754 992
754 893
754 857
754 874
754 879
754 834
754 995
755 886
755 957
755 947
755 993
755 998
755 867
755 976
755 766
755 771
755 863
755 796
755 961
755 970
755 837
755 980
756 904
756 833
756 996
756 879
756 822
756 965
756 896
757 807
757 894
757 952
757 758
757 986
757 814
757 783
757 882
758 807
758 981
758 992
759 810
759 849
759 816
759 857
759 919
759 873
760 807
760 986
761 820
761 769
761 900
761 782
761 920
762 899
762 783
762 822
762 820
762 835
762 851
762 901
762 992
762 764
763 876
763 921
763 777
763 873
763 931
763 844
763 821
763 864
763 794
763 825
763 982
763 874
763 899
763 937
763 905
763 867
763 839
763 981
763 884
763 965
763 793
764 807
764 910
764 997
765 806
765 966
765 994
765 847
765 815
765 980
765 995
766 993
766 976
766 998
766 891
766 947
766 957
766 867
766 860
766 826
766 809
766 918
766 863
766 793
767 825
767 821
767 882
768 834
768 835
768 888
768 967
768 810
768 909
769 800
769 946
769 835
769 924
770 981
770 994
770 908
770 885
770 987
771 882
771 910
772 936
772 942
772 831
772 905
772 834
772 856
772 909
772 917
772 811
772 868
773 803
773 987
774 969
774 798
774 775
774 892
774 930
774 949
775 874
775 849
775 956
775 795
776 827
776 809
776 888
776 892
776 930
776 949
776 975
776 900
777 967
777 946
778 801
778 954
778 870
778 872
778 817
778 851
778 926
779 857
779 863
779 951
779 907
779 859
779 922
779 816
779 867
779 956
779 967
780 982
780 816
780 995
780 893
780 935
780 825
780 886
781 855
781 910
781 839
781 784
781 995
781 897
781 803
781 823
781 959
781 865
781 941
782 985
782 851
782 900
782 951
782 819
782 920
782 954
782 840
782 932
783 958
783 943
783 890
783 999
783 789
783 801
783 979
784 884
784 936
784 901
784 825
784 904
784 890
784 988
784 865
784 835
784 851
785 895
785 821
785 848
785 905
785 854
785 882
786 842
786 820
786 946
787 968
787 872
787 813
787 841
787 790
787 896
788 886
788 811
788 815
788 863
788 980
788 995
788 901
789 816
789 886
789 825
789 847
789 990
790 857
790 944
790 918
790 832
790 928
790 913
790 924
790 823
790 912
790 835
790 866
790 855
790 848
790 818
791 835
791 901
791 926
791 935
791 965
791 992
792 917
792 982
792 842
793 937
793 820
793 904
793 842
793 888
793 930
793 949
793 950
793 818
794 960
794 811
794 862
794 863
794 974
795 985
795 969
795 892
795 953
795 861
795 888
795 999
795 931
795 887
795 930
795 949
795 975
795 890
796 900
796 920
796 951
796 884
796 927
796 967
797 811
797 820
797 884
797 946
798 813
798 935
798 878
798 847
798 892
798 930
798 975
798 997
799 835
799 851
799 926
799 992
799 974
800 810
800 857
800 912
800 914
800 919
800 927
800 939
800 949
801 838
801 982
801 937
801 917
801 841
801 883
801 844
801 813
801 979
801 959
801 865
801 885
802 888
802 946
802 885
802 987
802 900
803 939
803 934
803 914
803 857
803 874
803 893
803 974
803 919
803 952
803 935
804 987
804 851
804 901
804 926
804 935
804 992
804 888
805 946
805 862
805 977
805 924
805 820
805 821
805 990
805 926
806 886
806 960
806 991
806 836
806 955
806 888
806 815
806 863
806 994
806 995
807 986
807 981
807 894
807 834
807 821
807 882
807 809
808 809
809 971
809 849
809 861
809 911
809 848
809 892
809 842
809 870
809 893
809 949
809 975
809 859
810 837
810 829
810 962
810 923
810 818
810 925
810 857
810 919
810 840
810 848
811 923
811 844
811 931
811 990
811 915
811 885
811 973
811 821
811 850
811 884
811 946
812 931
812 828
812 823
812 975
813 916
813 937
813 843
814 939
814 938
814 934
814 912
814 906
814 876
814 878
814 837
814 857
814 914
814 919
814 862
814 975
815 866
815 826
815 883
815 922
815 966
815 991
815 994
815 836
815 980
815 867
815 911
815 965
815 990
815 831
815 845
815 863
815 995
816 909
816 892
816 979
817 933
817 965
817 898
817 925
817 983
817 906
817 847
817 999
817 878
817 835
817 901
817 926
817 935
817 992
817 842
817 975
818 992
818 889
818 909
818 907
818 912
818 845
818 859
819 835
819 920
819 855
820 882
820 844
820 935
820 884
820 945
820 908
821 841
821 915
821 895
821 864
821 884
821 921
821 862
821 952
821 913
821 856
821 964
821 901
822 881
822 869
822 875
822 833
822 996
822 879
822 823
822 892
823 946
823 926
823 828
823 827
823 840
824 941
824 843
824 828
824 890
825 841
825 937
825 982
825 916
825 829
825 950
825 882
825 903
825 832
826 857
826 919
826 879
826 922
826 933
826 921
826 983
826 951
826 915
826 863
826 994
826 995
826 901
826 969
827 831
827 843
827 978
827 828
827 928
828 990
828 941
829 938
829 912
829 962
829 914
829 929
829 943
829 857
829 874
829 919
829 997
829 987
830 878
830 866
830 964
830 853
830 868
830 976
831 844
831 834
831 974
832 862
832 955
832 997
832 909
833 866
833 879
833 881
833 989
833 940
833 996
833 987
834 861
835 992
835 925
835 851
835 983
835 933
835 899
835 906
835 989
835 847
835 972
835 954
835 901
835 926
835 898
835 965
835 890
835 958
835 961
835 874
835 991
835 941
835 988
835 935
836 884
836 863
836 994
836 995
836 978
837 838
837 857
837 912
837 919
838 839
838 851
838 920
838 859
839 842
840 959
840 865
840 935
840 880
841 979
841 946
842 874
842 886
842 848
842 956
842 911
842 861
842 975
842 971
842 928
842 996
842 982
842 892
842 930
843 884
843 846
844 884
845 970
845 984
845 899
845 863
845 985
845 995
846 861
846 897
846 888
846 892
846 930
847 965
847 989
847 925
847 906
847 992
847 851
847 935
848 861
848 946
848 888
848 892
848 949
848 975
849 892
849 975
850 990
850 873
850 946
850 876
850 961
851 925
851 992
851 899
851 935
851 926
851 972
851 965
851 918
851 928
851 901
851 892
851 975
852 884
852 967
853 868
853 964
853 878
853 866
853 870
853 940
854 972
854 916
855 857
855 919
855 993
856 873
857 940
857 914
857 927
857 938
857 874
857 919
857 923
857 962
857 934
857 912
857 939
857 929
857 878
857 972
857 890
857 951
857 953
857 900
858 948
858 914
859 909
859 877
859 898
859 986
859 994
860 957
860 868
860 991
860 993
860 946
860 978
861 930
861 949
861 909
862 882
862 946
862 895
862 884
862 899
862 894
862 918
862 945
863 919
863 939
863 970
863 966
863 922
863 980
863 985
863 883
863 879
863 994
863 995
864 979
865 867
865 959
865 916
865 971
865 973
865 967
866 960
866 901
867 982
867 952
867 957
867 947
867 998
867 937
867 882
868 878
868 964
868 960
868 934
868 996
868 987
868 920
869 996
869 879
870 981
870 986
870 975
871 958
871 930
871 875
871 987
871 890
872 950
873 884
873 921
874 939
874 912
874 919
875 885
875 961
875 987
876 886
877 901
877 898
878 964
879 980
879 942
880 987
880 885
880 961
881 999
881 969
881 915
882 887
882 921
882 902
882 941
882 930
882 901
883 994
884 931
884 915
884 955
884 990
884 895
884 919
884 913
885 994
885 961
885 893
885 987
886 903
886 968
886 917
886 925
886 943
886 987
887 946
888 976
888 956
888 953
888 915
888 989
888 995
888 975
890 995
890 920
890 978
891 996
891 895
891 935
892 937
892 932
892 975
892 969
892 956
892 963
892 930
892 971
892 905
892 948
892 952
892 894
892 921
892 949
892 950
893 987
894 986
894 957
895 946
895 980
896 901
896 997
897 964
897 926
897 950
897 975
898 926
898 992
899 980
899 901
899 909
899 992
900 901
900 974
900 951
900 973
900 963
901 933
901 926
901 935
901 906
901 925
901 911
901 942
901 992
902 919
902 955
902 910
902 936
902 942
902 941
902 961
903 926
903 973
904 937
904 976
905 948
906 945
906 926
907 930
908 926
908 961
908 987
909 954
909 972
909 967
910 912
910 936
910 981
910 942
911 930
912 940
912 939
912 960
912 988
912 914
912 919
912 927
913 995
914 923
914 938
914 927
914 985
914 919
915 945
915 985
916 959
918 997
919 939
919 923
919 940
919 927
919 934
919 925
920 960
920 948
921 962
921 930
922 994
922 995
923 962
923 979
923 945
923 978
924 980
925 937
925 935
925 965
926 935
926 992
926 933
926 954
926 927
926 978
927 986
927 982
929 948
929 988
930 932
930 949
930 956
930 950
930 975
931 946
931 994
932 949
933 945
933 995
933 935
935 981
935 980
935 983
935 965
935 976
935 937
936 942
936 977
936 943
937 993
940 955
941 978
941 987
944 997
945 999
945 990
945 985
946 955
946 983
946 961
947 976
947 949
948 959
949 975
949 953
949 956
949 959
950 971
950 963
950 956
952 992
953 965
954 992
955 964
956 975
957 976
957 999
957 998
961 994
961 987
963 975
964 977
965 992
966 985
966 995
967 989
967 991
968 979
969 975
970 994
970 995
974 997
976 998
976 994
976 995
980 995
980 985
980 994
981 987
983 995
984 996
985 994
989 992
991 994
991 995
994 995
995 997
996 999
