0 946
0 94
0 994
0 95
0 779
0 899
0 5
0 177
0 989
0 894
0 729
0 531
0 515
0 130
0 652
0 275
0 788
0 77
0 370
0 42
0 721
0 156
0 623
0 238
0 469
0 464
0 37
0 890
0 556
0 148
0 642
0 486
0 118
0 896
0 59
0 522
0 35
0 31
0 261
0 393
0 69
0 630
0 467
0 472
0 789
0 657
0 802
0 181
0 718
0 52
0 326
0 648
0 751
1 449
1 776
1 189
1 408
1 361
1 600
1 916
1 820
1 603
1 443
1 911
1 783
1 938
1 773
1 822
1 138
1 876
1 799
1 351
1 256
1 343
1 445
1 122
1 470
1 945
1 75
1 718
1 6
1 715
1 595
1 239
1 155
1 689
1 903
1 278
1 713
1 607
1 888
1 898
1 700
1 183
1 586
1 3
1 525
1 524
1 87
1 94
1 614
1 636
1 711
1 203
1 717
1 299
1 334
1 412
1 475
1 992
1 319
1 754
2 240
2 30
2 967
2 650
2 833
2 266
2 114
2 775
2 71
2 489
2 577
2 583
2 578
2 330
2 877
2 81
2 453
2 64
2 380
2 458
2 838
2 23
2 253
2 65
2 898
2 587
2 656
2 120
2 974
2 155
2 58
2 787
2 546
2 450
2 199
2 484
2 356
2 47
2 607
2 492
2 975
3 445
3 814
3 351
3 278
3 257
3 337
3 291
3 689
3 960
3 408
3 87
3 595
3 6
3 713
3 693
3 600
3 952
3 876
3 810
3 361
3 604
3 443
3 12
3 603
3 903
3 842
3 711
3 820
3 901
3 343
3 888
3 475
3 938
3 783
3 932
3 172
3 819
3 764
3 298
3 525
3 10
3 524
3 75
3 109
3 122
3 263
3 795
3 299
3 318
3 334
3 857
3 404
3 289
3 562
3 765
3 5
4 128
4 416
4 507
4 637
4 683
4 998
4 618
4 591
4 457
4 565
4 925
4 561
4 347
4 631
4 435
4 47
4 446
4 723
4 725
4 285
4 365
4 802
4 625
4 527
4 510
4 864
4 795
4 893
4 813
4 449
4 193
4 720
4 208
4 83
4 503
4 557
4 708
5 919
5 779
5 370
5 788
5 890
5 115
5 77
5 556
5 653
5 989
5 145
5 522
5 35
5 52
5 59
5 326
5 590
5 623
5 118
5 642
5 899
5 648
5 393
5 472
5 729
5 751
6 656
6 423
6 695
6 116
6 405
6 773
6 715
6 857
6 445
6 789
6 12
6 10
6 524
6 595
6 87
6 600
6 94
6 607
6 614
6 109
6 636
6 689
6 713
6 203
6 718
6 733
6 257
6 291
6 817
6 318
6 842
6 334
6 337
6 349
6 888
6 404
6 475
6 992
7 802
7 473
7 505
7 264
7 526
7 17
7 968
7 249
7 971
7 277
7 746
7 612
7 521
7 748
7 660
7 535
7 970
7 594
7 89
7 228
7 622
8 330
8 510
8 530
8 29
8 92
8 409
8 736
8 105
8 994
8 977
8 663
8 767
8 19
8 991
8 44
8 16
8 101
8 132
8 681
8 705
8 209
8 259
8 772
8 286
8 368
8 399
8 914
8 919
8 926
8 415
8 985
8 997
8 556
9 392
9 833
9 385
9 136
9 195
9 864
9 466
9 395
9 247
9 58
9 45
9 716
9 978
9 338
9 859
10 538
10 525
10 496
10 878
10 872
10 75
10 263
10 433
10 475
10 203
10 778
10 822
10 810
10 217
10 903
10 412
10 12
10 715
10 834
10 768
10 831
10 257
10 643
10 938
10 888
10 960
10 717
10 695
10 315
10 445
10 493
10 407
10 889
10 595
10 87
10 607
10 629
10 636
10 689
10 718
10 733
10 817
10 318
10 842
10 857
10 349
10 351
10 901
10 992
10 62
11 518
11 780
11 460
11 793
11 528
11 579
11 421
11 107
11 44
11 879
11 39
11 931
11 325
11 190
11 735
11 819
11 836
11 112
11 817
11 15
11 140
11 402
11 922
11 159
11 801
11 807
11 424
11 430
11 436
11 574
11 455
11 211
11 624
11 762
11 639
11 18
12 311
12 831
12 525
12 888
12 945
12 857
12 799
12 952
12 718
12 257
12 318
12 405
12 717
12 116
12 122
12 878
12 693
12 361
12 351
12 636
12 263
12 433
12 892
12 776
12 643
12 217
12 443
12 87
12 713
12 109
12 524
12 901
12 885
12 916
12 75
12 97
12 603
12 496
12 94
12 600
12 876
12 291
12 711
12 315
12 810
12 445
12 814
12 842
12 768
12 203
12 614
12 155
12 733
12 795
12 822
12 911
12 906
12 817
12 903
12 960
12 176
12 918
12 783
12 992
12 627
12 439
12 292
12 407
12 476
12 132
12 159
12 928
12 595
12 607
12 689
12 334
12 349
12 404
12 412
12 475
12 133
13 655
13 456
13 984
13 821
13 119
13 646
13 488
13 184
13 791
13 895
13 58
13 41
13 74
13 796
13 905
13 377
13 958
13 555
13 937
13 837
13 220
13 24
13 390
13 849
13 134
13 481
13 397
13 327
13 668
13 376
13 514
13 389
13 248
13 217
13 659
13 243
13 423
13 27
13 143
13 676
13 685
13 714
13 738
13 745
13 753
13 806
13 298
13 823
13 851
13 396
13 886
13 444
13 957
13 710
13 487
14 114
14 892
14 987
14 183
14 498
14 133
14 36
14 669
14 243
14 747
14 410
14 665
14 454
14 969
14 972
14 835
14 907
14 296
14 22
14 800
14 870
14 162
14 644
14 62
14 251
14 675
14 953
14 827
14 790
14 843
14 789
14 782
14 274
14 759
14 151
14 863
14 731
14 673
14 912
14 378
14 439
14 144
14 441
14 682
14 495
14 323
14 674
14 373
14 710
14 508
14 976
14 975
14 345
14 581
14 620
14 150
14 224
14 840
14 734
14 703
14 751
14 354
14 291
14 164
14 603
14 565
14 575
14 766
14 305
14 884
14 427
14 949
14 980
14 511
15 777
15 190
15 948
15 107
15 661
15 242
15 28
15 538
15 44
15 436
15 528
15 159
15 369
15 651
15 90
15 756
15 805
15 574
15 627
15 762
15 819
15 353
15 269
15 959
15 893
15 381
15 881
15 639
15 563
15 455
15 281
15 430
15 931
15 801
15 946
15 287
15 479
15 780
15 313
15 402
15 649
15 836
15 581
15 124
15 53
15 731
15 870
15 140
15 424
15 815
15 460
15 211
15 602
15 735
15 225
15 624
16 50
16 585
16 700
16 438
16 329
16 664
16 977
16 537
16 772
16 19
16 101
16 554
16 943
16 359
16 708
16 132
16 634
16 869
16 255
16 165
16 743
16 852
16 719
16 681
16 770
16 180
16 705
16 232
16 288
16 282
16 386
16 841
16 809
16 286
16 963
16 252
16 701
16 767
16 736
16 272
16 936
16 991
16 104
16 942
16 411
16 197
16 498
16 454
16 129
16 105
16 233
16 259
16 368
16 399
16 914
16 919
16 926
16 415
16 956
16 994
17 155
17 809
17 951
17 706
17 792
17 374
17 613
17 465
17 933
17 798
17 235
17 249
17 968
17 190
17 275
17 548
17 93
17 622
18 271
18 401
18 571
18 727
18 610
18 61
18 615
18 605
18 398
18 26
18 84
18 348
18 85
18 568
18 758
18 108
18 403
18 688
18 123
18 929
18 858
18 889
18 663
18 143
18 566
18 988
18 375
18 510
18 318
19 149
19 809
19 921
19 33
19 367
19 415
19 770
19 977
19 719
19 914
19 409
19 333
19 288
19 681
19 743
19 785
19 262
19 666
19 554
19 233
19 505
19 956
19 873
19 963
19 282
19 438
19 736
19 634
19 539
19 985
19 267
19 165
19 663
19 708
19 272
19 772
19 43
19 390
19 814
19 551
19 537
19 105
19 132
19 252
19 255
19 286
19 368
19 399
19 919
19 926
19 936
19 994
20 762
20 704
20 318
20 131
20 900
20 598
20 493
20 200
20 172
20 975
20 533
20 414
20 698
20 197
20 198
20 459
20 597
20 216
20 880
20 101
21 54
21 967
21 525
21 412
21 897
21 142
21 786
21 147
21 915
21 633
21 609
21 928
21 230
21 364
21 389
21 670
21 53
21 569
21 222
21 628
21 662
21 80
22 824
22 368
22 919
22 151
22 669
22 706
22 972
22 843
22 378
22 969
22 632
22 734
22 953
22 36
22 511
22 323
22 498
22 441
22 644
22 790
22 710
22 800
22 747
22 273
22 292
22 57
22 322
22 863
22 495
22 771
22 345
22 782
22 427
22 868
22 794
22 224
22 296
22 840
22 305
22 682
22 243
22 439
22 975
22 373
22 62
22 731
22 709
22 884
22 387
22 657
22 237
22 186
22 133
22 684
22 251
22 674
22 162
22 726
22 454
22 907
22 832
22 274
22 912
22 144
22 766
22 835
22 675
22 980
22 976
22 384
22 379
22 740
22 620
22 388
22 575
22 508
22 581
22 949
22 254
22 150
22 665
22 645
22 789
22 961
22 429
22 355
22 67
22 80
22 807
22 480
22 916
22 219
23 396
23 517
23 656
23 898
23 71
23 577
23 587
23 114
23 752
23 546
23 838
23 251
23 168
23 578
23 967
23 583
23 606
23 833
23 240
23 120
23 289
23 294
23 886
23 930
24 304
24 714
24 179
24 488
24 541
24 923
24 362
24 692
24 904
24 791
24 905
24 241
24 377
24 41
24 298
24 134
24 939
24 934
24 862
24 132
24 461
24 27
24 54
24 58
24 74
24 121
24 646
24 143
24 668
24 685
24 704
24 753
24 248
24 821
24 847
24 851
24 392
24 396
24 419
24 425
24 481
24 850
24 441
24 601
24 417
25 60
25 110
25 950
25 608
25 302
25 300
25 502
25 135
25 957
25 951
25 748
25 687
25 451
25 482
25 205
25 677
25 940
25 898
25 163
25 564
25 183
25 319
25 342
25 221
25 244
25 966
26 398
26 271
26 401
26 61
26 403
26 571
26 566
26 619
26 85
26 615
26 84
26 761
26 532
26 512
26 744
26 375
26 940
26 478
26 727
26 549
26 108
26 124
26 840
26 498
26 662
26 929
26 688
26 983
26 730
26 610
26 382
26 524
26 144
26 441
27 514
27 937
27 220
27 692
27 298
27 74
27 456
27 658
27 121
27 392
27 862
27 905
27 396
27 749
27 739
27 389
27 425
27 555
27 501
27 362
27 825
27 745
27 958
27 78
27 786
27 72
27 541
27 41
27 54
27 58
27 102
27 134
27 655
27 668
27 676
27 685
27 179
27 753
27 248
27 821
27 851
27 920
27 419
27 481
27 675
27 771
27 324
28 777
28 649
28 269
28 140
28 463
28 756
28 325
28 805
28 211
28 959
28 430
28 538
28 424
28 479
28 369
28 801
28 627
28 460
28 735
28 836
28 780
28 819
28 807
28 815
28 881
28 639
28 313
28 922
28 402
28 518
28 602
28 893
28 44
28 421
28 946
28 39
28 281
28 287
28 661
28 436
28 528
28 381
28 90
28 103
28 290
28 190
28 563
28 353
28 283
28 225
28 879
28 579
28 793
28 762
28 355
28 574
28 455
28 193
28 804
28 691
28 347
28 390
28 212
28 340
28 68
28 107
28 624
28 555
28 94
29 842
29 406
29 536
29 824
29 621
29 170
29 289
29 55
29 599
29 902
29 236
29 567
29 166
29 215
29 667
29 422
29 573
29 530
29 812
29 576
29 391
29 657
29 542
29 927
29 418
29 34
29 294
29 690
29 188
29 448
29 66
29 589
29 96
29 995
29 106
29 372
29 127
29 260
29 341
30 656
30 577
30 606
30 587
30 266
30 752
30 100
30 839
30 330
30 484
30 240
30 132
30 702
30 580
30 967
30 583
30 458
30 356
30 114
30 120
30 827
31 958
31 372
31 399
31 346
31 261
31 522
31 275
31 531
31 648
31 556
31 640
31 37
31 52
31 69
31 326
31 77
31 590
31 623
31 115
31 630
31 118
31 130
31 899
31 393
31 652
31 156
32 134
32 481
32 120
32 160
32 964
32 996
32 129
32 161
32 553
32 73
32 803
32 547
32 40
32 558
32 961
32 584
32 588
32 845
32 358
32 725
32 900
32 987
33 784
33 956
33 785
33 994
33 132
33 719
33 415
33 386
33 259
33 705
33 73
33 767
33 255
33 359
33 105
33 180
33 852
33 663
33 668
33 965
33 67
33 681
33 708
33 209
33 233
33 368
33 919
33 936
33 985
33 734
34 519
34 265
34 406
34 154
34 927
34 289
34 418
34 55
34 96
34 542
34 995
34 638
34 328
34 576
34 391
34 170
34 422
34 573
34 886
34 760
34 107
34 470
34 550
34 690
34 310
34 567
34 188
34 589
34 599
34 987
34 621
34 106
35 240
35 618
35 261
35 522
35 275
35 37
35 788
35 118
35 469
35 59
35 486
35 630
35 642
35 899
35 115
35 890
35 623
35 107
35 444
35 556
35 326
35 77
35 894
35 648
35 156
35 177
35 751
36 71
36 201
36 379
36 495
36 273
36 884
36 969
36 665
36 980
36 384
36 645
36 388
36 682
36 323
36 410
36 254
36 296
36 162
36 674
36 912
36 224
36 759
36 827
36 274
36 782
36 840
36 731
36 740
36 726
36 305
36 620
36 975
36 511
36 706
36 57
36 581
36 151
36 843
36 972
36 322
36 237
36 835
36 439
36 498
36 461
36 516
36 66
36 924
36 918
36 62
36 632
36 644
36 133
36 144
36 675
36 710
36 734
36 243
36 766
36 790
36 345
36 863
36 427
36 441
37 614
37 885
37 599
37 261
37 522
37 779
37 531
37 788
37 623
37 556
37 393
37 130
37 238
37 525
37 683
37 115
37 630
37 118
37 648
37 653
37 177
38 602
38 568
38 126
38 164
38 428
38 947
38 324
38 468
38 461
38 309
38 941
38 417
38 407
38 582
38 227
38 678
38 223
38 640
38 543
38 611
38 559
38 586
38 601
38 137
38 696
38 755
38 763
38 260
38 346
38 882
38 930
38 935
38 997
39 651
39 140
39 402
39 793
39 805
39 807
39 424
39 313
39 479
39 463
39 455
39 815
39 661
39 794
39 962
39 430
39 436
39 579
39 460
39 211
39 225
39 107
39 624
39 381
39 817
39 992
39 198
39 539
40 924
40 413
40 803
40 157
40 483
40 335
40 117
40 848
40 757
40 504
40 547
40 78
40 584
40 311
40 845
40 51
40 558
40 961
40 476
40 139
40 160
40 229
40 804
40 491
40 553
40 358
40 588
40 129
40 999
40 98
40 336
40 161
40 964
40 178
40 544
40 309
40 681
40 771
40 947
40 996
40 994
40 341
41 541
41 904
41 937
41 58
41 196
41 984
41 220
41 958
41 905
41 102
41 714
41 769
41 143
41 301
41 501
41 308
41 685
41 796
41 54
41 753
41 692
41 327
41 821
41 655
41 862
41 121
41 806
41 258
41 981
41 376
41 456
41 119
41 241
41 397
41 939
41 425
41 362
41 745
41 488
41 738
41 481
41 147
41 176
41 429
41 219
41 83
41 74
41 646
41 134
41 676
41 749
41 248
41 298
41 825
41 392
41 396
41 419
41 757
41 975
42 314
42 261
42 522
42 989
42 59
42 130
42 531
42 472
42 894
42 788
42 905
42 556
42 326
42 623
42 630
42 118
42 890
42 899
42 648
42 177
42 729
42 751
43 543
43 600
43 334
43 131
43 533
43 414
43 698
43 597
43 246
43 534
43 200
43 569
43 46
43 317
43 459
43 598
43 216
43 493
43 880
44 649
44 780
44 528
44 140
44 793
44 538
44 281
44 801
44 807
44 762
44 563
44 290
44 879
44 68
44 805
44 627
44 818
44 670
44 579
44 455
44 460
44 211
44 602
44 107
44 624
44 381
44 639
44 116
44 708
45 803
45 385
45 516
45 136
45 781
45 659
45 861
45 338
45 218
45 247
45 954
45 853
45 320
45 962
45 341
45 859
45 219
45 864
45 466
45 321
45 497
45 80
45 226
45 966
45 245
45 855
45 716
45 210
45 635
45 911
45 407
45 974
45 978
45 474
46 689
46 647
46 533
46 295
46 698
46 616
46 131
46 216
46 593
46 197
46 317
46 172
46 570
46 246
46 459
46 900
46 699
46 111
46 202
46 458
46 735
46 743
46 816
46 597
46 88
46 880
46 300
47 801
47 128
47 285
47 416
47 683
47 171
47 813
47 303
47 625
47 725
47 680
47 687
47 435
47 457
47 591
47 720
47 208
47 723
47 998
47 618
47 631
47 291
47 209
47 985
48 689
48 897
48 641
48 142
48 913
48 280
48 670
48 928
48 279
48 741
48 222
48 78
48 50
48 53
48 829
48 609
48 230
48 835
49 318
49 372
49 818
49 554
49 728
49 942
49 835
49 884
49 535
49 792
49 249
49 264
49 72
49 228
49 753
49 500
49 612
49 613
49 374
49 250
50 513
50 641
50 913
50 280
50 670
50 928
50 91
50 897
50 364
50 383
50 609
50 741
50 354
50 147
50 633
50 142
50 786
50 596
50 628
50 222
50 270
50 213
50 53
50 569
50 829
50 207
50 997
50 859
50 635
51 807
51 129
51 139
51 924
51 413
51 804
51 547
51 161
51 996
51 588
51 544
51 476
51 336
51 368
51 57
51 311
51 961
51 584
51 845
51 335
51 483
51 229
51 757
52 813
52 675
52 522
52 556
52 751
52 472
52 59
52 899
52 729
52 69
52 148
52 322
52 878
52 326
52 623
52 630
52 118
52 890
52 896
52 393
52 652
52 177
53 460
53 547
53 820
53 513
53 641
53 147
53 279
53 928
53 633
53 897
53 280
53 913
53 354
53 670
53 829
53 222
53 91
53 142
53 741
53 596
53 230
53 628
53 383
53 609
53 890
53 955
53 381
53 207
53 709
53 863
54 541
54 555
54 685
54 905
54 837
54 241
54 920
54 823
54 749
54 102
54 425
54 851
54 134
54 704
54 143
54 304
54 74
54 376
54 437
54 862
54 481
54 739
54 745
54 821
54 377
54 58
54 937
54 119
54 488
54 934
54 797
54 895
54 984
54 327
54 220
54 452
54 184
54 904
54 501
54 362
54 923
54 769
54 390
54 692
54 849
54 389
54 456
54 360
54 646
54 847
54 419
54 668
54 806
54 297
54 396
54 676
54 514
54 248
54 714
54 825
54 397
54 738
54 308
54 298
54 258
54 250
54 399
54 748
54 834
54 659
54 986
54 121
54 753
54 392
54 566
54 59
55 269
55 536
55 289
55 418
55 294
55 166
55 690
55 567
55 824
55 314
55 982
55 830
55 316
55 576
55 856
55 760
55 127
55 312
55 66
55 154
55 530
55 886
55 175
55 188
55 902
55 391
55 867
55 550
55 667
55 363
55 328
55 152
55 621
55 599
55 585
55 231
55 448
55 236
55 993
55 276
55 271
55 161
55 505
55 184
55 213
55 589
55 987
55 96
55 995
55 638
55 949
55 260
55 732
56 583
56 291
56 289
56 734
56 511
56 559
56 562
56 930
56 494
56 158
56 947
56 417
56 882
56 432
56 173
56 461
56 378
56 865
56 586
56 654
56 696
56 223
56 754
56 755
56 763
56 774
56 270
56 306
56 324
56 346
56 935
56 997
57 311
57 382
57 446
57 213
57 441
57 976
57 759
57 766
57 305
57 169
57 988
57 575
57 133
57 144
57 669
57 674
57 675
57 186
57 706
57 710
57 734
57 782
57 835
57 323
57 863
57 884
57 378
57 427
57 949
57 454
57 975
57 980
57 511
58 555
58 738
58 220
58 749
58 327
58 862
58 791
58 797
58 658
58 196
58 419
58 514
58 74
58 179
58 392
58 397
58 655
58 920
58 753
58 390
58 258
58 806
58 376
58 851
58 360
58 904
58 714
58 301
58 297
58 248
58 923
58 456
58 676
58 692
58 796
58 437
58 362
58 704
58 837
58 668
58 745
58 984
58 981
58 541
58 425
58 389
58 452
58 769
58 481
58 934
58 308
58 646
58 821
58 958
58 377
58 184
58 825
58 685
58 102
58 241
58 121
58 298
58 304
58 847
58 849
58 169
58 134
58 937
58 739
58 488
58 396
58 905
58 977
58 523
58 61
58 900
58 961
58 660
58 491
58 673
58 705
58 143
58 823
59 182
59 163
59 675
59 515
59 522
59 779
59 486
59 275
59 326
59 623
59 118
59 896
59 642
59 648
59 177
59 751
60 538
60 64
60 484
60 662
60 163
60 434
60 950
60 183
60 187
60 300
60 865
60 451
60 319
60 899
60 79
60 221
60 244
61 512
61 401
61 149
61 929
61 940
61 688
61 566
61 568
61 425
61 983
61 610
61 619
61 758
61 375
61 123
61 643
61 717
61 447
61 137
62 457
62 657
62 835
62 378
62 673
62 373
62 794
62 427
62 201
62 907
62 972
62 671
62 388
62 740
62 144
62 441
62 379
62 731
62 747
62 863
62 632
62 976
62 645
62 237
62 912
62 575
62 162
62 508
62 251
62 884
62 759
62 254
62 498
62 620
62 800
62 243
62 410
62 274
62 323
62 682
62 870
62 644
62 832
62 296
62 789
62 387
62 969
62 734
62 975
62 840
62 345
62 454
62 511
62 675
62 868
62 827
62 726
62 439
62 953
62 151
62 771
62 273
62 384
62 224
62 674
62 581
62 150
62 186
62 669
62 305
62 665
62 790
62 710
62 766
62 843
62 213
62 949
62 709
62 973
62 100
62 824
62 888
62 781
62 778
62 882
62 538
62 706
63 520
63 523
63 400
63 153
63 411
63 557
63 818
63 442
63 860
63 477
63 344
63 844
63 86
63 462
63 350
63 974
63 909
63 973
63 737
63 617
63 332
63 669
63 99
63 676
63 192
63 874
63 366
64 898
64 775
64 266
64 656
64 484
64 587
64 199
64 546
64 356
64 240
64 580
64 65
64 702
64 458
64 450
64 227
64 967
64 583
64 71
64 839
64 330
64 833
64 695
64 373
65 225
65 646
65 301
65 656
65 546
65 580
65 967
65 71
65 838
65 330
65 606
65 833
65 356
65 877
65 240
65 120
65 82
66 455
66 698
66 902
66 530
66 536
66 154
66 927
66 289
66 418
66 550
66 294
66 690
66 316
66 188
66 448
66 621
66 830
66 372
66 995
66 651
66 443
66 336
66 599
66 96
66 867
66 106
66 886
66 127
66 451
67 578
67 483
67 539
67 554
67 333
67 994
67 681
67 399
67 288
67 634
67 919
67 770
67 471
67 977
67 985
67 914
67 368
67 259
67 537
67 582
67 730
67 778
67 104
67 105
67 132
67 719
67 255
67 772
67 286
67 809
67 921
67 926
68 649
68 269
68 140
68 402
68 922
68 281
68 805
68 424
68 946
68 563
68 436
68 287
68 455
68 893
68 879
68 777
68 225
68 355
68 190
68 460
68 353
68 639
68 463
68 90
68 807
68 756
68 661
68 518
68 624
68 538
68 325
68 651
68 959
68 528
68 430
68 421
68 283
68 941
68 595
68 152
68 367
68 211
68 107
68 762
68 286
69 667
69 221
69 261
69 522
69 779
69 556
69 148
69 77
69 238
69 115
69 464
69 355
69 623
69 630
69 118
69 894
69 648
69 145
69 177
70 455
70 559
70 560
70 212
70 808
70 930
70 707
70 137
70 562
70 910
70 965
70 750
70 417
70 494
70 871
70 601
70 986
70 268
70 706
70 325
70 586
70 755
70 763
70 270
70 309
70 882
70 935
70 219
71 656
71 702
71 967
71 583
71 199
71 898
71 120
71 752
71 587
71 580
71 787
71 450
71 489
71 100
71 458
71 517
71 578
71 240
71 529
71 608
71 330
71 833
71 877
71 631
71 733
71 400
71 329
71 498
72 360
72 294
72 368
72 890
72 264
72 792
72 798
72 933
72 204
72 854
72 89
72 530
72 465
72 732
72 235
72 622
73 159
73 325
73 537
73 101
73 770
73 914
73 539
73 841
73 963
73 985
73 105
73 869
73 664
73 866
73 633
73 180
73 701
73 719
73 232
73 252
73 267
73 286
73 809
73 329
73 368
73 415
73 994
73 490
73 611
74 452
74 655
74 179
74 685
74 220
74 821
74 121
74 493
74 119
74 646
74 134
74 196
74 753
74 248
74 823
74 851
74 862
74 396
74 419
74 425
74 481
75 318
75 470
75 776
75 315
75 217
75 496
75 866
75 778
75 239
75 817
75 938
75 189
75 722
75 343
75 773
75 733
75 820
75 799
75 176
75 945
75 256
75 814
75 203
75 263
75 405
75 892
75 857
75 291
75 918
75 87
75 842
75 138
75 337
75 834
75 695
75 715
75 711
75 351
75 278
75 831
75 445
75 349
75 155
75 404
75 689
75 932
75 960
75 361
75 109
75 888
75 600
75 693
75 629
75 122
75 822
75 878
75 433
75 525
75 992
75 116
75 604
75 906
75 279
75 804
75 402
75 512
75 784
75 637
75 757
75 259
75 595
75 603
75 636
75 643
75 713
75 717
75 299
75 412
75 475
76 304
76 520
76 557
76 818
76 442
76 955
76 350
76 523
76 447
76 477
76 499
76 411
76 344
76 737
76 182
76 153
76 194
76 444
76 850
76 366
76 844
76 973
76 974
76 874
76 665
76 112
76 140
77 852
77 454
77 930
77 515
77 779
77 556
77 648
77 899
77 653
77 652
77 275
77 751
77 148
77 467
77 130
77 261
77 729
77 177
77 368
77 451
77 596
77 623
77 630
77 118
77 894
78 140
78 735
78 139
78 160
78 544
78 803
78 547
78 161
78 178
78 961
78 845
78 996
78 358
78 757
78 936
78 556
79 436
79 574
79 626
79 289
79 135
79 662
79 163
79 687
79 434
79 564
79 951
79 694
79 319
79 846
79 957
79 429
79 426
79 288
79 477
79 82
79 342
79 221
79 865
79 482
79 648
80 850
80 104
80 385
80 136
80 781
80 659
80 954
80 966
80 331
80 716
80 859
80 218
80 978
80 341
80 474
80 487
80 875
81 517
81 650
81 656
81 967
81 583
81 330
81 752
81 266
81 100
81 199
81 484
81 144
81 833
81 356
81 114
81 120
81 964
81 607
81 257
81 935
82 851
82 609
82 153
82 662
82 163
82 687
82 434
82 957
82 319
82 135
82 221
82 950
82 110
82 492
82 267
82 342
82 865
82 482
82 244
82 474
83 756
83 128
83 543
83 683
83 813
83 686
83 691
83 435
83 193
83 457
83 720
83 208
83 723
83 506
83 303
83 416
83 527
83 440
83 112
83 565
83 171
83 446
83 285
83 113
83 625
83 883
83 365
83 742
83 998
83 507
83 503
83 449
83 925
83 637
83 591
83 680
83 631
83 618
83 561
83 595
83 573
83 900
83 494
83 901
83 510
83 636
83 707
84 390
84 398
84 271
84 401
84 403
84 532
84 149
84 929
84 688
84 568
84 85
84 610
84 124
84 629
84 802
84 983
84 478
84 108
84 375
84 123
84 382
85 821
85 512
85 401
85 549
85 688
85 568
85 403
85 727
85 478
85 983
85 398
85 566
85 279
85 145
85 988
85 619
85 758
85 375
85 706
85 201
86 211
86 520
86 523
86 909
86 153
86 557
86 182
86 442
86 444
86 974
86 850
86 844
86 194
86 538
86 248
86 473
86 990
86 499
86 500
86 244
86 863
87 225
87 525
87 524
87 595
87 718
87 603
87 722
87 315
87 334
87 94
87 820
87 475
87 857
87 423
87 783
87 109
87 176
87 778
87 814
87 496
87 318
87 799
87 445
87 695
87 256
87 291
87 607
87 643
87 817
87 866
87 713
87 299
87 878
87 717
87 405
87 834
87 711
87 361
87 263
87 938
87 733
87 888
87 97
87 629
87 614
87 822
87 278
87 351
87 602
87 540
87 919
87 252
87 800
87 139
87 600
87 116
87 636
87 689
87 715
87 203
87 257
87 795
87 842
87 349
87 892
87 404
87 412
87 992
87 166
87 644
87 324
88 940
88 892
88 533
88 295
88 698
88 202
88 459
88 597
88 598
88 216
88 616
88 246
88 880
88 679
88 198
88 534
88 317
88 340
88 414
88 900
88 355
88 782
88 441
88 894
89 912
89 264
89 792
89 307
89 204
89 228
89 235
89 535
89 548
89 971
89 660
89 352
89 968
89 854
89 613
89 715
89 595
89 622
90 777
90 649
90 528
90 793
90 538
90 283
90 281
90 801
90 290
90 424
90 946
90 460
90 211
90 242
90 563
90 881
90 140
90 639
90 421
90 518
90 922
90 287
90 430
90 156
90 706
90 735
90 225
90 879
90 624
90 753
90 857
91 330
91 641
91 913
91 786
91 280
91 670
91 829
91 354
91 383
91 222
91 207
91 596
91 569
91 364
91 633
91 513
91 219
91 951
91 609
91 230
92 537
92 539
92 101
92 505
92 977
92 180
92 719
92 267
92 471
92 282
92 333
92 399
92 232
92 259
92 498
92 204
92 105
92 705
92 708
92 809
92 368
92 386
92 919
92 926
92 994
92 490
92 144
92 151
93 248
93 264
93 526
93 535
93 798
93 732
93 307
93 970
93 277
93 968
93 622
93 690
93 612
93 746
93 764
94 281
94 655
94 587
94 524
94 595
94 600
94 603
94 842
94 938
94 278
94 693
94 203
94 795
94 866
94 445
94 189
94 257
94 496
94 778
94 932
94 643
94 903
94 892
94 361
94 876
94 629
94 176
94 960
94 404
94 475
94 614
94 857
94 872
94 822
94 97
94 718
94 901
94 604
94 334
94 239
94 636
94 109
94 315
94 713
94 717
94 916
94 722
94 773
94 776
94 343
94 783
94 945
94 799
94 217
94 820
94 299
94 318
94 602
94 661
94 853
94 948
94 628
94 607
94 116
94 689
94 711
94 263
94 810
94 349
94 351
94 888
94 412
94 992
94 841
95 344
95 832
95 559
95 586
95 494
95 640
95 703
95 765
95 941
95 99
95 212
95 181
95 826
95 164
95 146
95 754
95 763
95 270
95 284
95 811
95 882
95 930
95 935
96 607
96 902
96 391
96 536
96 542
96 927
96 289
96 418
96 550
96 294
96 690
96 188
96 448
96 585
96 589
96 987
96 982
96 886
96 170
96 106
96 127
96 760
96 830
96 175
96 856
96 993
96 599
96 234
96 363
96 372
96 576
96 519
96 310
96 328
96 573
96 339
96 567
96 458
96 697
96 116
96 196
96 489
96 995
96 231
96 621
96 296
96 247
97 120
97 525
97 595
97 600
97 607
97 155
97 291
97 992
97 916
97 337
97 842
97 903
97 711
97 768
97 952
97 412
97 892
97 496
97 817
97 217
97 773
97 901
97 425
97 929
97 613
97 122
97 689
97 693
97 695
97 203
97 717
97 718
97 257
97 857
97 349
97 351
97 404
97 329
97 395
98 762
98 129
98 924
98 803
98 547
98 961
98 964
98 584
98 588
98 848
98 476
98 311
98 504
98 845
98 160
98 626
98 335
98 996
98 413
98 229
98 157
98 822
98 217
98 302
98 483
98 595
99 777
99 544
99 600
99 586
99 640
99 965
99 763
99 306
99 774
99 158
99 545
99 592
99 601
99 284
99 173
99 164
99 349
99 469
99 126
99 137
99 654
99 167
99 174
99 754
99 755
99 270
99 882
99 417
99 930
99 480
99 997
100 452
100 517
100 775
100 266
100 546
100 168
100 967
100 199
100 833
100 356
100 214
100 689
100 676
100 489
100 114
100 120
100 743
101 801
101 851
101 600
101 537
101 539
101 705
101 681
101 767
101 926
101 963
101 232
101 233
101 701
101 259
101 719
101 252
101 225
101 105
101 132
101 708
101 255
101 286
101 329
101 368
101 919
101 415
101 994
101 734
102 541
102 301
102 791
102 738
102 904
102 905
102 481
102 984
102 360
102 248
102 362
102 958
102 981
102 862
102 823
102 934
102 392
102 692
102 397
102 714
102 851
102 390
102 258
102 658
102 134
102 297
102 389
102 937
102 220
102 169
102 241
102 179
102 668
102 396
102 655
102 920
102 796
102 741
102 910
102 312
102 284
102 287
102 121
102 143
102 184
102 749
102 753
102 806
102 821
102 825
102 847
102 419
102 425
102 365
102 475
102 540
102 368
102 213
103 649
103 780
103 140
103 793
103 159
103 801
103 421
103 807
103 424
103 430
103 815
103 574
103 455
103 460
103 211
103 602
103 735
103 107
103 879
103 624
103 639
103 641
103 657
104 629
104 705
104 672
104 537
104 554
104 368
104 908
104 728
104 180
104 232
104 943
104 333
104 994
104 255
104 259
104 785
104 286
104 869
104 708
104 165
104 873
104 700
104 539
104 784
104 262
104 409
104 471
104 174
104 758
104 634
104 132
104 681
104 719
104 772
104 852
104 914
104 926
104 942
104 441
105 367
105 666
105 921
105 736
105 672
105 919
105 809
105 701
105 255
105 784
105 409
105 288
105 852
105 329
105 728
105 180
105 286
105 772
105 664
105 708
105 634
105 267
105 743
105 132
105 873
105 537
105 233
105 841
105 399
105 490
105 232
105 368
105 767
105 963
105 282
105 730
105 313
105 858
105 339
105 891
105 165
105 719
105 259
105 917
105 926
105 942
105 956
105 985
106 842
106 536
106 542
106 927
106 289
106 418
106 294
106 690
106 310
106 188
106 448
106 589
106 982
106 987
106 995
106 621
106 276
106 824
106 170
106 550
106 585
106 265
106 372
106 215
106 406
106 530
106 191
106 638
106 812
106 760
106 328
106 567
106 175
106 573
106 599
106 667
106 830
106 993
106 422
106 314
106 166
106 519
106 154
106 712
106 339
106 152
106 363
106 231
106 576
106 867
106 127
106 886
106 316
106 856
106 902
106 391
106 236
106 844
106 978
106 975
106 919
106 458
106 508
106 848
106 980
107 528
107 140
107 402
107 538
107 283
107 281
107 801
107 805
107 815
107 946
107 563
107 436
107 574
107 579
107 460
107 602
107 225
107 627
107 922
107 780
107 242
107 819
107 624
107 777
107 355
107 881
107 430
107 313
107 211
107 879
107 287
107 159
107 948
107 735
107 651
107 463
107 353
107 649
107 421
107 893
107 269
107 807
107 518
107 756
107 836
107 325
107 639
107 424
107 455
107 190
107 972
107 650
107 146
107 929
107 248
107 212
107 291
107 967
107 987
107 434
108 639
108 512
108 401
108 688
108 566
108 568
108 983
108 858
108 348
108 727
108 478
108 571
108 610
108 123
108 532
108 921
108 771
108 375
108 382
108 772
109 140
109 525
109 524
109 595
109 600
109 603
109 607
109 337
109 885
109 343
109 715
109 872
109 203
109 938
109 783
109 257
109 189
109 718
109 299
109 817
109 629
109 405
109 349
109 888
109 693
109 820
109 842
109 636
109 226
109 308
109 464
109 652
109 689
109 711
109 713
109 795
109 318
109 351
109 892
109 901
109 404
109 475
109 772
110 955
110 662
110 426
110 687
110 564
110 950
110 957
110 319
110 205
110 221
110 608
110 865
110 482
110 748
110 244
111 900
111 647
111 533
111 816
111 698
111 317
111 202
111 459
111 340
111 493
111 699
111 597
111 196
111 975
112 543
112 416
112 171
112 813
112 686
112 193
112 591
112 720
112 208
112 723
112 725
112 998
112 631
112 506
112 510
112 286
112 630
113 140
113 646
113 392
113 128
113 925
113 416
113 813
113 691
113 435
113 193
113 457
113 591
113 720
113 208
113 723
113 725
113 618
113 631
113 510
113 927
114 290
114 266
114 656
114 580
114 330
114 606
114 240
114 214
114 838
114 752
114 253
114 517
114 380
114 775
114 839
114 787
114 356
114 587
114 376
114 381
114 120
114 553
114 987
114 852
114 144
114 912
114 454
114 158
114 228
115 261
115 522
115 326
115 623
115 779
115 275
115 642
115 238
115 444
115 630
115 118
115 648
115 177
115 472
116 140
116 595
116 600
116 604
116 866
116 711
116 911
116 778
116 239
116 155
116 138
116 189
116 918
116 960
116 693
116 525
116 842
116 217
116 334
116 834
116 263
116 603
116 318
116 722
116 176
116 876
116 291
116 257
116 932
116 857
116 299
116 256
116 776
116 445
116 614
116 552
116 927
116 934
116 636
116 715
116 203
116 733
116 817
116 349
116 351
116 361
116 888
116 892
116 404
116 412
116 433
116 475
117 922
117 129
117 803
117 547
117 161
117 311
117 961
117 964
117 584
117 335
117 996
117 229
117 358
117 626
117 589
117 978
118 559
118 261
118 522
118 556
118 326
118 623
118 630
118 393
118 515
118 275
118 894
118 729
118 370
118 145
118 467
118 486
118 989
118 721
118 531
118 648
118 590
118 156
118 148
118 130
118 177
118 899
118 577
118 529
118 585
118 212
118 751
119 541
119 377
119 501
119 179
119 362
119 327
119 692
119 905
119 753
119 419
119 196
119 862
119 390
119 823
119 685
119 248
119 241
119 134
119 791
119 143
119 958
119 714
119 121
119 437
119 769
119 298
119 389
119 304
119 593
119 590
119 259
119 646
119 655
119 668
119 749
119 821
119 825
119 851
119 392
119 396
119 425
119 481
120 517
120 650
120 656
120 546
120 577
120 578
120 450
120 580
120 458
120 214
120 240
120 453
120 702
120 199
120 838
120 752
120 877
120 489
120 606
120 356
120 583
120 775
120 787
120 839
120 253
120 967
120 484
120 330
120 898
120 266
120 587
120 380
120 232
120 708
120 368
120 732
121 796
121 456
121 823
121 360
121 739
121 692
121 376
121 241
121 847
121 738
121 825
121 481
121 143
121 646
121 749
121 377
121 169
121 248
121 769
121 806
121 837
121 501
121 541
121 704
121 134
121 184
121 390
121 555
121 298
121 937
121 397
121 488
121 984
121 851
121 685
121 939
121 821
121 304
121 658
121 920
121 676
121 297
121 362
121 904
121 419
121 934
121 905
121 791
121 797
121 389
121 668
121 714
121 753
121 655
121 514
121 895
121 327
121 308
121 258
121 745
121 392
121 437
121 981
121 683
121 415
121 207
121 291
121 798
121 387
121 182
121 543
121 196
121 862
121 396
121 632
122 524
122 595
122 600
122 607
122 629
122 834
122 866
122 278
122 404
122 960
122 643
122 911
122 888
122 318
122 711
122 992
122 203
122 307
122 691
122 636
122 138
122 733
122 768
122 817
122 337
122 857
122 892
122 412
122 475
122 719
122 884
122 137
123 929
123 568
123 571
123 730
123 478
123 610
123 619
123 375
123 149
123 707
124 398
124 271
124 940
124 688
124 730
124 348
124 478
124 610
124 615
124 619
124 758
124 375
124 382
124 386
124 917
125 155
125 520
125 153
125 540
125 411
125 557
125 818
125 182
125 442
125 955
125 974
125 844
125 850
125 344
125 473
125 366
125 827
126 580
126 957
126 552
126 562
126 586
126 592
126 601
126 707
126 697
126 871
126 811
126 754
126 357
126 137
126 930
126 164
126 750
126 485
126 935
126 551
126 189
126 790
126 358
126 654
126 158
126 755
126 763
126 260
126 270
126 826
126 346
126 997
127 624
127 692
127 892
127 519
127 152
127 536
127 667
127 927
127 289
127 418
127 294
127 690
127 188
127 589
127 599
127 987
127 995
127 886
127 422
127 902
127 363
127 265
127 982
127 312
127 391
127 154
127 170
127 215
127 328
127 638
127 314
127 567
127 812
127 276
127 712
127 530
127 585
127 231
127 830
127 406
127 332
127 771
127 834
127 143
127 991
127 632
127 601
128 720
128 686
128 925
128 193
128 591
128 510
128 507
128 543
128 691
128 618
128 683
128 449
128 742
128 171
128 347
128 625
128 680
128 435
128 506
128 813
128 503
128 527
128 487
128 825
128 982
128 416
128 565
128 446
128 457
128 208
128 723
128 725
128 631
128 203
129 851
129 178
129 553
129 558
129 757
129 139
129 157
129 626
129 845
129 413
129 584
129 476
129 491
129 973
129 592
129 924
129 160
129 544
129 803
129 547
129 311
129 961
129 335
129 483
129 996
129 229
129 689
129 255
129 586
130 261
130 522
130 779
130 531
130 556
130 326
130 623
130 630
130 393
130 540
130 593
130 648
130 652
130 653
130 177
130 472
130 751
131 577
131 698
131 493
131 414
131 593
131 647
131 216
131 816
131 900
131 699
131 533
131 459
131 597
131 200
131 172
131 197
131 598
131 570
131 198
131 827
131 783
131 258
131 202
131 340
131 880
131 975
131 341
132 743
132 367
132 708
132 267
132 943
132 869
132 333
132 963
132 705
132 233
132 985
132 664
132 368
132 785
132 770
132 180
132 767
132 288
132 165
132 272
132 994
132 728
132 666
132 926
132 873
132 209
132 399
132 700
132 942
132 505
132 736
132 537
132 908
132 672
132 809
132 634
132 255
132 554
132 259
132 956
132 438
132 841
132 471
132 359
132 539
132 910
132 241
132 820
132 879
132 401
132 253
132 719
132 784
132 286
132 919
133 299
133 575
133 620
133 632
133 274
133 454
133 675
133 731
133 237
133 759
133 378
133 387
133 726
133 794
133 665
133 251
133 949
133 870
133 709
133 976
133 292
133 645
133 868
133 322
133 674
133 671
133 384
133 254
133 972
133 740
133 427
133 186
133 201
133 896
133 513
133 576
133 657
133 669
133 162
133 710
133 734
133 782
133 790
133 305
133 827
133 835
133 323
133 863
133 884
133 441
133 975
133 980
133 498
133 511
134 514
134 646
134 304
134 655
134 425
134 984
134 196
134 241
134 862
134 143
134 658
134 934
134 481
134 298
134 541
134 389
134 821
134 360
134 920
134 392
134 248
134 837
134 797
134 825
134 851
134 923
134 738
134 791
134 981
134 297
134 501
134 937
134 692
134 452
134 419
134 769
134 676
134 397
134 169
134 796
134 668
134 939
134 220
134 849
134 396
134 823
134 327
134 390
134 714
134 958
134 362
134 216
134 982
134 751
134 585
134 991
134 780
134 685
134 753
134 266
134 723
134 284
135 244
135 187
135 662
135 677
135 957
135 302
135 434
135 342
135 371
135 163
135 206
135 864
135 350
135 687
135 950
135 205
135 846
135 221
135 865
135 270
135 522
136 385
136 226
136 659
136 853
136 978
136 954
136 859
136 395
136 861
136 247
136 210
136 611
136 219
136 516
136 962
136 195
136 828
136 474
136 466
136 331
136 321
136 497
136 875
136 320
136 856
136 435
136 642
136 716
136 341
136 338
136 487
137 691
137 318
137 552
137 560
137 562
137 572
137 586
137 601
137 268
137 891
137 765
137 826
137 808
137 941
137 309
137 293
137 944
137 678
137 284
137 394
137 997
137 697
137 640
137 763
137 173
137 545
137 696
137 227
137 461
137 223
137 910
137 432
137 703
137 420
137 260
137 428
137 270
137 965
137 485
137 146
137 979
137 559
137 468
137 494
137 938
137 487
137 141
137 174
137 754
137 811
137 324
137 417
137 930
137 935
137 156
137 472
138 851
138 524
138 595
138 636
138 810
138 817
138 412
138 878
138 872
138 814
138 443
138 733
138 470
138 857
138 711
138 923
138 292
138 689
138 718
138 257
138 318
138 842
138 334
138 337
138 343
138 351
138 888
138 892
138 901
138 475
138 995
139 491
139 161
139 547
139 924
139 504
139 157
139 996
139 804
139 848
139 964
139 164
139 803
139 311
139 584
139 757
139 216
139 927
139 899
140 651
140 780
140 269
140 762
140 805
140 283
140 893
140 879
140 819
140 807
140 931
140 801
140 281
140 424
140 627
140 463
140 479
140 313
140 563
140 242
140 922
140 159
140 735
140 528
140 579
140 211
140 793
140 574
140 436
140 287
140 624
140 649
140 518
140 355
140 190
140 225
140 815
140 455
140 661
140 369
140 959
140 538
140 460
140 881
140 325
140 353
140 836
140 946
140 602
140 948
140 639
140 402
140 290
140 381
140 430
140 832
140 537
140 900
141 478
141 945
141 391
141 448
141 599
141 231
141 215
141 152
141 175
141 314
141 542
141 477
141 276
141 536
141 927
141 289
141 418
141 294
141 589
141 995
141 621
142 897
142 641
142 628
142 829
142 609
142 222
142 207
142 230
142 741
142 569
142 961
142 913
142 786
142 915
142 928
142 302
142 346
143 541
143 646
143 392
143 797
143 437
143 704
143 179
143 297
143 847
143 849
143 823
143 958
143 791
143 481
143 685
143 668
143 934
143 939
143 837
143 738
143 862
143 676
143 769
143 825
143 745
143 904
143 923
143 301
143 304
143 984
143 397
143 184
143 360
143 806
143 692
143 753
143 739
143 396
143 308
143 376
143 488
143 258
143 895
143 851
143 981
143 920
143 390
143 749
143 452
143 362
143 248
143 456
143 389
143 220
143 514
143 905
143 440
143 661
143 980
143 813
143 889
143 863
143 881
143 298
143 821
143 425
143 804
143 690
144 718
144 412
144 644
144 645
144 740
144 657
144 980
144 251
144 747
144 243
144 731
144 863
144 706
144 305
144 410
144 274
144 441
144 710
144 511
144 975
144 323
144 150
144 292
144 620
144 794
144 581
144 734
144 671
144 972
144 726
144 976
144 201
144 870
144 766
144 969
144 186
144 949
144 868
144 674
144 379
144 673
144 759
144 388
144 835
144 575
144 665
144 454
144 498
144 387
144 508
144 373
144 789
144 907
144 632
144 273
144 912
144 843
144 684
144 953
144 832
144 254
144 151
144 224
144 884
144 771
144 162
144 827
144 427
144 439
144 840
144 237
144 790
144 322
144 345
144 682
144 669
144 296
144 378
144 495
144 929
144 695
144 304
144 918
144 281
144 423
144 595
144 675
145 255
145 261
145 522
145 275
145 326
145 623
145 648
145 393
145 883
145 729
146 593
146 667
146 559
146 586
146 592
146 270
146 678
146 930
146 284
146 152
146 158
146 763
146 765
146 324
146 882
146 417
146 935
146 965
146 997
147 646
147 786
147 230
147 364
147 513
147 829
147 633
147 741
147 569
147 641
147 897
147 928
147 628
147 383
147 354
147 670
147 913
147 834
147 631
147 279
147 930
148 585
148 515
148 522
148 779
148 531
148 556
148 326
148 630
148 896
148 642
148 648
148 652
148 177
149 421
149 398
149 744
149 688
149 730
149 571
149 271
149 382
149 727
149 619
149 828
149 940
149 568
149 983
149 858
149 988
149 348
149 478
149 610
150 620
150 657
150 766
150 644
150 273
150 665
150 379
150 710
150 832
150 211
150 669
150 673
150 675
150 162
150 706
150 740
150 243
150 790
150 305
150 835
150 863
150 427
150 949
150 441
150 454
150 498
150 511
150 979
150 264
151 381
151 527
151 827
151 980
151 273
151 632
151 953
151 439
151 835
151 296
151 577
151 669
151 675
151 682
151 734
151 254
151 766
151 305
151 323
151 868
151 884
151 912
151 427
151 441
151 975
151 498
152 391
152 276
152 585
152 902
152 589
152 760
152 418
152 542
152 154
152 550
152 856
152 265
152 690
152 372
152 312
152 310
152 370
152 727
152 667
152 289
152 188
152 448
152 599
152 987
152 995
152 994
153 520
153 909
153 442
153 523
153 182
153 844
153 332
153 500
153 990
153 818
153 462
153 973
153 850
153 540
153 192
153 477
153 737
153 473
153 400
153 447
153 974
153 344
153 617
153 444
153 194
153 860
153 366
153 350
153 557
153 874
153 499
153 847
153 785
153 296
153 955
153 907
154 391
154 536
154 265
154 339
154 995
154 372
154 621
154 363
154 589
154 171
154 927
154 418
154 294
154 690
154 310
154 188
154 448
154 585
154 987
154 867
154 886
154 201
155 525
155 595
155 607
155 636
155 885
155 814
155 866
155 876
155 278
155 938
155 820
155 404
155 711
155 715
155 257
155 263
155 795
155 810
155 817
155 318
155 842
155 343
155 857
155 349
155 351
155 361
155 892
155 901
155 992
155 305
156 282
156 748
156 790
156 378
156 261
156 522
156 779
156 531
156 326
156 623
156 630
156 642
156 648
156 393
156 486
156 899
156 729
156 275
156 467
156 357
156 665
156 177
156 751
157 413
157 160
157 804
157 626
157 803
157 161
157 336
157 791
157 544
157 553
157 558
157 311
157 964
157 848
157 996
157 730
158 342
158 552
158 562
158 582
158 586
158 601
158 654
158 227
158 293
158 468
158 212
158 480
158 284
158 707
158 678
158 882
158 420
158 763
158 185
158 407
158 268
158 754
158 394
158 417
158 986
158 930
158 270
158 485
158 755
158 997
158 181
158 572
158 551
158 623
158 316
158 597
158 696
158 811
158 306
158 935
158 965
159 649
159 651
159 602
159 290
159 269
159 922
159 211
159 190
159 959
159 881
159 634
159 805
159 807
159 424
159 815
159 325
159 455
159 225
159 879
159 624
159 762
159 639
159 279
159 706
160 999
160 584
160 335
160 558
160 358
160 845
160 491
160 753
160 544
160 803
160 161
160 311
160 961
160 996
160 626
161 544
161 547
161 757
161 924
161 996
161 476
161 961
161 529
161 558
161 311
161 584
161 845
161 335
161 848
161 465
162 645
162 665
162 674
162 675
162 684
162 863
162 251
162 710
162 782
162 734
162 832
162 868
162 575
162 441
162 379
162 969
162 620
162 305
162 709
162 495
162 949
162 766
162 201
162 273
162 388
162 438
162 399
162 977
162 706
162 726
162 790
162 296
162 827
162 835
162 345
162 884
162 378
162 427
162 454
162 975
162 980
162 498
162 511
162 654
162 986
163 255
163 662
163 300
163 429
163 694
163 371
163 205
163 564
163 509
163 846
163 687
163 887
163 951
163 482
163 302
163 221
163 865
163 957
163 206
163 434
163 244
163 426
163 608
163 319
163 950
163 502
163 187
163 193
163 892
163 342
163 782
164 545
164 559
164 586
164 592
164 654
164 693
164 174
164 754
164 763
164 774
164 270
164 309
164 882
164 417
164 935
164 997
165 170
165 537
165 539
165 634
165 672
165 963
165 296
165 681
165 255
165 282
165 841
165 368
165 914
165 921
165 926
165 936
165 942
165 994
165 729
166 353
166 536
166 542
166 927
166 289
166 418
166 550
166 294
166 406
166 712
166 236
166 573
166 938
166 690
166 567
166 824
166 448
166 585
166 589
166 599
166 987
166 995
166 231
166 886
167 804
167 519
167 690
167 575
167 559
167 586
167 592
167 601
167 270
167 754
167 871
167 428
167 293
167 774
167 826
167 227
167 582
167 545
167 965
167 935
167 306
167 679
167 445
167 229
167 174
167 755
167 763
167 260
167 811
167 882
168 517
168 656
168 458
168 839
168 752
168 578
168 583
168 484
168 380
168 967
168 577
168 580
168 852
168 838
168 330
168 833
168 489
168 240
168 645
169 541
169 646
169 655
169 668
169 676
169 981
169 437
169 390
169 481
169 514
169 937
169 791
169 330
169 526
169 685
169 714
169 749
169 753
169 248
169 298
169 821
169 825
169 851
169 392
169 419
169 619
169 654
170 817
170 334
170 200
170 391
170 265
170 406
170 536
170 542
170 289
170 418
170 294
170 312
170 830
170 295
170 690
170 567
170 573
170 188
170 448
170 585
170 599
170 987
170 867
170 621
171 527
171 416
171 683
171 457
171 208
171 193
171 680
171 440
171 691
171 446
171 561
171 462
171 813
171 435
171 591
171 618
171 631
171 506
171 510
171 885
171 892
171 559
172 786
172 900
172 647
172 533
172 414
172 295
172 216
172 679
172 699
172 764
172 698
172 593
172 340
172 880
172 332
172 936
172 710
173 562
173 586
173 601
173 654
173 417
173 485
173 552
173 944
173 808
173 293
173 480
173 324
173 494
173 270
173 461
173 551
173 545
173 782
173 246
173 185
173 754
173 755
173 763
173 774
173 309
173 930
173 935
174 562
174 640
174 947
174 586
174 485
174 494
174 480
174 891
174 293
174 910
174 986
174 309
174 357
174 461
174 260
174 601
174 750
174 928
174 308
174 210
174 755
174 270
174 324
174 882
174 417
174 930
174 935
175 514
175 449
175 391
175 519
175 530
175 536
175 667
175 542
175 927
175 418
175 294
175 493
175 690
175 314
175 188
175 448
175 589
175 599
175 987
175 867
175 372
175 886
175 473
176 946
176 525
176 524
176 595
176 600
176 607
176 820
176 475
176 478
176 222
176 695
176 718
176 733
176 318
176 842
176 337
176 343
176 857
176 892
176 404
176 412
176 945
176 992
177 923
177 230
177 522
177 779
177 531
177 326
177 890
177 642
177 899
177 648
177 590
177 729
177 467
177 515
177 393
177 894
177 238
177 653
177 652
177 275
177 469
177 472
177 464
177 968
177 541
177 327
177 775
177 751
178 685
178 298
178 923
178 544
178 803
178 311
178 845
178 689
178 961
178 584
178 525
178 829
179 948
179 541
179 646
179 655
179 668
179 862
179 981
179 904
179 452
179 753
179 796
179 744
179 800
179 184
179 738
179 745
179 749
179 298
179 823
179 851
179 392
179 396
180 460
180 685
180 537
180 664
180 681
180 359
180 772
180 873
180 908
180 708
180 233
180 926
180 784
180 282
180 329
180 367
180 288
180 728
180 991
180 368
180 985
180 399
180 743
180 267
180 438
180 869
180 232
180 272
180 809
180 767
180 471
180 942
180 409
180 977
180 701
180 921
180 666
180 736
180 586
180 360
180 665
180 608
180 319
180 700
180 705
180 286
180 919
180 994
181 572
181 586
181 592
181 654
181 212
181 268
181 394
181 808
181 562
181 432
181 494
181 552
181 965
181 559
181 257
181 898
181 696
181 185
181 697
181 754
181 755
181 270
181 324
181 930
181 935
181 979
182 563
182 892
182 412
182 520
182 909
182 540
182 557
182 818
182 990
182 400
182 411
182 194
182 500
182 447
182 973
182 195
182 955
182 192
182 850
182 473
182 874
182 329
183 821
183 607
183 536
183 542
183 426
183 564
183 951
183 187
183 694
183 371
183 429
183 687
183 608
183 677
183 502
183 957
183 580
183 451
183 846
183 342
183 221
183 865
183 482
183 748
184 514
184 541
184 646
184 655
184 676
184 685
184 920
184 905
184 658
184 241
184 862
184 939
184 753
184 796
184 806
184 327
184 392
184 389
184 456
184 220
184 847
184 555
184 923
184 195
184 533
184 588
184 248
184 825
184 851
184 360
184 396
184 419
184 425
184 481
185 681
185 873
185 415
185 675
185 559
185 586
185 592
185 601
185 654
185 750
185 284
185 480
185 260
185 754
185 703
185 212
185 227
185 324
185 551
185 678
185 485
185 697
185 640
185 891
185 774
185 468
185 223
185 270
185 826
185 795
185 887
185 828
185 338
185 755
185 763
185 765
185 808
185 882
185 930
185 935
186 575
186 632
186 671
186 675
186 863
186 296
186 644
186 620
186 322
186 657
186 512
186 499
186 706
186 734
186 243
186 766
186 782
186 790
186 305
186 835
186 323
186 868
186 884
186 427
186 949
186 975
186 498
186 511
186 284
187 898
187 547
187 848
187 536
187 662
187 677
187 426
187 302
187 434
187 950
187 694
187 451
187 205
187 342
187 221
187 608
187 865
187 482
187 492
187 244
188 452
188 481
188 337
188 391
188 667
188 542
188 927
188 418
188 294
188 690
188 830
188 363
188 638
188 406
188 995
188 215
188 328
188 422
188 902
188 567
188 234
188 760
188 576
188 824
188 519
188 812
188 589
188 987
188 536
188 599
188 231
188 530
188 573
188 191
188 236
188 856
188 550
188 867
188 585
188 265
188 314
188 316
188 372
188 886
188 310
188 621
188 712
188 993
188 701
188 200
188 619
188 469
188 285
188 431
188 622
188 448
189 525
189 595
189 600
189 603
189 607
189 636
189 945
189 343
189 916
189 459
189 711
189 713
189 715
189 203
189 718
189 263
189 817
189 842
189 334
189 857
189 349
189 351
189 888
189 892
189 901
189 404
189 412
189 475
189 992
189 921
189 882
190 269
190 402
190 538
190 287
190 807
190 424
190 946
190 211
190 624
190 639
191 837
191 391
191 519
191 667
191 542
191 289
191 418
191 294
191 690
191 824
191 840
191 448
191 576
191 328
191 589
191 982
191 987
191 995
191 621
191 366
192 996
192 520
192 523
192 400
192 411
192 818
192 955
192 860
192 844
192 973
192 194
192 350
192 742
192 259
192 499
192 500
192 734
192 642
193 484
193 527
193 285
193 543
193 683
193 435
193 446
193 998
193 625
193 802
193 507
193 303
193 416
193 347
193 510
193 440
193 725
193 691
193 813
193 925
193 449
193 686
193 742
193 680
193 723
193 618
193 883
193 637
193 503
193 591
193 631
193 365
193 860
193 369
193 491
193 688
193 482
193 720
193 208
193 909
193 800
193 751
194 544
194 842
194 909
194 540
194 411
194 557
194 818
194 442
194 955
194 850
194 759
194 974
194 344
194 990
194 874
194 499
194 684
194 243
194 378
195 691
195 585
195 385
195 395
195 781
195 320
195 321
195 828
195 855
195 861
195 474
195 331
195 966
195 611
195 853
195 341
195 219
195 469
195 200
195 716
195 978
195 859
195 487
195 497
196 541
196 646
196 655
196 362
196 425
196 920
196 301
196 258
196 376
196 981
196 377
196 738
196 923
196 895
196 419
196 796
196 360
196 872
196 686
196 394
196 749
196 753
196 248
196 298
196 821
196 825
196 847
196 851
196 392
196 396
197 900
197 533
197 534
197 295
197 698
197 317
197 198
197 724
197 752
197 200
197 202
197 340
197 598
197 216
197 880
198 510
198 670
198 900
198 533
198 679
198 698
198 816
198 880
198 597
198 647
198 216
198 657
198 200
198 202
198 598
198 234
198 886
199 898
199 650
199 546
199 702
199 450
199 967
199 356
199 266
199 838
199 775
199 580
199 240
199 877
199 839
199 577
199 866
199 680
199 720
200 815
200 900
200 533
200 414
200 816
200 698
200 699
200 597
200 593
200 246
200 598
200 216
200 679
200 444
200 880
200 448
200 914
201 240
201 677
201 632
201 645
201 675
201 709
201 710
201 441
201 953
201 213
201 734
201 740
201 766
201 305
201 835
201 868
201 378
201 427
201 975
201 498
201 511
201 223
201 779
202 900
202 533
202 816
202 698
202 414
202 340
202 317
202 593
202 493
202 699
202 647
202 597
202 246
202 295
202 616
202 880
202 426
202 928
202 360
202 598
202 216
202 621
202 754
202 811
202 653
203 525
203 524
203 595
203 600
203 603
203 689
203 711
203 475
203 239
203 834
203 643
203 636
203 960
203 916
203 604
203 343
203 713
203 885
203 412
203 445
203 773
203 361
203 892
203 878
203 217
203 443
203 496
203 799
203 857
203 901
203 299
203 722
203 831
203 614
203 810
203 408
203 952
203 257
203 291
203 932
203 349
203 629
203 842
203 820
203 423
203 334
203 470
203 351
203 337
203 872
203 404
203 438
203 530
203 532
203 395
203 483
203 372
203 718
203 318
203 888
203 221
203 654
204 450
204 264
204 535
204 307
204 249
204 612
204 352
204 660
204 374
204 933
204 970
204 594
204 431
204 968
204 613
204 732
204 250
204 330
204 981
204 228
204 746
204 622
205 687
205 434
205 564
205 950
205 694
205 957
205 319
205 865
205 951
205 846
205 429
205 426
205 302
205 371
205 451
205 608
205 509
205 940
205 725
205 355
205 221
205 244
206 689
206 426
206 687
206 564
206 694
206 957
206 319
206 748
206 300
206 451
206 236
206 342
206 221
206 292
206 882
206 648
207 641
207 280
207 829
207 596
207 609
207 364
207 569
207 230
207 628
207 633
207 649
207 436
207 741
208 527
208 543
208 686
208 435
208 565
208 457
208 591
208 720
208 347
208 303
208 446
208 631
208 883
208 506
208 416
208 285
208 813
208 725
208 723
208 503
208 998
208 618
208 637
208 449
208 507
208 742
208 440
208 365
208 510
208 925
208 214
208 600
208 954
208 569
208 616
208 318
208 415
209 537
209 634
209 681
209 708
209 333
209 943
209 232
209 233
209 539
209 368
209 286
209 255
209 772
209 841
209 919
209 926
209 985
209 994
209 740
209 970
210 815
210 676
210 751
210 385
210 395
210 321
210 966
210 716
210 635
210 516
210 861
210 377
210 688
210 853
210 497
211 402
211 283
211 807
211 815
211 946
211 455
211 836
211 931
211 879
211 922
211 793
211 463
211 381
211 639
211 735
211 242
211 801
211 369
211 325
211 353
211 959
211 574
211 355
211 649
211 538
211 661
211 624
211 805
211 269
211 287
211 225
211 479
211 627
211 430
211 651
211 424
211 948
211 421
211 780
211 762
211 819
211 281
211 460
211 436
211 290
211 563
211 777
211 893
211 313
211 579
211 528
211 756
211 518
211 602
211 830
211 612
211 897
211 721
211 286
211 912
211 881
211 228
212 666
212 427
212 560
212 562
212 586
212 654
212 696
212 697
212 223
212 754
212 755
212 270
212 826
212 882
212 930
212 935
212 997
213 688
213 820
213 620
213 657
213 675
213 706
213 710
213 759
213 645
213 274
213 669
213 969
213 379
213 575
213 800
213 495
213 726
213 827
213 840
213 322
213 794
213 644
213 671
213 771
213 912
213 410
213 581
213 273
213 949
213 373
213 884
213 292
213 843
213 709
213 991
213 950
213 587
213 787
213 734
213 747
213 243
213 254
213 790
213 835
213 323
213 863
213 378
213 427
213 441
213 975
213 498
213 516
214 775
214 266
214 656
214 787
214 546
214 450
214 967
214 330
214 240
214 606
214 253
214 237
214 833
214 489
214 614
214 223
215 489
215 519
215 265
215 536
215 667
215 289
215 418
215 294
215 690
215 316
215 448
215 589
215 982
215 599
215 987
215 995
215 867
215 231
215 621
215 372
216 351
216 900
216 533
216 534
216 414
216 295
216 816
216 698
216 459
216 598
216 593
216 724
216 246
216 699
216 880
216 597
216 616
216 679
216 493
216 371
216 655
216 580
216 582
217 646
217 525
217 595
217 600
217 603
217 614
217 636
217 713
217 733
217 257
217 795
217 291
217 318
217 842
217 337
217 857
217 349
217 885
217 888
217 892
217 404
217 412
217 945
217 475
217 992
217 589
218 285
218 351
218 809
218 747
218 385
218 516
218 781
218 321
218 716
218 978
218 341
218 859
218 497
219 483
219 533
219 385
219 395
219 659
219 716
219 341
219 474
219 487
219 338
219 524
219 875
219 497
220 514
220 555
220 655
220 668
220 676
220 685
220 714
220 248
220 796
220 298
220 301
220 304
220 821
220 825
220 851
220 392
220 396
220 419
220 452
220 481
220 562
220 352
221 662
221 677
221 429
221 687
221 434
221 950
221 957
221 319
221 451
221 846
221 342
221 371
221 509
221 302
221 694
221 748
221 244
221 951
221 300
221 502
221 492
221 426
221 887
221 865
221 482
221 564
221 524
221 643
221 684
222 725
222 513
222 641
222 279
222 280
222 670
222 569
222 829
222 596
222 364
222 609
222 897
222 915
222 786
222 628
222 928
222 633
222 257
222 751
222 858
222 230
222 706
222 954
223 586
223 601
223 640
223 941
223 324
223 678
223 461
223 871
223 494
223 394
223 754
223 986
223 284
223 428
223 551
223 755
223 763
223 260
223 811
223 346
223 930
223 935
223 965
223 997
224 230
224 448
224 632
224 665
224 671
224 675
224 706
224 734
224 747
224 790
224 305
224 827
224 835
224 863
224 884
224 378
224 427
224 441
224 975
224 498
224 511
225 651
225 780
225 269
225 528
225 793
225 538
225 807
225 815
225 946
225 959
225 455
225 460
225 602
225 627
225 518
225 624
225 563
225 353
225 801
225 325
225 421
225 756
225 893
225 931
225 579
225 463
225 649
225 313
225 402
225 639
225 287
225 258
225 347
225 251
225 244
226 867
226 781
226 659
226 966
226 716
226 978
226 853
226 341
226 474
226 859
226 487
227 559
227 586
227 654
227 696
227 697
227 551
227 653
227 755
227 765
227 284
227 811
227 306
227 882
227 930
227 935
227 965
227 997
227 331
228 719
228 863
228 586
228 264
228 521
228 529
228 548
228 613
228 968
228 594
228 431
228 746
228 250
228 622
228 933
228 249
228 660
228 235
228 465
228 352
228 764
228 854
228 374
228 612
228 971
228 732
228 589
228 381
229 924
229 544
229 803
229 547
229 311
229 961
229 584
229 845
229 848
229 996
229 358
229 483
229 336
229 588
229 435
229 647
229 757
229 695
229 913
229 902
229 344
229 708
229 296
230 897
230 513
230 913
230 279
230 829
230 741
230 364
230 569
230 354
230 670
230 928
230 633
230 609
230 887
230 406
230 589
230 535
231 879
231 595
231 265
231 406
231 289
231 418
231 690
231 448
231 589
231 339
231 987
231 995
231 599
231 312
231 886
231 530
231 365
231 906
231 872
231 236
231 935
232 372
232 664
232 700
232 708
232 719
232 908
232 914
232 919
232 681
232 977
232 554
232 736
232 672
232 985
232 668
232 284
232 410
232 255
232 259
232 772
232 784
232 841
232 873
232 368
232 399
232 926
232 936
232 994
232 270
232 930
233 883
233 299
233 537
233 681
233 708
233 664
233 701
233 539
233 634
233 272
233 252
233 926
233 770
233 772
233 525
233 528
233 267
233 809
233 368
233 399
233 919
233 936
233 942
233 956
234 392
234 939
234 519
234 406
234 536
234 542
234 927
234 289
234 418
234 690
234 448
234 987
234 995
235 778
235 681
235 345
235 884
235 264
235 521
235 548
235 352
235 613
235 249
235 277
235 854
235 939
235 764
236 392
236 845
236 391
236 519
236 667
236 927
236 289
236 418
236 294
236 690
236 448
236 987
236 995
236 760
236 550
236 993
236 856
236 587
236 773
236 621
236 886
236 936
237 939
237 566
237 289
237 575
237 620
237 665
237 671
237 675
237 682
237 710
237 243
237 254
237 766
237 790
237 296
237 835
237 863
237 868
237 884
237 427
237 949
237 441
237 454
237 975
237 980
237 498
237 511
237 417
238 339
238 368
238 305
238 515
238 522
238 531
238 556
238 326
238 393
238 652
238 653
238 472
238 751
239 421
239 524
239 595
239 603
239 636
239 711
239 713
239 718
239 257
239 263
239 795
239 810
239 318
239 334
239 343
239 857
239 349
239 351
239 888
239 892
239 992
239 740
239 454
240 898
240 517
240 656
240 787
240 577
240 450
240 580
240 967
240 458
240 489
240 380
240 702
240 752
240 839
240 330
240 650
240 546
240 833
240 606
240 453
240 266
240 838
240 583
240 810
240 296
240 795
241 514
241 541
241 668
241 676
241 685
241 753
241 248
241 298
241 851
241 392
241 396
241 481
241 975
241 875
242 518
242 651
242 780
242 269
242 402
242 538
242 801
242 807
242 815
242 436
242 460
242 602
242 735
242 479
242 624
242 881
242 337
242 548
243 404
243 286
243 645
243 665
243 673
243 675
243 706
243 710
243 734
243 747
243 511
243 843
243 439
243 759
243 684
243 441
243 379
243 674
243 912
243 868
243 498
243 790
243 794
243 575
243 682
243 953
243 840
243 254
243 410
243 832
243 657
243 373
243 976
243 387
243 669
243 789
243 495
243 296
243 632
243 274
243 782
243 292
243 709
243 969
243 323
243 322
243 894
243 481
243 986
243 351
243 372
243 305
243 835
243 863
243 884
243 378
243 427
243 975
243 980
244 662
244 687
244 564
244 950
244 957
244 319
244 846
244 342
244 865
244 694
244 951
244 429
244 502
244 887
244 426
244 677
244 302
244 492
244 371
244 571
245 926
245 706
245 659
245 320
245 978
245 466
245 341
245 855
245 859
245 487
245 497
245 579
246 390
246 900
246 647
246 533
246 534
246 295
246 698
246 724
246 616
246 880
246 427
247 475
247 675
247 305
247 385
247 781
247 659
247 962
247 331
247 716
247 978
247 853
247 341
247 474
247 859
248 514
248 668
248 714
248 749
248 753
248 297
248 501
248 905
248 797
248 541
248 958
248 704
248 301
248 769
248 934
248 849
248 327
248 452
248 298
248 392
248 923
248 796
248 304
248 258
248 481
248 685
248 825
248 851
248 847
248 390
248 419
248 984
248 791
248 360
248 555
248 862
248 376
248 937
248 658
248 362
248 488
248 655
248 837
248 806
248 739
248 821
248 925
248 614
248 724
248 529
248 613
248 551
248 396
248 920
248 425
248 568
249 961
249 790
249 763
249 935
249 526
249 660
249 535
249 548
249 431
249 970
249 465
249 352
249 622
250 595
250 262
250 385
250 264
250 521
250 970
250 613
250 622
250 535
250 612
250 548
250 792
250 598
250 320
251 711
251 645
251 671
251 675
251 710
251 734
251 747
251 254
251 790
251 296
251 305
251 835
251 868
251 884
251 378
251 427
251 441
251 975
251 498
252 419
252 663
252 681
252 926
252 701
252 255
252 977
252 942
252 329
252 869
252 505
252 539
252 728
252 367
252 809
252 736
252 887
252 600
252 262
252 286
252 368
252 399
252 914
252 919
252 985
252 994
253 898
253 517
253 656
253 577
253 580
253 453
253 967
253 583
253 721
253 663
254 815
254 580
254 629
254 857
254 399
254 675
254 710
254 734
254 387
254 682
254 868
254 794
254 759
254 790
254 273
254 495
254 379
254 840
254 454
254 863
254 766
254 498
254 388
254 827
254 410
254 274
254 645
254 373
254 632
254 673
254 706
254 323
254 835
254 972
254 812
254 858
254 336
254 398
254 290
254 800
254 296
254 305
254 884
254 427
254 441
254 975
255 537
255 554
255 681
255 701
255 963
255 359
255 809
255 728
255 664
255 708
255 772
255 700
255 634
255 415
255 329
255 490
255 368
255 784
255 438
255 539
255 409
255 743
255 471
255 262
255 705
255 785
255 770
255 767
255 921
255 852
255 272
255 873
255 942
255 505
255 736
255 908
255 386
255 919
255 841
255 267
255 994
255 869
255 985
255 259
255 672
255 719
255 611
255 871
255 898
255 810
255 286
255 399
255 914
255 926
255 956
256 524
256 595
256 600
256 603
256 607
256 614
256 629
256 689
256 711
256 718
256 257
256 299
256 318
256 842
256 334
256 337
256 857
256 349
256 892
256 404
256 412
256 992
257 525
257 600
257 614
257 636
257 689
257 695
257 711
257 713
257 718
257 733
257 820
257 857
257 876
257 916
257 799
257 433
257 291
257 960
257 776
257 722
257 603
257 349
257 814
257 938
257 412
257 404
257 643
257 911
257 604
257 834
257 443
257 906
257 945
257 715
257 866
257 475
257 817
257 901
257 783
257 496
257 351
257 318
257 334
257 289
257 572
257 637
257 784
257 870
257 748
257 299
257 337
257 343
257 361
257 888
257 892
258 639
258 514
258 541
258 668
258 685
258 749
258 753
258 298
258 821
258 823
258 825
258 851
258 392
258 419
258 425
258 481
258 973
259 749
259 396
259 382
259 471
259 719
259 663
259 873
259 386
259 783
259 745
259 262
259 368
259 399
259 919
259 926
259 415
259 985
259 994
260 690
260 545
260 559
260 560
260 586
260 750
260 944
260 293
260 678
260 357
260 763
260 601
260 947
260 703
260 941
260 461
260 552
260 986
260 811
260 572
260 592
260 562
260 882
260 485
260 979
260 794
260 704
260 270
260 306
260 826
260 930
260 965
260 997
261 392
261 569
261 926
261 835
261 275
261 590
261 531
261 989
261 652
261 896
261 653
261 486
261 751
261 370
261 469
261 648
261 393
261 721
261 556
261 788
261 814
261 722
261 262
261 522
261 326
261 890
261 899
262 815
262 317
262 537
262 700
262 708
262 772
262 367
262 368
262 809
262 936
262 704
262 286
262 329
262 399
262 919
262 921
262 926
262 415
262 942
262 994
262 975
262 654
263 488
263 525
263 524
263 595
263 600
263 603
263 607
263 629
263 689
263 713
263 715
263 718
263 733
263 876
263 475
263 918
263 604
263 693
263 278
263 814
263 361
263 831
263 992
263 412
263 768
263 318
263 445
263 451
263 887
263 953
263 948
263 778
263 817
263 842
263 334
263 337
263 857
263 351
263 404
263 945
264 608
264 965
264 970
264 971
264 529
264 854
264 660
264 535
264 732
264 968
264 764
264 746
264 521
264 613
264 939
264 538
264 526
264 277
264 548
264 465
264 594
264 612
264 622
265 567
265 760
265 294
265 418
265 585
265 667
265 542
265 690
265 406
265 363
265 316
265 902
265 391
265 589
265 312
265 995
265 390
265 770
265 927
265 550
265 314
265 448
265 599
265 987
265 372
266 517
266 650
266 656
266 577
266 702
266 330
266 787
266 546
266 450
266 580
266 967
266 838
266 484
266 493
267 475
267 537
267 663
267 672
267 681
267 708
267 719
267 772
267 869
267 914
267 770
267 963
267 943
267 977
267 664
267 852
267 562
267 707
267 571
267 286
267 368
267 919
267 926
267 415
267 985
267 994
267 393
268 624
268 603
268 562
268 586
268 601
268 696
268 754
268 763
268 979
268 658
268 270
268 811
268 324
268 417
268 930
268 935
269 649
269 651
269 780
269 579
269 815
269 801
269 735
269 528
269 479
269 948
269 421
269 574
269 602
269 283
269 325
269 436
269 807
269 756
269 460
269 424
269 538
269 819
269 290
269 959
269 931
269 946
269 287
269 525
269 359
269 587
269 879
269 624
269 762
269 639
269 685
269 299
270 545
270 551
270 559
270 562
270 586
270 601
270 654
270 696
270 754
270 755
270 763
270 979
270 765
270 420
270 640
270 944
270 432
270 986
270 930
270 494
270 941
270 808
270 947
270 965
270 697
270 582
270 357
270 485
270 461
270 910
270 324
270 678
270 707
270 468
270 428
270 417
270 774
270 997
270 572
270 703
270 560
270 750
270 293
270 891
270 306
270 935
270 407
270 592
270 394
270 882
270 480
270 871
270 906
270 292
270 835
270 386
270 538
270 320
270 284
271 889
271 619
271 727
271 566
271 403
271 532
271 398
271 744
271 605
271 478
271 512
271 988
271 615
271 415
271 547
271 549
271 688
271 568
271 730
271 610
271 761
271 382
271 600
272 796
272 663
272 666
272 672
272 681
272 700
272 708
272 719
272 736
272 286
272 809
272 873
272 368
272 399
272 914
272 919
272 942
272 956
272 994
273 718
273 599
273 575
273 645
273 675
273 710
273 726
273 740
273 790
273 296
273 305
273 835
273 863
273 868
273 884
273 378
273 912
273 427
273 949
273 441
273 454
273 975
273 980
273 498
273 511
274 824
274 956
274 620
274 632
274 674
274 675
274 734
274 790
274 832
274 835
274 863
274 884
274 378
274 427
274 441
274 975
274 980
274 498
274 511
275 809
275 868
275 522
275 779
275 531
275 642
275 788
275 370
275 989
275 326
275 515
275 721
275 648
275 556
275 751
275 890
275 472
275 440
275 329
275 623
275 630
276 857
276 816
276 519
276 530
276 316
276 406
276 830
276 339
276 667
276 769
276 536
276 542
276 927
276 418
276 294
276 690
276 589
276 987
276 995
277 765
277 521
277 732
277 971
277 622
277 798
277 526
277 307
277 352
277 529
277 613
277 644
277 399
277 933
277 465
277 854
277 374
278 685
278 745
278 524
278 595
278 636
278 643
278 689
278 711
278 718
278 299
278 768
278 604
278 960
278 911
278 945
278 431
278 579
278 833
278 795
278 817
278 318
278 857
278 885
278 892
278 404
278 412
278 475
278 992
278 698
278 902
279 419
279 641
279 786
279 633
279 364
279 829
279 928
279 915
279 628
279 377
279 609
279 741
280 847
280 358
280 641
280 786
280 609
280 383
280 364
280 628
280 913
280 829
280 637
280 339
280 670
280 427
281 518
281 538
281 455
281 893
281 651
281 661
281 946
281 807
281 959
281 805
281 355
281 801
281 819
281 649
281 313
281 793
281 347
281 397
281 421
281 424
281 430
281 815
281 436
281 574
281 460
281 735
281 624
281 881
281 381
281 762
281 639
281 961
282 489
282 842
282 337
282 500
282 663
282 681
282 736
282 329
282 785
282 502
282 286
282 809
282 399
282 919
282 994
282 980
283 518
283 402
283 661
283 819
283 959
283 421
283 655
283 801
283 807
283 424
283 815
283 946
283 563
283 574
283 460
283 735
283 624
283 762
283 639
283 785
284 967
284 545
284 551
284 560
284 562
284 586
284 592
284 654
284 755
284 765
284 559
284 309
284 394
284 572
284 979
284 357
284 415
284 811
284 826
284 324
284 882
284 930
284 935
284 965
284 997
285 925
285 543
285 720
285 510
285 631
285 440
285 686
285 565
285 457
285 625
285 883
285 527
285 742
285 683
285 506
285 446
285 347
285 507
285 766
285 416
285 303
285 691
285 435
285 449
285 591
285 723
285 503
285 998
285 500
285 326
286 330
286 715
286 537
286 681
286 708
286 719
286 728
286 921
286 809
286 943
286 873
286 700
286 701
286 666
286 736
286 743
286 539
286 634
286 936
286 490
286 288
286 415
286 963
286 505
286 663
286 554
286 942
286 770
286 917
286 333
286 841
286 869
286 409
286 785
286 908
286 956
286 767
286 359
286 824
286 714
286 404
286 595
286 329
286 368
286 399
286 914
286 919
286 926
286 994
286 451
287 922
287 436
287 353
287 805
287 819
287 946
287 602
287 661
287 463
287 574
287 628
287 750
287 421
287 815
287 579
287 325
287 460
287 735
287 879
287 881
287 381
287 928
287 914
288 446
288 537
288 681
288 719
288 784
288 518
288 368
288 399
288 919
288 926
288 985
288 994
288 505
289 931
289 514
289 902
289 519
289 536
289 542
289 927
289 824
289 760
289 448
289 712
289 339
289 422
289 567
289 621
289 830
289 589
289 314
289 530
289 418
289 812
289 372
289 667
289 550
289 993
289 995
289 856
289 363
289 886
289 599
289 690
289 585
289 638
289 982
289 576
289 310
289 867
289 443
289 294
290 777
290 402
290 922
290 801
290 518
290 563
290 430
290 421
290 424
290 815
290 946
290 574
290 325
290 460
290 735
290 381
290 762
290 639
290 454
290 648
291 460
291 524
291 636
291 689
291 713
291 718
291 733
291 783
291 445
291 906
291 535
291 810
291 318
291 842
291 334
291 337
291 349
291 351
291 901
291 404
291 412
291 475
291 992
291 556
292 825
292 412
292 418
292 687
292 644
292 675
292 710
292 726
292 734
292 740
292 790
292 809
292 305
292 835
292 863
292 378
292 427
292 949
292 441
292 454
292 975
292 498
292 511
293 974
293 537
293 559
293 562
293 586
293 601
293 654
293 696
293 754
293 763
293 874
293 811
293 309
293 324
293 346
293 930
293 935
293 965
294 406
294 536
294 927
294 418
294 886
294 867
294 372
294 638
294 339
294 902
294 585
294 667
294 830
294 567
294 993
294 363
294 316
294 314
294 310
294 760
294 824
294 690
294 812
294 448
294 982
294 621
294 422
294 530
294 589
294 519
294 856
294 328
294 702
294 526
294 304
294 987
295 668
295 842
295 351
295 900
295 533
295 534
295 414
295 880
295 616
295 699
295 850
295 427
295 816
295 698
295 459
295 597
295 598
296 673
296 675
296 710
296 726
296 734
296 740
296 747
296 766
296 790
296 827
296 384
296 840
296 682
296 953
296 870
296 379
296 674
296 439
296 508
296 387
296 575
296 345
296 976
296 843
296 323
296 731
296 980
296 696
296 899
296 783
296 305
296 835
296 868
296 884
296 378
296 427
296 949
296 441
296 454
296 975
296 498
296 511
297 541
297 668
297 676
297 685
297 745
297 749
297 753
297 298
297 821
297 825
297 847
297 862
297 895
297 923
297 419
297 481
297 542
298 646
298 655
298 704
298 749
298 753
298 796
298 806
298 791
298 937
298 327
298 692
298 419
298 389
298 301
298 904
298 862
298 376
298 939
298 377
298 304
298 821
298 308
298 481
298 738
298 397
298 658
298 739
298 984
298 396
298 514
298 905
298 501
298 851
298 360
298 958
298 825
298 847
298 745
298 362
298 676
298 596
298 661
298 368
298 866
298 310
298 392
298 425
298 452
298 591
299 964
299 524
299 603
299 607
299 614
299 636
299 711
299 718
299 888
299 932
299 343
299 795
299 337
299 857
299 595
299 722
299 901
299 916
299 496
299 992
299 778
299 814
299 445
299 443
299 643
299 799
299 717
299 776
299 878
299 433
299 831
299 318
299 525
299 715
299 960
299 773
299 355
299 393
299 334
299 892
299 404
299 412
299 475
300 877
300 588
300 929
300 662
300 677
300 492
300 608
300 748
300 319
300 509
300 502
300 950
300 951
300 957
300 846
300 342
300 865
300 482
300 933
301 541
301 655
301 668
301 685
301 745
301 749
301 753
301 797
301 821
301 548
301 823
301 851
301 396
301 425
301 942
302 702
302 814
302 343
302 662
302 371
302 951
302 957
302 687
302 866
302 434
302 564
302 950
302 319
302 451
302 846
302 865
302 492
302 562
303 424
303 527
303 802
303 680
303 686
303 683
303 435
303 925
303 416
303 631
303 506
303 347
303 313
303 449
303 457
303 591
303 720
303 723
303 725
303 998
303 393
304 541
304 676
304 753
304 692
304 362
304 978
304 821
304 825
304 847
304 851
304 392
304 419
304 481
305 723
305 607
305 669
305 675
305 706
305 710
305 734
305 790
305 868
305 620
305 665
305 726
305 682
305 976
305 454
305 378
305 800
305 789
305 794
305 949
305 709
305 322
305 969
305 759
305 771
305 387
305 671
305 740
305 373
305 379
305 632
305 511
305 766
305 747
305 581
305 731
305 863
305 832
305 323
305 840
305 644
305 427
305 782
305 498
305 684
305 975
305 907
305 388
305 441
305 912
305 827
305 980
305 870
305 673
305 384
305 466
305 514
305 306
305 910
305 382
305 838
305 835
305 345
306 552
306 559
306 562
306 586
306 592
306 601
306 640
306 755
306 765
306 432
306 480
306 407
306 394
306 774
306 697
306 750
306 871
306 346
306 941
306 965
306 582
306 724
306 568
306 620
306 309
306 324
306 930
306 935
306 979
307 602
307 639
307 522
307 792
307 798
307 933
307 971
307 854
307 660
307 512
307 465
307 622
307 764
308 646
308 668
308 739
308 745
308 749
308 753
308 806
308 541
308 444
308 815
308 821
308 847
308 895
308 392
308 396
308 923
308 481
308 575
308 511
309 551
309 559
309 560
309 562
309 586
309 755
309 763
309 811
309 910
309 407
309 891
309 601
309 696
309 572
309 494
309 468
309 926
309 800
309 514
309 882
309 417
309 930
309 935
310 391
310 406
310 536
310 927
310 418
310 550
310 314
310 519
310 690
310 667
310 567
310 636
310 771
310 448
310 589
310 987
310 995
310 919
311 803
311 804
311 547
311 626
311 483
311 924
311 961
311 588
311 757
311 964
311 413
311 996
311 504
311 476
311 491
311 358
311 335
311 558
311 999
311 584
311 845
311 336
311 848
311 681
311 826
312 793
312 481
312 778
312 902
312 406
312 536
312 667
312 418
312 550
312 690
312 567
312 448
312 589
312 599
312 987
312 995
312 867
312 621
312 886
312 367
312 321
313 649
313 651
313 402
313 793
313 538
313 801
313 807
313 424
313 815
313 579
313 325
313 455
313 460
313 602
313 735
313 624
313 561
314 695
314 536
314 690
314 927
314 567
314 448
314 573
314 599
314 563
314 328
314 589
314 987
314 995
314 867
314 654
315 584
315 595
315 600
315 603
315 607
315 733
315 817
315 537
315 318
315 842
315 334
315 857
315 349
315 351
315 888
315 892
315 404
315 412
315 475
315 426
316 902
316 391
316 536
316 418
316 550
316 780
316 448
316 585
316 339
316 987
316 995
316 867
316 621
316 886
316 707
317 424
317 591
317 533
317 698
317 598
317 699
317 414
317 647
317 459
317 724
317 493
317 708
318 525
318 524
318 595
318 600
318 607
318 629
318 718
318 443
318 878
318 834
318 888
318 916
318 952
318 695
318 334
318 715
318 799
318 945
318 795
318 636
318 892
318 343
318 445
318 768
318 349
318 783
318 820
318 903
318 337
318 857
318 722
318 713
318 866
318 733
318 404
318 842
318 423
318 911
318 408
318 885
318 901
318 475
318 938
318 711
318 614
318 361
318 872
318 778
318 717
318 831
318 814
318 412
318 351
318 932
318 604
318 689
318 693
318 992
318 698
318 821
318 763
318 724
319 662
319 426
319 429
319 434
319 950
319 951
319 957
319 748
319 564
319 687
319 846
319 451
319 492
319 502
319 608
319 509
319 694
319 482
319 371
319 677
319 887
319 890
319 325
319 744
319 342
319 865
319 472
320 806
320 415
320 586
320 321
320 611
320 341
320 338
320 828
320 855
320 516
320 875
320 781
320 861
320 659
320 466
320 837
320 334
320 716
320 474
320 859
320 497
321 595
321 385
321 781
321 828
321 864
321 853
321 474
321 516
321 900
321 331
321 341
321 497
322 430
322 909
322 620
322 632
322 674
322 675
322 706
322 710
322 726
322 734
322 740
322 790
322 893
322 835
322 345
322 863
322 884
322 427
322 441
322 454
322 975
322 511
323 447
323 575
323 632
323 657
323 674
323 675
323 706
323 710
323 726
323 734
323 790
323 827
323 835
323 645
323 832
323 953
323 949
323 511
323 410
323 379
323 709
323 907
323 912
323 684
323 682
323 870
323 840
323 345
323 495
323 665
323 975
323 926
323 722
323 332
323 741
323 635
323 863
323 868
323 378
323 427
323 441
324 706
324 559
324 562
324 586
324 640
324 654
324 754
324 755
324 552
324 428
324 582
324 910
324 551
324 979
324 811
324 703
324 572
324 765
324 394
324 432
324 935
324 986
324 480
324 601
324 375
324 515
324 762
324 997
325 651
325 538
325 801
325 421
325 805
325 424
325 946
325 574
325 756
325 528
325 455
325 402
325 780
325 931
325 815
325 369
325 438
325 983
325 460
325 602
325 735
325 624
325 762
325 639
325 714
326 811
326 522
326 779
326 788
326 556
326 721
326 370
326 469
326 531
326 729
326 486
326 989
326 894
326 896
326 590
326 642
326 623
326 899
326 464
326 515
326 751
326 890
326 652
326 338
326 842
326 427
326 789
326 630
326 648
327 541
327 668
327 714
327 745
327 749
327 753
327 847
327 851
327 396
327 923
327 981
327 481
327 595
327 716
328 519
328 530
328 406
328 536
328 542
328 690
328 448
328 712
328 886
328 585
328 867
328 830
328 980
328 668
328 589
328 599
328 987
328 995
328 372
328 979
328 338
329 539
329 554
329 634
329 681
329 700
329 708
329 728
329 736
329 809
329 368
329 415
329 917
329 785
329 873
329 505
329 977
329 438
329 963
329 926
329 701
329 666
329 475
329 386
329 399
329 919
329 936
329 942
329 994
330 517
330 656
330 580
330 453
330 898
330 583
330 839
330 775
330 877
330 489
330 450
330 967
330 787
330 752
330 702
330 356
330 587
330 458
330 833
331 402
331 585
331 385
331 781
331 966
331 466
331 978
331 497
331 962
331 853
331 395
331 516
331 635
331 828
331 341
331 400
331 716
331 855
331 859
332 624
332 981
332 600
332 520
332 400
332 411
332 557
332 442
332 974
332 844
332 366
332 850
332 447
332 887
332 344
332 473
332 874
332 499
332 586
333 442
333 634
333 681
333 784
333 809
333 663
333 957
333 399
333 919
333 936
333 994
333 434
334 692
334 720
334 524
334 595
334 600
334 607
334 689
334 711
334 718
334 842
334 918
334 433
334 614
334 423
334 361
334 992
334 795
334 814
334 820
334 496
334 722
334 799
334 776
334 408
334 822
334 629
334 343
334 778
334 470
334 693
334 715
334 857
334 337
334 872
334 404
334 412
334 866
334 911
334 643
334 892
334 445
334 733
334 810
334 349
334 351
334 885
334 773
334 604
334 916
334 876
334 903
334 713
334 636
334 901
334 615
334 393
334 734
334 534
334 891
334 944
334 888
334 475
334 990
335 450
335 544
335 803
335 547
335 553
335 584
335 845
335 736
335 439
335 848
335 483
335 996
335 358
335 757
335 373
335 586
335 522
336 424
336 959
336 676
336 413
336 544
336 547
336 961
336 964
336 584
336 845
336 996
336 757
336 435
336 784
336 665
336 696
337 524
337 595
337 600
337 604
337 607
337 629
337 636
337 718
337 768
337 817
337 842
337 412
337 713
337 960
337 918
337 878
337 888
337 773
337 857
337 445
337 916
337 722
337 603
337 733
337 992
337 361
337 715
337 831
337 876
337 919
337 472
337 343
337 351
337 404
337 475
337 829
337 816
338 643
338 826
338 896
338 385
338 781
338 978
338 853
338 875
338 859
338 497
339 735
339 530
339 406
339 536
339 418
339 550
339 573
339 448
339 589
339 879
339 982
339 599
339 987
339 995
339 621
339 372
340 900
340 534
340 414
340 679
340 698
340 598
340 570
340 493
340 597
340 880
340 647
340 599
340 836
341 681
341 865
341 592
341 965
341 653
341 385
341 978
341 466
341 828
341 859
341 954
341 635
341 861
341 716
341 516
341 487
341 781
341 875
341 659
341 979
341 855
342 683
342 426
342 687
342 564
342 694
342 502
342 887
342 677
342 509
342 451
342 434
342 608
342 482
342 429
342 492
342 865
342 950
342 748
342 371
342 846
342 662
342 701
342 803
342 757
343 424
343 595
343 600
343 603
343 607
343 614
343 689
343 711
343 718
343 733
343 795
343 817
343 408
343 783
343 412
343 524
343 820
343 713
343 778
343 932
343 773
343 496
343 938
343 722
343 872
343 768
343 952
343 879
343 628
343 665
343 766
343 351
343 885
343 888
343 404
343 475
343 992
344 520
344 411
344 557
344 818
344 955
344 850
344 473
344 350
344 444
344 442
344 860
344 874
344 366
344 556
345 581
345 620
345 665
345 675
345 706
345 710
345 734
345 790
345 800
345 835
345 684
345 870
345 427
345 884
345 759
345 673
345 511
345 495
345 387
345 669
345 384
345 498
345 740
345 912
345 575
345 632
345 840
345 969
345 674
345 356
345 521
345 681
345 868
345 378
345 441
345 454
345 975
346 349
346 936
346 586
346 754
346 755
346 763
346 750
346 986
346 494
346 559
346 461
346 428
346 560
346 420
346 468
346 592
346 993
346 882
346 417
346 930
346 935
346 979
347 356
347 527
347 543
347 416
347 683
347 813
347 691
347 435
347 565
347 440
347 446
347 591
347 720
347 998
347 510
347 412
347 496
348 401
348 403
348 929
348 566
348 568
348 375
348 744
348 889
348 512
348 610
348 722
348 915
348 382
348 968
349 525
349 595
349 600
349 636
349 689
349 711
349 715
349 718
349 857
349 629
349 783
349 945
349 433
349 918
349 404
349 938
349 795
349 475
349 888
349 820
349 810
349 361
349 822
349 872
349 717
349 885
349 445
349 866
349 710
349 398
349 764
349 922
349 571
349 351
349 878
349 892
349 901
349 992
350 536
350 520
350 909
350 540
350 411
350 557
350 818
350 442
350 955
350 447
350 974
350 850
350 473
351 524
351 595
351 600
351 689
351 711
351 713
351 715
351 718
351 842
351 857
351 918
351 433
351 443
351 404
351 820
351 885
351 496
351 408
351 903
351 361
351 695
351 629
351 603
351 445
351 778
351 693
351 831
351 817
351 636
351 470
351 878
351 888
351 938
351 911
351 916
351 607
351 945
351 799
351 776
351 932
351 876
351 773
351 892
351 722
351 604
351 614
351 783
351 475
351 733
351 866
351 981
351 744
351 761
351 949
351 837
351 412
351 992
351 399
351 740
352 668
352 603
352 499
352 710
352 497
352 535
352 431
352 465
352 971
352 612
352 613
352 622
353 518
353 780
353 402
353 807
353 424
353 563
353 436
353 455
353 460
353 602
353 624
353 696
353 879
353 381
353 762
353 889
353 790
354 823
354 513
354 641
354 915
354 928
354 569
354 829
354 897
354 364
354 378
354 741
354 628
355 922
355 801
355 421
355 805
355 807
355 430
355 815
355 946
355 959
355 574
355 460
355 602
355 735
355 624
355 381
355 639
355 529
356 517
356 656
356 787
356 546
356 577
356 450
356 967
356 458
356 578
356 839
356 702
356 838
356 877
356 368
356 603
356 477
356 613
357 586
357 601
357 696
357 754
357 755
357 763
357 882
357 417
357 930
357 935
357 965
358 924
358 413
358 544
358 803
358 547
358 961
358 964
358 584
358 588
358 845
358 996
358 804
358 483
358 757
358 975
358 375
358 524
358 865
359 537
359 539
359 681
359 728
359 809
359 736
359 543
359 367
359 368
359 919
359 415
359 994
359 884
360 541
360 555
360 668
360 676
360 685
360 714
360 753
360 821
360 823
360 847
360 851
360 769
360 782
360 392
360 396
360 419
360 939
360 481
360 532
360 418
360 599
360 726
360 854
361 749
361 524
361 607
361 636
361 689
361 695
361 711
361 718
361 795
361 814
361 842
361 857
361 768
361 433
361 803
361 745
361 381
361 892
361 404
361 412
361 475
362 436
362 646
362 655
362 676
362 685
362 745
362 753
362 821
362 396
362 981
362 711
362 995
362 919
363 541
363 646
363 806
363 391
363 519
363 536
363 667
363 418
363 448
363 585
363 589
363 599
363 987
363 621
363 886
364 897
364 641
364 913
364 786
364 670
364 569
364 829
364 628
364 997
365 680
365 683
365 813
365 435
365 440
365 449
365 591
365 720
365 723
365 631
365 510
366 718
366 520
366 909
366 557
366 818
366 844
366 477
366 874
366 442
366 955
366 990
366 411
366 973
366 447
366 444
366 850
366 617
366 502
366 878
366 499
366 765
367 920
367 554
367 666
367 681
367 705
367 708
367 772
367 770
367 663
367 700
367 386
367 571
367 368
367 399
367 914
367 919
367 926
367 936
367 942
367 994
368 714
368 459
368 666
368 672
368 681
368 708
368 784
368 841
368 956
368 736
368 809
368 921
368 919
368 770
368 663
368 917
368 539
368 705
368 505
368 994
368 438
368 537
368 873
368 719
368 991
368 985
368 700
368 908
368 415
368 399
368 471
368 772
368 701
368 409
368 743
368 936
368 554
368 869
368 914
368 926
368 943
368 386
368 728
368 852
368 785
368 626
368 816
368 949
368 884
368 526
368 942
369 649
369 402
369 801
369 424
369 430
369 946
369 574
369 836
369 460
369 735
369 624
369 381
369 639
369 714
370 741
370 552
370 522
370 779
370 788
370 556
370 590
370 623
370 630
370 890
370 896
370 648
370 393
371 542
371 672
371 719
371 662
371 426
371 687
371 434
371 564
371 950
371 957
371 865
371 492
372 842
372 391
372 530
372 536
372 542
372 690
372 567
372 589
372 982
372 599
372 987
372 995
372 867
372 621
372 406
372 856
372 667
372 573
372 550
372 824
372 886
372 418
372 902
372 448
372 585
372 812
372 805
372 467
373 575
373 620
373 644
373 657
373 675
373 706
373 710
373 734
373 740
373 782
373 790
373 835
373 863
373 379
373 619
373 378
373 427
373 441
373 454
373 975
374 529
374 660
374 535
374 548
374 732
374 613
374 622
374 465
374 533
375 398
375 929
375 549
375 688
375 566
375 983
375 730
375 478
375 610
375 619
375 615
375 605
375 382
375 727
375 988
375 889
375 858
375 761
375 568
375 744
375 403
375 571
375 401
375 762
375 786
375 612
375 711
375 713
376 602
376 514
376 541
376 646
376 668
376 685
376 749
376 753
376 821
376 823
376 851
376 392
376 396
376 425
376 561
376 949
377 541
377 646
377 668
377 685
377 745
377 753
377 821
377 823
377 392
377 396
377 920
377 419
377 425
378 685
378 656
378 818
378 575
378 620
378 665
378 675
378 706
378 710
378 734
378 766
378 790
378 863
378 868
378 884
378 771
378 427
378 410
378 840
378 782
378 441
378 645
378 912
378 644
378 684
378 671
378 731
378 969
378 975
378 581
378 972
378 740
378 495
378 907
378 832
378 794
378 835
378 949
378 843
378 827
378 674
378 508
378 388
378 759
378 632
378 870
378 789
378 800
378 498
378 709
378 747
378 953
378 511
378 433
378 966
378 697
378 654
378 739
378 479
378 406
379 657
379 675
379 706
379 726
379 734
379 747
379 789
379 827
379 835
379 863
379 868
379 884
379 427
379 441
379 454
379 975
379 980
379 511
379 808
380 898
380 775
380 656
380 546
380 450
380 453
380 967
380 583
380 564
380 734
381 780
381 402
381 538
381 801
381 424
381 436
381 879
381 624
381 649
381 762
381 528
381 756
381 460
381 836
381 430
381 563
381 518
381 948
381 455
381 657
381 582
381 560
381 639
381 482
382 735
382 398
382 929
382 940
382 566
382 568
382 610
382 758
382 549
382 403
382 688
382 858
382 727
382 889
382 755
383 655
383 897
383 641
383 913
383 670
383 569
383 829
383 609
383 741
384 833
384 632
384 657
384 675
384 710
384 734
384 766
384 782
384 789
384 790
384 863
384 427
384 441
384 454
385 881
385 621
385 429
385 635
385 853
385 659
385 611
385 864
385 855
385 828
385 716
385 875
385 395
385 954
385 978
385 516
385 962
385 966
385 861
385 466
385 859
385 842
385 965
385 475
385 781
385 474
385 497
386 392
386 537
386 554
386 663
386 681
386 700
386 767
386 809
386 963
386 719
386 769
386 399
386 917
386 919
386 926
386 415
386 994
386 978
387 631
387 689
387 620
387 673
387 675
387 706
387 710
387 734
387 766
387 790
387 827
387 835
387 863
387 884
387 427
387 949
387 441
387 454
387 498
388 780
388 892
388 575
388 671
388 675
388 706
388 710
388 726
388 734
388 790
388 827
388 835
388 863
388 884
388 427
388 949
388 441
388 975
388 980
388 511
389 541
389 646
389 668
389 685
389 692
389 753
389 821
389 851
389 392
389 425
389 481
390 541
390 655
390 668
390 685
390 692
390 749
390 753
390 851
390 862
390 658
390 905
390 565
390 392
390 396
390 419
390 481
390 761
390 723
390 857
390 865
390 675
390 899
390 521
391 812
391 542
391 621
391 690
391 987
391 760
391 667
391 589
391 993
391 599
391 536
391 567
391 530
391 975
391 796
391 552
391 927
391 418
391 824
391 448
391 585
391 995
391 886
392 836
392 646
392 668
392 714
392 745
392 753
392 823
392 825
392 862
392 984
392 456
392 920
392 806
392 704
392 739
392 437
392 837
392 481
392 541
392 937
392 749
392 797
392 847
392 501
392 452
392 425
392 685
392 655
392 676
392 905
392 796
392 514
392 396
392 488
392 419
392 904
392 849
392 958
392 555
392 934
392 738
392 981
392 939
392 769
392 658
392 542
392 472
392 562
393 914
393 620
393 522
393 531
393 788
393 623
393 630
393 894
393 899
393 648
393 464
393 467
393 944
393 652
394 645
394 552
394 559
394 560
394 562
394 572
394 582
394 586
394 654
394 697
394 703
394 765
394 882
394 930
394 935
395 875
395 497
395 861
395 516
395 859
395 853
395 966
395 659
395 716
395 855
395 474
396 514
396 541
396 668
396 676
396 685
396 714
396 753
396 821
396 823
396 825
396 847
396 851
396 437
396 749
396 958
396 481
396 806
396 796
396 739
396 692
396 981
396 984
396 646
396 745
396 738
396 791
396 904
396 419
396 488
396 501
396 797
396 769
396 555
396 655
396 934
396 704
396 939
396 937
396 905
396 837
396 658
396 849
396 397
396 895
396 920
396 456
396 536
396 812
396 874
396 553
396 794
396 424
396 651
396 531
397 541
397 646
397 668
397 676
397 685
397 704
397 714
397 745
397 753
397 821
397 837
397 851
397 425
397 452
397 619
397 440
398 512
398 568
398 730
398 566
398 858
398 605
398 532
398 615
398 940
398 929
398 738
398 916
398 549
398 610
398 818
398 442
399 615
399 537
399 681
399 719
399 919
399 873
399 772
399 672
399 936
399 666
399 852
399 809
399 728
399 539
399 908
399 701
399 994
399 985
399 505
399 736
399 917
399 554
399 869
399 942
399 914
399 921
399 784
399 438
399 767
399 943
399 926
399 743
399 915
399 757
399 489
399 415
399 766
400 923
400 478
400 795
400 520
400 955
400 500
400 909
400 444
400 860
400 557
400 874
400 604
400 411
400 818
400 442
400 973
400 844
400 990
400 997
401 512
401 727
401 403
401 889
401 929
401 571
401 744
401 758
401 605
401 610
401 688
401 983
401 761
401 858
401 979
401 424
401 532
401 988
401 478
401 863
401 648
402 518
402 651
402 893
402 807
402 528
402 579
402 879
402 793
402 563
402 948
402 801
402 805
402 815
402 463
402 762
402 624
402 777
402 424
402 430
402 574
402 479
402 780
402 946
402 858
402 571
402 904
402 875
402 421
402 959
402 455
402 460
402 639
402 598
403 587
403 727
403 512
403 571
403 940
403 988
403 804
403 532
403 566
403 858
403 730
403 889
403 605
403 610
403 758
403 632
404 595
404 603
404 607
404 614
404 636
404 711
404 713
404 718
404 733
404 795
404 810
404 857
404 892
404 901
404 773
404 952
404 866
404 776
404 906
404 992
404 768
404 408
404 834
404 916
404 960
404 799
404 695
404 814
404 911
404 878
404 433
404 445
404 945
404 817
404 888
404 715
404 525
404 820
404 524
404 629
404 938
404 600
404 822
404 885
404 842
404 956
404 828
404 440
404 562
404 860
404 861
404 451
404 412
404 475
404 788
405 525
405 524
405 595
405 607
405 636
405 643
405 711
405 713
405 715
405 718
405 842
405 857
405 892
405 901
405 412
405 475
405 498
405 630
406 542
406 536
406 830
406 995
406 812
406 473
406 927
406 690
406 448
406 589
406 599
406 987
406 621
406 886
406 708
406 515
407 425
407 584
407 545
407 560
407 562
407 586
407 601
407 654
407 754
407 755
407 826
407 417
407 930
407 935
407 979
407 997
408 479
408 595
408 603
408 607
408 614
408 629
408 636
408 711
408 713
408 715
408 718
408 795
408 842
408 888
408 892
408 412
408 475
408 992
408 493
409 681
409 708
409 772
409 873
409 914
409 415
409 956
409 994
410 575
410 620
410 665
410 675
410 684
410 710
410 734
410 747
410 766
410 790
410 827
410 835
410 868
410 884
410 427
410 949
410 441
410 454
410 498
411 520
411 523
411 909
411 447
411 850
411 974
411 818
411 737
411 500
411 955
411 973
411 617
411 499
411 473
411 442
411 860
411 579
411 798
411 649
411 557
411 734
412 458
412 744
412 525
412 524
412 595
412 600
412 607
412 629
412 636
412 689
412 717
412 795
412 817
412 842
412 857
412 892
412 901
412 768
412 733
412 445
412 713
412 866
412 888
412 820
412 693
412 695
412 834
412 911
412 992
412 876
412 916
412 773
412 433
412 885
412 831
412 715
412 718
412 945
412 903
412 603
412 711
412 938
412 783
412 776
412 496
412 906
412 614
412 872
412 470
412 918
412 475
412 878
412 960
412 822
412 937
412 540
412 839
412 727
412 880
413 757
413 999
413 996
413 584
413 804
413 547
413 803
413 844
413 544
413 964
413 588
413 845
413 848
414 688
414 901
414 900
414 533
414 534
414 679
414 597
414 616
414 806
414 756
414 816
414 698
414 880
415 881
415 803
415 616
415 708
415 772
415 809
415 917
415 919
415 926
415 743
415 539
415 784
415 908
415 785
415 956
415 767
415 873
415 991
415 936
415 537
415 505
415 942
415 921
415 728
415 750
415 864
415 994
416 527
416 440
416 925
416 543
416 446
416 723
416 725
416 510
416 637
416 503
416 506
416 565
416 466
416 825
416 435
416 457
416 591
416 631
416 901
416 841
417 919
417 482
417 552
417 559
417 562
417 572
417 582
417 586
417 640
417 654
417 696
417 765
417 811
417 882
417 808
417 947
417 930
417 480
417 941
417 420
417 774
417 763
417 545
417 871
417 592
417 986
417 560
417 910
417 997
417 428
417 551
417 703
417 965
417 996
417 477
417 594
417 963
417 935
418 536
418 667
418 621
418 573
418 542
418 867
418 576
418 422
418 585
418 519
418 927
418 530
418 886
418 824
418 448
418 830
418 638
418 690
418 760
418 599
418 993
418 589
418 995
418 987
418 550
418 812
418 982
418 426
418 664
418 956
418 631
418 675
419 646
419 676
419 714
419 739
419 753
419 821
419 837
419 847
419 704
419 923
419 791
419 749
419 514
419 939
419 541
419 895
419 452
419 655
419 769
419 862
419 796
419 668
419 685
419 920
419 981
419 501
419 801
419 961
419 720
419 425
419 481
419 640
420 562
420 586
420 601
420 640
420 654
420 755
420 763
420 882
420 930
420 935
420 965
421 780
421 661
421 793
421 538
421 801
421 777
421 602
421 528
421 624
421 879
421 807
421 815
421 946
421 436
421 579
421 460
421 735
421 762
421 639
421 817
421 880
421 755
422 718
422 519
422 530
422 536
422 542
422 927
422 993
422 829
422 690
422 448
422 589
422 987
422 995
422 621
423 723
423 525
423 524
423 595
423 600
423 636
423 689
423 713
423 718
423 795
423 842
423 857
423 892
423 901
423 475
423 992
424 777
424 922
424 538
424 801
424 819
424 627
424 780
424 602
424 649
424 735
424 661
424 479
424 463
424 805
424 436
424 579
424 624
424 756
424 563
424 651
424 959
424 518
424 762
424 946
424 948
424 893
424 574
424 931
424 879
424 793
424 902
424 640
424 815
424 455
424 639
425 514
425 541
425 646
425 668
425 676
425 714
425 753
425 821
425 823
425 851
425 934
425 745
425 437
425 984
425 825
425 923
425 655
425 837
425 905
425 456
425 849
425 937
425 739
425 452
425 738
425 958
425 920
425 749
425 592
425 735
425 636
425 720
425 939
425 481
426 662
426 865
426 502
426 694
426 429
426 687
426 434
426 950
426 951
426 957
426 451
426 846
426 492
427 558
427 644
427 665
427 675
427 706
427 710
427 726
427 734
427 766
427 790
427 800
427 835
427 863
427 884
427 747
427 827
427 684
427 771
427 620
427 840
427 632
427 645
427 969
427 980
427 843
427 581
427 673
427 657
427 575
427 794
427 975
427 972
427 907
427 912
427 740
427 441
427 674
427 731
427 439
427 498
427 495
427 870
427 508
427 782
427 709
427 832
427 454
427 868
427 789
427 759
427 953
427 671
427 669
427 608
427 919
427 596
427 741
427 995
427 918
427 429
427 949
427 511
428 620
428 545
428 559
428 586
428 601
428 654
428 696
428 697
428 754
428 755
428 811
428 882
428 930
428 935
428 965
428 997
429 996
429 662
429 950
429 564
429 846
429 748
429 434
429 957
429 451
429 592
429 687
429 865
429 492
429 498
430 518
430 651
430 538
430 801
430 807
430 735
430 436
430 756
430 777
430 627
430 780
430 948
430 624
430 528
430 946
430 579
430 652
430 658
430 460
430 602
430 881
430 639
430 549
430 763
431 886
431 521
431 529
431 660
431 792
431 548
431 933
431 970
431 732
431 881
431 968
431 613
431 622
431 764
432 541
432 595
432 545
432 559
432 562
432 586
432 601
432 654
432 754
432 755
432 763
432 882
432 930
432 935
432 997
432 642
432 781
433 525
433 595
433 607
433 629
433 636
433 689
433 695
433 718
433 733
433 842
433 857
433 888
433 892
433 906
433 711
433 952
433 820
433 992
433 605
433 972
433 796
433 475
433 835
434 982
434 737
434 687
434 865
434 846
434 608
434 951
434 492
434 694
434 564
434 950
434 451
434 748
435 753
435 802
435 813
435 440
435 449
435 742
435 507
435 527
435 725
435 637
435 998
435 457
435 503
435 680
435 683
435 618
435 686
435 691
435 723
435 591
435 883
435 631
435 925
435 510
435 561
435 891
435 747
435 870
435 738
435 565
435 720
435 975
436 801
436 807
436 815
436 946
436 563
436 661
436 931
436 948
436 651
436 463
436 959
436 793
436 785
436 574
436 460
436 735
436 624
436 762
436 639
436 595
436 444
437 541
437 646
437 655
437 745
437 749
437 753
437 806
437 821
437 823
437 851
437 923
437 844
437 766
437 654
438 939
438 610
438 681
438 700
438 708
438 719
438 809
438 914
438 919
438 926
438 994
439 606
439 690
439 620
439 657
439 671
439 675
439 706
439 710
439 747
439 782
439 790
439 835
439 884
439 912
439 441
439 975
439 980
439 498
439 511
440 683
440 691
440 723
440 507
440 543
440 720
440 725
440 503
440 631
440 509
440 863
441 926
441 942
441 632
441 673
441 675
441 710
441 734
441 740
441 782
441 790
441 827
441 835
441 863
441 912
441 949
441 511
441 759
441 498
441 706
441 581
441 508
441 620
441 657
441 684
441 665
441 495
441 976
441 907
441 980
441 972
441 674
441 868
441 870
441 953
441 726
441 884
441 709
441 731
441 747
441 840
441 800
441 766
441 575
441 644
441 975
441 645
441 794
441 832
441 789
441 843
441 682
441 969
441 454
441 821
441 948
441 899
441 905
441 449
441 707
442 520
442 523
442 909
442 557
442 818
442 874
442 617
442 499
442 447
442 444
442 974
442 990
442 860
442 844
442 473
442 500
442 737
442 540
442 477
442 973
442 464
442 715
442 955
442 850
443 524
443 595
443 600
443 603
443 607
443 636
443 693
443 711
443 718
443 733
443 817
443 842
443 857
443 892
443 475
443 597
443 867
443 700
444 927
444 520
444 540
444 557
444 818
444 955
444 447
444 874
444 860
444 617
444 974
444 850
444 473
444 990
444 499
444 935
445 668
445 549
445 524
445 595
445 600
445 636
445 689
445 693
445 711
445 713
445 718
445 768
445 817
445 857
445 885
445 888
445 475
445 975
446 683
446 813
446 565
446 725
446 998
446 686
446 925
446 457
446 691
446 591
446 503
446 631
446 844
446 863
447 568
447 713
447 520
447 523
447 557
447 955
447 973
447 473
447 850
447 462
447 974
447 844
448 842
448 475
448 519
448 536
448 667
448 542
448 927
448 690
448 573
448 585
448 982
448 567
448 576
448 867
448 760
448 987
448 638
448 995
448 599
448 902
448 830
448 812
448 530
448 886
448 856
448 824
448 797
448 825
448 880
448 465
448 895
448 589
448 665
449 683
449 565
449 527
449 637
449 457
449 802
449 813
449 723
449 883
449 625
449 591
449 720
449 631
449 475
449 726
449 826
450 821
450 546
450 650
450 898
450 484
450 517
450 838
450 656
450 702
450 580
450 775
450 839
450 606
450 458
450 795
450 967
450 583
450 506
450 711
451 518
451 455
451 677
451 564
451 950
451 957
451 502
451 748
451 662
451 509
451 687
451 884
451 865
451 482
451 859
452 646
452 676
452 714
452 753
452 821
452 823
452 847
452 851
452 862
452 501
452 685
452 923
452 745
452 692
452 895
452 796
452 809
452 481
452 724
452 664
452 675
453 898
453 702
453 650
453 877
453 458
453 583
453 606
453 967
453 587
453 463
453 484
453 992
453 496
454 575
454 620
454 645
454 675
454 706
454 709
454 710
454 734
454 766
454 790
454 827
454 835
454 868
454 884
454 975
454 976
454 782
454 495
454 511
454 800
454 671
454 843
454 684
454 863
454 832
454 682
454 498
454 980
454 581
454 740
454 870
454 949
454 912
454 747
454 789
454 907
454 731
454 794
454 969
454 632
454 644
454 862
454 606
454 488
454 792
455 518
455 651
455 793
455 538
455 931
455 807
455 815
455 579
455 756
455 624
455 563
455 649
455 762
455 879
455 946
455 574
455 805
455 639
455 528
455 893
455 479
455 943
455 460
455 602
455 735
455 881
455 572
455 965
456 555
456 646
456 668
456 685
456 745
456 749
456 753
456 821
456 823
456 825
456 851
456 981
456 481
457 639
457 683
457 691
457 723
457 507
457 883
457 725
457 618
457 925
457 637
457 510
457 565
457 720
457 543
457 940
457 583
457 591
457 503
457 631
457 992
457 567
458 517
458 775
458 650
458 656
458 580
458 583
458 752
458 552
458 838
458 833
458 888
459 900
459 533
459 679
459 698
459 880
459 593
459 816
459 493
459 699
459 534
459 647
459 783
460 651
460 801
460 807
460 815
460 579
460 639
460 463
460 793
460 959
460 624
460 602
460 518
460 538
460 780
460 948
460 528
460 819
460 879
460 836
460 649
460 756
460 777
460 563
460 805
460 574
460 479
460 661
460 893
460 931
460 858
460 585
460 816
460 543
460 735
461 562
461 586
461 592
461 755
461 811
461 882
461 930
461 935
461 965
461 979
461 997
462 636
462 520
462 523
462 557
462 818
462 955
462 974
462 712
462 850
462 473
462 990
462 874
463 777
463 649
463 780
463 815
463 946
463 948
463 509
463 767
463 879
463 624
463 639
463 718
464 649
464 987
464 755
464 522
464 779
464 531
464 623
464 630
464 890
464 894
464 648
464 652
464 751
465 528
465 526
465 798
465 548
465 660
465 933
465 764
465 613
465 678
465 854
465 622
466 801
466 550
466 966
466 716
466 978
466 487
466 988
466 732
466 855
466 859
467 636
467 820
467 534
467 480
467 531
467 556
467 623
467 630
467 648
467 652
467 472
467 729
467 751
468 559
468 562
468 586
468 601
468 640
468 654
468 696
468 754
468 755
468 763
468 765
468 774
468 882
468 930
468 935
468 997
469 801
469 636
469 589
469 522
469 788
469 556
469 623
469 630
469 653
469 751
470 595
470 600
470 603
470 607
470 614
470 643
470 689
470 711
470 718
470 733
470 810
470 842
470 857
470 888
470 901
470 992
470 644
471 539
471 554
471 681
471 705
471 708
471 736
471 926
471 936
471 994
471 521
472 536
472 767
472 522
472 779
472 556
472 623
472 630
472 896
472 648
472 642
472 890
472 652
472 721
472 590
472 531
472 899
472 495
472 751
473 996
473 520
473 523
473 540
473 818
473 955
473 974
473 617
473 844
473 557
473 990
473 860
473 500
473 909
473 499
473 850
473 477
473 815
473 944
473 874
473 736
473 809
473 710
474 693
474 994
474 781
474 828
474 962
474 978
474 855
474 864
474 487
474 516
474 954
474 966
474 635
474 875
474 598
474 560
474 859
474 497
475 525
475 524
475 603
475 636
475 689
475 711
475 718
475 795
475 820
475 842
475 857
475 888
475 892
475 713
475 773
475 872
475 595
475 810
475 643
475 938
475 778
475 614
475 834
475 866
475 604
475 733
475 918
475 799
475 814
475 496
475 695
475 629
475 717
475 831
475 693
475 952
475 776
475 903
475 901
475 916
475 768
475 906
475 783
475 607
475 992
475 911
475 822
475 960
475 722
475 838
475 997
475 950
475 675
475 588
475 537
475 949
475 586
476 924
476 544
476 803
476 547
476 584
476 848
476 813
476 996
477 892
477 520
477 909
477 540
477 818
477 974
477 499
477 935
478 940
478 983
478 858
478 889
478 610
478 532
478 761
478 727
478 615
478 605
478 688
478 619
478 758
478 576
478 622
479 651
479 922
479 801
479 807
479 815
479 959
479 775
479 879
479 624
479 639
479 604
479 763
479 594
480 562
480 586
480 696
480 755
480 811
480 826
480 882
480 930
480 935
480 552
480 808
480 763
480 750
480 944
480 560
480 727
480 893
480 997
481 807
481 668
481 685
481 714
481 749
481 753
481 847
481 851
481 920
481 981
481 646
481 934
481 821
481 825
481 655
481 895
481 937
481 939
481 739
481 769
481 958
481 738
481 923
481 514
481 797
481 745
481 704
481 658
481 555
481 790
481 859
481 722
481 589
481 488
481 992
482 823
482 677
482 687
482 564
482 950
482 694
482 865
482 509
482 502
482 492
483 544
483 803
483 547
483 961
483 964
483 584
483 588
483 924
483 804
483 757
483 999
483 996
483 626
483 835
483 962
484 676
484 650
484 656
484 839
484 702
484 580
484 752
484 578
484 827
485 559
485 560
485 562
485 586
485 601
485 754
485 755
485 763
485 811
485 930
485 935
485 729
486 522
486 779
486 531
486 556
486 623
486 630
486 642
486 648
487 716
487 978
487 853
487 859
487 828
487 962
487 881
487 875
487 497
488 646
488 668
488 676
488 753
488 821
488 823
488 825
488 895
488 837
488 541
488 984
488 787
488 566
488 733
489 517
489 656
489 580
489 967
489 838
489 546
489 702
489 606
489 650
489 772
490 803
490 681
490 708
490 719
490 852
490 919
490 926
490 994
490 664
490 985
490 943
490 619
490 657
490 949
490 498
490 515
491 931
491 544
491 803
491 547
491 961
491 584
491 845
491 848
491 996
491 669
492 946
492 677
492 687
492 564
492 950
492 865
492 608
492 909
493 900
493 570
493 724
493 534
493 698
493 597
493 616
493 533
493 593
493 880
493 598
494 621
494 926
494 559
494 560
494 562
494 586
494 654
494 703
494 755
494 882
494 930
494 935
494 965
494 997
495 575
495 632
495 675
495 706
495 710
495 734
495 782
495 790
495 835
495 863
495 884
495 975
495 511
496 624
496 683
496 524
496 595
496 600
496 604
496 607
496 689
496 711
496 713
496 718
496 814
496 842
496 857
496 892
496 992
496 693
496 722
496 810
496 660
496 854
497 579
497 717
497 710
497 828
497 978
497 954
497 659
497 875
497 853
497 864
497 962
497 781
497 861
497 716
497 966
497 839
497 602
498 720
498 620
498 632
498 644
498 675
498 682
498 706
498 726
498 734
498 740
498 747
498 790
498 835
498 863
498 868
498 884
498 912
498 949
498 975
498 980
498 827
498 789
498 669
498 710
498 665
498 766
498 832
498 709
498 581
498 800
498 759
498 508
498 731
498 870
498 782
498 671
498 794
498 511
498 673
498 684
498 674
498 972
498 657
498 840
498 907
498 575
498 976
498 953
498 645
498 843
498 584
498 549
498 791
498 941
498 573
499 542
499 520
499 909
499 974
499 850
499 955
499 844
499 500
499 990
499 586
500 888
500 909
500 818
500 973
500 540
500 860
501 514
501 646
501 655
501 668
501 685
501 745
501 753
501 821
501 851
501 862
501 923
501 795
501 570
501 800
502 687
502 564
502 950
502 951
502 957
502 865
502 971
503 527
503 543
503 813
503 561
503 691
503 591
503 720
503 723
503 725
503 742
503 883
503 680
503 625
503 802
503 618
503 637
503 949
503 581
503 533
503 631
503 506
503 955
503 921
503 789
504 538
504 544
504 547
504 961
504 584
504 845
504 848
504 996
504 626
504 757
504 995
505 537
505 634
505 663
505 672
505 681
505 708
505 719
505 772
505 914
505 919
505 921
505 936
505 942
505 994
505 705
505 732
505 602
505 782
506 546
506 925
506 543
506 802
506 680
506 813
506 691
506 565
506 591
506 720
506 723
506 618
506 631
506 942
506 953
506 510
506 846
507 749
507 543
507 802
507 683
507 813
507 565
507 720
507 723
507 725
507 631
507 510
507 841
508 620
508 644
508 671
508 675
508 684
508 710
508 740
508 766
508 790
508 827
508 835
508 863
508 949
508 975
508 511
508 826
509 690
509 677
509 564
509 950
509 951
509 865
509 957
509 694
509 528
510 925
510 683
510 813
510 591
510 720
510 723
510 725
510 631
510 637
510 625
510 883
510 686
510 680
510 565
510 543
510 701
511 720
511 581
511 632
511 675
511 706
511 710
511 734
511 740
511 747
511 790
511 835
511 884
511 975
511 671
511 863
511 789
511 726
511 980
511 949
511 575
511 972
511 665
511 759
511 969
511 645
511 843
511 870
511 731
511 709
511 669
511 800
511 953
511 771
511 620
511 794
511 766
511 782
511 674
511 644
511 827
511 950
511 973
511 946
511 851
511 959
511 582
512 566
512 610
512 940
512 730
512 727
512 758
512 532
512 578
512 929
512 549
512 688
512 568
512 988
512 761
512 755
513 913
513 829
513 609
513 641
513 915
513 633
513 921
513 670
513 569
513 741
513 520
513 990
514 658
514 934
514 704
514 823
514 821
514 981
514 745
514 791
514 676
514 655
514 937
514 965
514 555
514 668
514 685
514 692
514 753
514 851
514 822
514 980
515 547
515 603
515 788
515 522
515 648
515 894
515 751
515 623
515 779
515 556
515 630
516 573
516 954
516 861
516 853
516 864
516 978
516 966
516 781
516 659
516 716
516 859
517 839
517 877
517 587
517 702
517 606
517 787
517 650
517 580
517 546
517 853
517 856
517 634
517 656
517 967
517 583
517 733
517 817
518 805
518 881
518 959
518 836
518 579
518 538
518 602
518 931
518 576
518 649
518 651
518 801
518 807
518 815
518 946
518 735
519 638
519 760
519 886
519 987
519 576
519 993
519 712
519 621
519 856
519 867
519 530
519 902
519 830
519 690
519 536
519 667
519 826
519 678
519 585
519 589
519 599
519 995
520 860
520 557
520 737
520 990
520 874
520 973
520 844
520 540
520 974
520 523
520 850
520 955
520 818
520 909
520 536
520 768
520 645
520 746
521 959
521 735
521 622
521 970
521 660
521 548
521 535
521 746
521 933
521 612
522 545
522 997
522 721
522 894
522 899
522 989
522 531
522 556
522 648
522 642
522 652
522 630
522 590
522 729
522 751
522 844
522 620
522 779
523 909
523 540
523 860
523 557
523 874
523 973
523 687
523 738
523 818
523 850
524 525
524 810
524 722
524 822
524 783
524 776
524 960
524 733
524 713
524 866
524 595
524 903
524 607
524 636
524 817
524 842
524 876
524 992
524 952
524 872
524 795
524 629
524 911
524 945
524 918
524 901
524 603
524 773
524 938
524 799
524 689
524 768
524 762
524 839
524 800
524 587
524 678
524 715
524 718
524 857
524 892
524 537
525 619
525 938
525 733
525 960
525 866
525 872
525 693
525 607
525 715
525 820
525 614
525 842
525 952
525 992
525 903
525 768
525 718
525 695
525 795
525 643
525 814
525 911
525 901
525 799
525 894
525 571
525 666
525 595
525 600
525 713
525 857
525 885
525 888
525 892
525 681
526 779
526 798
526 529
526 746
526 854
526 933
526 535
526 548
526 957
526 833
526 612
526 622
527 625
527 691
527 637
527 742
527 925
527 561
527 802
527 601
527 543
527 686
527 591
527 720
527 723
527 618
527 631
528 777
528 661
528 807
528 762
528 538
528 801
528 946
528 735
528 624
528 881
528 639
528 631
528 690
528 586
528 754
529 906
529 854
529 933
529 798
529 612
529 622
529 764
530 824
530 993
530 995
530 856
530 926
530 536
530 542
530 573
530 589
530 987
530 621
531 590
531 751
531 721
531 652
531 623
531 788
531 779
531 604
531 829
531 890
531 894
531 899
531 648
531 729
532 981
532 571
532 610
532 761
532 688
532 549
532 940
532 730
532 744
532 619
533 900
533 570
533 880
533 698
533 647
533 598
533 699
533 593
533 956
533 769
533 534
534 900
534 570
534 616
534 699
534 647
534 679
534 816
534 698
534 598
534 724
534 880
534 955
534 811
535 919
535 660
535 622
535 764
535 548
535 746
535 594
535 613
535 971
535 970
535 854
535 968
535 653
535 934
536 987
536 993
536 573
536 712
536 830
536 824
536 576
536 812
536 599
536 621
536 902
536 982
536 589
536 886
536 856
536 867
536 550
536 690
536 707
536 966
536 542
536 927
536 585
536 995
536 949
537 672
537 700
537 917
537 705
537 985
537 921
537 991
537 977
537 809
537 841
537 963
537 681
537 936
537 554
537 736
537 943
537 908
537 743
537 539
537 942
537 664
537 719
537 726
537 950
537 708
537 772
537 919
537 926
537 994
537 754
538 777
538 661
538 756
538 959
538 627
538 651
538 946
538 780
538 639
538 815
538 893
538 563
538 948
538 579
538 836
538 931
538 879
538 735
538 793
538 807
538 562
538 624
538 762
538 857
538 673
539 940
539 767
539 936
539 977
539 672
539 896
539 681
539 705
539 719
539 772
539 809
539 919
539 926
539 942
539 994
540 617
540 860
540 557
540 818
540 914
540 980
541 685
541 939
541 984
541 769
541 904
541 849
541 791
541 981
541 905
541 646
541 745
541 739
541 753
541 658
541 837
541 796
541 862
541 934
541 851
541 797
541 731
541 892
541 993
541 655
541 676
541 749
541 821
541 823
541 623
542 667
542 902
542 867
542 690
542 638
542 812
542 567
542 712
542 621
542 982
542 585
542 576
542 550
542 830
542 995
542 993
542 652
542 927
542 824
542 589
542 599
542 987
542 697
543 925
543 725
543 637
543 683
543 625
543 691
543 680
543 644
543 686
543 561
543 720
543 723
543 883
543 631
544 626
544 553
544 584
544 804
544 588
544 558
544 964
544 547
544 845
544 961
544 924
544 996
544 836
544 803
544 758
544 875
545 945
545 910
545 572
545 592
545 763
545 559
545 586
545 654
545 697
545 755
545 811
545 930
545 935
545 997
545 751
546 639
546 833
546 587
546 898
546 702
546 656
546 578
546 771
546 967
546 956
547 924
547 803
547 804
547 626
547 558
547 845
547 588
547 848
547 553
547 961
547 964
547 996
547 640
547 703
547 548
548 649
548 660
548 971
548 968
548 622
548 798
548 612
548 613
548 746
549 946
549 566
549 929
549 619
549 730
549 571
549 688
549 615
549 568
549 889
549 610
549 940
549 727
549 983
549 758
549 590
550 927
550 812
550 867
550 585
550 567
550 993
550 693
550 690
550 589
550 982
550 599
550 987
550 995
551 801
551 592
551 572
551 910
551 755
551 763
551 577
551 586
551 654
551 696
551 707
551 754
551 774
551 811
551 882
551 930
551 935
551 986
552 986
552 640
552 559
552 562
552 586
552 654
552 754
552 763
552 882
552 930
552 935
552 965
552 997
553 563
553 803
553 804
553 964
553 845
553 999
553 996
553 558
553 776
553 584
553 848
553 757
553 713
553 560
554 988
554 977
554 681
554 772
554 841
554 914
554 917
554 919
554 994
555 849
555 769
555 791
555 685
555 646
555 668
555 676
555 749
555 753
555 837
555 851
555 790
556 766
556 986
556 653
556 721
556 779
556 989
556 751
556 642
556 890
556 894
556 623
556 630
556 648
556 729
557 810
557 599
557 909
557 850
557 844
557 990
557 737
557 617
557 860
557 818
557 874
557 955
557 639
557 969
557 615
557 682
558 924
558 803
558 999
558 961
558 584
558 996
558 757
558 595
558 718
559 801
559 703
559 763
559 941
559 654
559 910
559 891
559 944
559 935
559 947
559 755
559 774
559 696
559 765
559 678
559 811
559 697
559 930
559 871
559 586
559 979
559 569
559 635
559 570
559 562
559 754
559 965
560 657
560 675
560 930
560 811
560 562
560 654
560 997
560 941
560 697
560 703
560 910
560 920
560 982
560 586
560 754
560 755
560 882
561 680
561 683
561 565
561 725
561 925
561 883
561 637
561 691
561 591
561 720
561 998
561 631
561 696
562 700
562 592
562 935
562 871
562 750
562 944
562 882
562 997
562 754
562 765
562 808
562 941
562 707
562 654
562 582
562 640
562 774
562 755
562 965
562 986
562 826
562 617
562 565
562 586
562 696
562 763
562 930
563 649
563 801
563 807
563 946
563 948
563 627
563 805
563 819
563 661
563 861
563 574
563 735
563 624
563 881
563 639
563 753
564 837
564 662
564 687
564 748
564 865
564 677
564 846
564 694
564 957
564 951
564 566
564 869
565 762
565 925
565 813
565 591
565 720
565 802
565 998
565 723
565 742
565 683
565 795
565 646
565 897
565 631
565 901
566 688
566 858
566 940
566 983
566 605
566 730
566 988
566 610
566 744
566 758
567 927
567 690
567 667
567 712
567 993
567 606
567 585
567 589
567 599
567 987
567 995
567 886
567 622
568 688
568 615
568 605
568 619
568 571
568 929
568 744
568 889
568 858
568 988
568 610
569 641
569 670
569 829
569 741
569 888
569 596
569 601
569 930
570 842
570 900
570 679
570 598
570 880
571 806
571 688
571 938
571 983
571 858
571 889
571 610
571 744
571 619
571 758
571 662
571 740
571 868
572 586
572 640
572 774
572 910
572 965
572 703
572 592
572 891
572 879
572 601
572 696
572 697
572 754
572 755
572 763
572 808
572 882
572 979
573 688
573 690
573 589
573 987
573 995
573 621
574 801
574 931
574 805
574 815
574 819
574 807
574 881
574 924
574 594
574 624
574 639
575 710
575 740
575 674
575 835
575 972
575 980
575 782
575 840
575 949
575 827
575 657
575 907
575 709
575 731
575 976
575 726
575 789
575 739
575 700
575 644
575 675
575 734
575 766
575 790
575 975
576 927
576 690
576 824
576 853
576 585
576 589
576 982
576 987
576 995
577 851
577 656
577 898
577 587
577 583
577 833
577 712
578 775
578 650
578 656
578 587
578 702
578 580
578 898
578 967
579 801
579 815
579 959
579 777
579 639
579 893
579 780
579 661
579 735
579 953
579 630
579 602
579 862
580 650
580 656
580 702
580 877
580 787
580 606
580 775
580 583
580 631
580 671
580 696
581 629
581 800
581 872
581 620
581 632
581 644
581 674
581 675
581 710
581 734
581 747
581 790
581 835
581 863
581 884
581 949
581 975
581 980
582 745
582 678
582 891
582 586
582 601
582 654
582 754
582 755
582 882
582 930
582 935
582 899
583 656
583 967
583 838
583 775
583 752
583 898
583 650
583 787
583 587
583 624
583 943
583 839
583 833
584 753
584 924
584 803
584 961
584 804
584 999
584 996
584 588
584 848
584 757
584 626
584 845
584 592
584 639
584 731
585 901
585 829
585 902
585 690
585 982
585 621
585 867
585 856
585 993
585 760
585 638
585 589
585 599
585 987
585 995
586 811
586 979
586 808
586 826
586 654
586 947
586 697
586 750
586 882
586 986
586 997
586 965
586 640
586 754
586 707
586 763
586 755
586 592
586 696
586 944
586 601
586 941
586 910
586 678
586 871
586 935
586 774
586 742
586 690
586 765
587 656
587 787
587 702
587 967
587 833
587 877
588 924
588 803
588 961
588 999
588 848
588 804
588 997
588 996
589 983
589 927
589 690
589 824
589 987
589 621
589 902
589 712
589 993
589 812
589 667
589 867
589 995
589 982
589 760
589 638
589 599
589 830
589 737
589 977
589 906
589 994
590 754
590 779
590 630
590 623
590 648
590 751
590 659
591 676
591 680
591 813
591 720
591 691
591 925
591 742
591 686
591 723
591 618
591 683
591 883
591 625
591 725
591 782
591 830
591 631
592 601
592 697
592 979
592 640
592 935
592 882
592 707
592 765
592 750
592 703
592 608
592 630
592 654
592 754
592 763
592 811
592 930
592 997
593 711
593 900
593 816
593 598
593 880
593 798
594 792
594 798
594 933
594 622
594 968
594 854
594 612
594 613
595 952
595 643
595 918
595 857
595 695
595 960
595 717
595 903
595 603
595 885
595 614
595 711
595 888
595 842
595 783
595 834
595 872
595 773
595 778
595 822
595 722
595 795
595 892
595 992
595 715
595 820
595 604
595 810
595 906
595 932
595 938
595 901
595 866
595 768
595 733
595 799
595 876
595 814
595 911
595 948
595 600
595 607
595 629
595 636
595 689
595 647
595 930
596 641
596 913
596 915
596 829
596 633
596 786
596 741
596 928
596 777
597 647
597 679
597 698
597 616
597 880
597 900
597 761
597 598
598 603
598 900
598 647
598 816
598 616
598 994
599 927
599 690
599 993
599 995
599 902
599 982
599 638
599 867
599 667
599 712
599 856
599 760
599 761
599 987
599 886
600 711
600 901
600 715
600 831
600 932
600 799
600 911
600 636
600 773
600 952
600 783
600 778
600 713
600 718
600 903
600 857
600 695
600 820
600 938
600 918
600 888
600 885
600 768
600 866
600 722
600 709
600 973
600 603
600 614
600 733
600 795
600 892
600 628
601 756
601 947
601 882
601 808
601 871
601 707
601 910
601 703
601 754
601 696
601 697
601 979
601 750
601 935
601 941
601 678
601 720
601 971
601 640
601 654
601 763
601 811
601 930
602 777
602 649
602 661
602 793
602 922
602 801
602 807
602 815
602 946
602 624
602 639
602 959
602 627
602 756
602 836
602 762
602 819
602 651
602 931
602 881
602 735
602 780
602 948
602 893
602 879
602 992
602 986
602 911
602 662
603 903
603 945
603 778
603 878
603 695
603 916
603 718
603 888
603 768
603 901
603 711
603 604
603 783
603 722
603 776
603 713
603 932
603 810
603 773
603 938
603 960
603 643
603 831
603 876
603 866
603 918
603 834
603 911
603 872
603 892
603 715
603 874
603 607
603 636
603 693
603 795
603 842
603 906
603 992
603 669
604 823
604 862
604 725
604 715
604 932
604 717
604 814
604 636
604 689
604 711
604 718
604 842
604 857
604 885
604 888
604 892
604 945
604 736
605 688
605 988
605 619
605 718
605 878
606 787
606 967
606 839
606 833
606 890
606 877
606 675
607 810
607 831
607 713
607 992
607 783
607 636
607 643
607 689
607 695
607 857
607 938
607 629
607 918
607 776
607 960
607 795
607 711
607 903
607 866
607 872
607 733
607 901
607 822
607 834
607 876
607 718
607 932
607 717
607 842
607 820
607 952
607 623
607 651
607 817
607 892
608 662
608 950
608 687
608 694
608 887
608 814
608 865
608 798
609 795
609 897
609 915
609 670
609 829
609 913
609 641
609 928
609 628
609 786
609 943
609 696
610 727
610 988
610 744
610 983
610 889
610 929
610 858
610 940
610 615
610 761
610 619
610 758
610 730
610 688
610 678
610 950
610 706
611 845
611 767
611 772
611 694
611 659
611 716
611 859
611 966
611 690
612 854
612 968
612 764
612 746
612 933
612 792
612 686
612 956
612 622
613 961
613 913
613 970
613 746
613 854
613 734
613 728
614 842
614 945
614 768
614 932
614 820
614 817
614 938
614 810
614 903
614 695
614 834
614 799
614 689
614 920
614 636
614 693
614 711
614 718
614 733
614 795
614 857
614 892
614 901
614 747
615 847
615 851
615 929
615 688
615 983
615 933
616 900
616 698
616 724
616 712
617 888
617 909
617 818
617 974
617 850
617 998
617 874
618 683
618 813
618 686
618 691
618 720
618 723
618 631
618 883
618 802
618 725
618 998
618 925
618 797
618 981
619 688
619 983
619 858
619 727
619 889
619 758
619 730
619 988
619 929
619 892
619 750
620 809
620 794
620 726
620 710
620 766
620 832
620 868
620 789
620 747
620 669
620 976
620 657
620 827
620 673
620 671
620 684
620 674
620 782
620 675
620 870
620 967
620 739
620 632
620 706
620 740
620 790
620 835
620 863
620 912
620 642
621 927
621 690
621 982
621 995
621 760
621 667
621 712
621 993
621 886
621 824
621 902
621 987
621 856
621 707
621 734
621 782
621 853
622 894
622 660
622 970
622 968
622 792
622 933
622 798
622 732
622 971
622 764
622 806
622 842
623 814
623 731
623 779
623 652
623 653
623 648
623 894
623 890
623 721
623 751
623 896
623 642
623 788
623 729
623 899
623 863
623 830
623 832
623 772
624 649
624 922
624 801
624 807
624 815
624 946
624 735
624 836
624 780
624 819
624 639
624 893
624 879
624 931
624 805
624 881
624 777
624 948
624 793
624 661
624 959
624 762
624 651
624 756
624 890
624 773
624 913
624 739
624 912
625 821
625 680
625 686
625 691
625 720
625 723
625 725
625 781
625 631
626 803
626 757
627 777
627 801
627 807
627 946
627 959
627 735
627 879
627 762
627 639
627 919
628 897
628 913
628 786
628 829
628 741
628 641
628 633
628 661
628 871
629 996
629 723
629 822
629 722
629 992
629 878
629 689
629 713
629 888
629 643
629 866
629 636
629 711
629 718
629 817
629 820
629 842
629 857
629 892
629 901
630 681
630 975
630 779
630 894
630 652
630 890
630 653
630 642
630 751
630 648
630 822
630 693
631 813
631 720
631 723
631 725
631 691
631 998
631 680
631 683
631 686
631 883
631 802
631 637
631 742
631 772
631 888
632 734
632 832
632 884
632 731
632 972
632 665
632 870
632 976
632 840
632 949
632 671
632 907
632 710
632 674
632 682
632 726
632 706
632 953
632 708
632 669
632 675
632 789
632 790
632 835
632 863
632 912
632 975
633 641
633 786
633 915
633 928
633 829
633 883
633 982
633 705
634 809
634 681
634 670
634 884
634 663
634 666
634 708
634 772
634 841
634 919
634 926
634 994
635 920
635 636
635 781
635 954
635 962
635 978
636 903
636 778
636 906
636 872
636 834
636 768
636 773
636 695
636 992
636 717
636 718
636 783
636 892
636 689
636 810
636 866
636 945
636 960
636 918
636 911
636 878
636 817
636 888
636 814
636 876
636 822
636 932
636 916
636 952
636 722
636 776
636 842
636 795
636 740
636 697
636 694
636 711
636 715
636 857
636 885
636 901
637 825
637 691
637 720
637 723
637 998
638 987
638 995
638 886
638 830
638 867
638 885
638 887
638 985
638 766
639 651
639 801
639 815
639 946
639 735
639 762
639 780
639 948
639 661
639 793
639 777
639 649
639 805
639 959
639 879
639 819
639 756
639 893
639 922
639 918
639 687
639 811
640 696
640 754
640 755
640 763
640 811
640 882
640 930
640 935
640 965
640 979
640 997
641 892
641 829
641 913
641 786
641 897
641 915
641 741
641 670
641 928
641 923
641 895
642 687
642 951
642 896
642 788
642 779
642 721
642 899
642 648
642 751
643 713
643 932
643 817
643 901
643 722
643 715
643 718
643 733
643 822
643 842
643 857
643 992
644 912
644 790
644 710
644 709
644 843
644 782
644 907
644 673
644 706
644 665
644 675
644 684
644 734
644 740
644 789
644 835
644 884
644 975
644 980
644 965
645 969
645 731
645 790
645 863
645 674
645 675
645 682
645 706
645 710
645 734
645 740
645 835
645 868
645 884
645 949
645 975
645 980
646 849
646 934
646 806
646 685
646 791
646 904
646 655
646 797
646 837
646 821
646 753
646 851
646 692
646 825
646 937
646 745
646 796
646 739
646 823
646 920
646 958
646 704
646 658
646 676
646 738
646 714
646 923
646 677
646 740
646 749
646 847
647 900
647 880
647 679
647 698
647 710
648 900
648 698
648 779
648 788
648 899
648 721
648 896
648 890
648 751
648 729
648 653
648 989
648 894
648 660
649 879
649 777
649 780
649 946
649 931
649 762
649 805
649 757
649 793
649 801
649 815
649 961
650 898
650 787
650 656
650 967
650 702
650 720
650 839
650 833
650 878
650 950
651 948
651 661
651 881
651 893
651 777
651 879
651 815
651 855
651 930
651 780
651 801
651 807
651 946
651 994
652 975
652 779
652 751
652 788
652 789
652 681
652 674
653 995
653 771
653 779
653 899
653 729
653 859
654 851
654 774
654 763
654 979
654 891
654 765
654 871
654 944
654 941
654 750
654 703
654 930
654 755
654 965
654 935
654 678
654 882
654 707
654 997
654 808
654 697
654 754
654 986
654 716
655 704
655 714
655 769
655 658
655 676
655 905
655 937
655 895
655 738
655 749
655 851
655 685
655 796
655 849
655 847
655 823
655 920
655 862
655 668
655 891
655 809
655 865
655 753
655 806
656 752
656 838
656 787
656 702
656 775
656 898
656 789
656 972
656 967
656 839
657 671
657 790
657 766
657 835
657 673
657 675
657 706
657 710
657 734
657 740
657 863
657 975
658 895
658 668
658 676
658 714
658 749
658 753
658 821
658 837
658 851
658 862
658 920
658 718
658 863
659 875
659 853
659 859
659 861
659 781
659 716
660 689
660 710
660 930
660 792
660 933
660 971
661 777
661 807
661 762
661 948
661 903
661 793
661 801
661 815
661 946
661 879
662 887
662 957
662 950
662 687
662 846
662 865
663 705
663 772
663 664
663 936
663 921
663 689
663 681
663 784
663 841
663 914
663 919
663 985
664 879
664 926
664 666
664 681
664 700
664 919
664 921
664 994
664 734
665 674
665 759
665 969
665 684
665 843
665 868
665 794
665 682
665 810
665 671
665 675
665 706
665 710
665 734
665 766
665 771
665 790
665 835
665 863
665 949
665 975
665 980
666 719
666 784
666 936
666 956
666 943
666 852
666 738
666 681
666 772
666 919
666 926
666 985
666 994
666 930
667 992
667 902
667 690
667 760
667 824
667 987
667 850
667 995
667 886
668 821
668 685
668 837
668 676
668 745
668 796
668 769
668 849
668 823
668 937
668 851
668 738
668 797
668 904
668 692
668 934
668 825
668 981
668 939
668 984
668 714
668 905
668 951
668 899
668 723
668 808
668 749
668 753
668 847
668 888
669 747
669 789
669 835
669 674
669 843
669 740
669 675
669 706
669 710
669 734
669 790
669 827
669 863
669 949
669 975
669 980
670 862
670 897
670 913
670 829
670 915
670 786
670 755
671 967
671 782
671 789
671 673
671 759
671 766
671 896
671 674
671 675
671 706
671 710
671 734
671 790
671 835
671 863
671 884
671 975
672 821
672 914
672 785
672 784
672 681
672 809
672 919
672 994
673 686
673 884
673 912
673 949
673 863
673 675
673 737
673 710
673 726
673 734
673 740
673 790
673 835
673 868
673 975
674 863
674 843
674 731
674 782
674 972
674 980
674 953
674 975
674 734
674 794
674 912
674 687
674 678
674 680
674 675
674 706
674 710
674 726
674 740
674 747
674 766
674 790
674 835
674 884
675 950
675 868
675 790
675 740
675 907
675 912
675 766
675 731
675 747
675 972
675 682
675 782
675 953
675 863
675 759
675 734
675 794
675 975
675 771
675 706
675 843
675 840
675 800
675 980
675 726
675 789
675 870
675 709
675 949
675 884
675 827
675 835
675 976
675 710
676 920
676 823
676 904
676 769
676 847
676 704
676 797
676 739
676 837
676 937
676 692
676 738
676 849
676 960
676 685
676 753
676 821
676 825
677 887
677 748
677 865
677 951
677 957
677 846
678 685
678 763
678 774
678 882
678 930
678 935
678 979
678 997
679 862
679 900
679 953
679 816
679 698
679 699
679 724
679 880
679 701
680 802
680 720
680 742
680 691
680 842
680 683
680 686
680 723
680 768
680 985
681 821
681 701
681 743
681 841
681 942
681 873
681 772
681 963
681 908
681 770
681 977
681 985
681 852
681 736
681 785
681 994
681 869
681 700
681 943
681 809
681 914
681 728
681 921
681 810
681 960
681 719
681 919
681 936
681 788
682 803
682 884
682 706
682 710
682 734
682 790
682 827
682 835
682 863
682 949
682 975
683 757
683 686
683 802
683 925
683 720
683 723
683 905
683 813
683 725
683 998
683 978
684 753
684 832
684 731
684 740
684 726
684 759
684 782
684 706
684 734
684 790
684 835
684 863
684 884
684 975
685 797
685 739
685 796
685 837
685 753
685 849
685 823
685 806
685 958
685 821
685 904
685 851
685 984
685 939
685 745
685 749
685 825
686 813
686 883
686 802
686 734
686 720
686 723
687 749
687 718
687 994
687 950
687 865
687 748
687 694
687 887
687 846
687 735
687 816
688 940
688 727
688 730
688 983
688 929
688 761
689 831
689 903
689 906
689 878
689 857
689 713
689 834
689 892
689 817
689 842
689 911
689 778
689 876
689 722
689 992
689 715
689 718
689 866
689 960
689 938
689 952
689 795
689 888
689 814
689 776
689 711
689 945
689 695
689 830
689 733
689 810
689 901
690 927
690 867
690 712
690 830
690 856
690 993
690 982
690 987
690 902
690 886
690 995
691 920
691 925
691 813
691 720
691 802
691 723
691 998
691 964
692 981
692 905
692 753
692 714
692 745
692 749
693 945
693 715
693 711
693 713
693 892
693 992
693 965
694 950
694 957
694 739
695 833
695 778
695 713
695 916
695 952
695 711
695 715
695 717
695 718
695 817
695 857
695 885
695 888
695 892
695 992
696 935
696 754
696 808
696 944
696 930
696 763
696 965
696 811
696 882
696 997
696 774
696 750
696 979
696 865
696 765
696 855
697 993
697 754
697 763
697 811
697 882
697 930
697 935
697 997
698 998
698 900
698 816
698 724
698 699
699 816
699 724
699 873
699 880
700 914
700 743
700 785
700 873
700 708
700 728
700 770
700 809
700 919
700 926
700 936
700 994
701 758
701 784
701 943
701 743
701 767
701 994
701 841
701 991
701 963
701 708
701 719
701 728
701 914
701 919
701 926
701 956
701 979
702 898
702 877
702 838
702 954
702 967
702 833
703 765
703 811
703 761
703 755
703 930
703 965
704 791
704 753
704 739
704 821
704 734
704 790
705 985
705 728
705 770
705 784
705 720
705 719
705 772
705 809
705 852
705 919
705 926
705 994
705 930
706 823
706 731
706 790
706 747
706 771
706 980
706 794
706 969
706 789
706 832
706 800
706 976
706 709
706 912
706 884
706 710
706 949
706 759
706 835
706 870
706 953
706 879
706 734
706 766
706 827
706 863
706 975
707 847
707 895
707 997
707 754
707 763
707 811
707 826
707 882
707 930
707 935
707 965
708 736
708 772
708 873
708 943
708 869
708 743
708 809
708 908
708 785
708 936
708 917
708 841
708 926
708 784
708 914
708 919
708 985
708 994
709 843
709 710
709 734
709 740
709 790
709 835
709 863
709 868
709 949
709 975
709 980
710 742
710 782
710 884
710 870
710 975
710 827
710 832
710 969
710 840
710 734
710 843
710 800
710 747
710 759
710 794
710 976
710 949
710 953
710 740
710 868
710 731
710 766
710 789
710 912
710 771
710 726
710 907
710 835
710 863
710 790
710 856
710 801
711 981
711 888
711 713
711 718
711 892
711 814
711 872
711 783
711 820
711 834
711 952
711 715
711 857
711 901
711 945
711 938
711 795
711 992
711 866
711 885
711 906
711 768
711 902
711 928
712 715
712 902
712 982
712 987
712 995
712 886
713 901
713 834
713 903
713 814
713 768
713 885
713 892
713 778
713 799
713 785
713 991
713 718
713 810
713 842
713 857
713 906
714 823
714 939
714 797
714 851
714 904
714 937
714 769
714 837
714 847
714 920
714 796
714 958
714 866
714 749
714 753
714 981
715 945
715 857
715 960
715 820
715 778
715 878
715 901
715 776
715 799
715 892
715 783
715 938
715 989
715 824
715 718
715 733
715 817
715 842
715 992
716 864
716 962
716 978
716 859
717 762
717 720
717 795
717 810
717 842
717 857
717 888
717 892
717 832
717 868
718 866
718 799
718 932
718 722
718 857
718 773
718 778
718 960
718 820
718 872
718 888
718 992
718 768
718 810
718 876
718 903
718 945
718 916
718 878
718 795
718 906
718 952
718 834
718 776
718 938
718 901
718 822
718 892
718 814
718 817
718 842
719 733
719 878
719 926
719 942
719 921
719 919
719 994
719 908
719 956
719 917
719 728
719 770
719 869
719 767
719 772
719 911
719 809
720 839
720 925
720 802
720 813
720 723
720 742
720 998
720 842
720 835
721 884
721 894
721 896
721 899
721 751
722 817
722 842
722 857
722 888
722 892
722 935
723 787
723 925
723 813
723 883
723 742
723 802
723 998
723 725
723 901
723 927
724 900
724 880
725 802
725 813
725 998
725 883
726 835
726 976
726 790
726 843
726 794
726 912
726 840
726 827
726 740
726 930
726 964
726 734
726 766
726 782
726 832
726 863
726 884
726 949
726 975
727 889
727 858
727 744
727 874
727 983
727 988
727 758
727 995
728 977
728 914
728 919
728 926
728 942
728 994
729 779
729 751
729 788
729 890
730 929
730 744
730 858
730 803
730 992
731 735
731 975
731 734
731 766
731 790
731 835
731 863
731 868
731 884
732 933
732 970
732 968
732 854
732 971
732 764
733 822
733 960
733 876
733 820
733 814
733 952
733 810
733 878
733 938
733 911
733 773
733 817
733 885
733 969
733 842
733 892
733 901
734 782
734 759
734 800
734 790
734 789
734 740
734 840
734 953
734 980
734 975
734 766
734 969
734 912
734 832
734 972
734 863
734 794
734 827
734 884
734 843
734 807
734 835
734 868
735 815
735 946
735 807
735 893
735 819
735 879
735 959
735 922
735 881
735 762
735 793
735 805
735 994
736 785
736 908
736 985
736 772
736 841
736 919
736 926
736 994
737 817
737 818
737 990
737 860
738 986
738 745
738 753
738 821
738 825
738 851
738 862
738 981
738 992
739 823
739 753
739 769
739 741
739 749
739 806
739 821
739 851
739 862
739 895
740 761
740 766
740 980
740 794
740 771
740 969
740 949
740 884
740 790
740 753
740 835
740 863
740 975
741 913
741 786
741 829
742 802
742 813
743 768
743 914
743 919
743 926
743 936
743 985
743 994
744 758
744 761
745 821
745 823
745 791
745 905
745 837
745 981
745 797
745 847
745 825
745 796
745 759
745 916
745 749
745 851
745 920
745 882
746 992
746 764
747 870
747 884
747 840
747 771
747 880
747 766
747 790
747 800
747 835
747 863
747 949
747 975
748 950
748 957
748 846
748 865
748 763
749 934
749 851
749 937
749 939
749 796
749 797
749 753
749 905
749 923
749 806
749 849
749 837
749 862
749 895
749 823
749 821
749 769
749 958
749 827
749 856
749 945
750 879
750 889
750 754
750 755
750 826
750 882
750 935
750 979
750 997
751 924
751 779
751 890
751 989
751 899
751 788
751 814
751 842
752 775
752 967
752 833
752 857
753 797
753 984
753 791
753 796
753 920
753 895
753 847
753 806
753 904
753 958
753 923
753 823
753 934
753 825
753 849
753 981
753 769
753 837
753 862
753 937
753 821
753 939
753 851
753 905
753 901
753 799
753 911
753 943
754 825
754 944
754 935
754 910
754 826
754 947
754 979
754 871
754 941
754 763
754 828
754 755
754 811
754 882
754 930
754 997
755 811
755 986
755 891
755 774
755 763
755 826
755 965
755 882
755 910
755 762
755 993
755 930
755 935
755 997
756 931
756 805
756 807
756 815
756 780
756 784
757 803
757 804
757 961
757 845
757 848
757 996
757 964
758 940
758 929
758 761
758 822
758 764
759 948
759 858
759 771
759 782
759 790
759 835
759 868
759 884
759 949
759 975
759 980
760 927
760 824
760 987
760 995
760 886
761 929
761 983
761 940
762 777
762 793
762 801
762 805
762 815
762 946
762 879
762 922
762 893
762 881
762 836
762 768
763 930
763 891
763 947
763 826
763 910
763 965
763 882
763 765
763 898
763 890
763 989
763 811
763 935
763 997
764 819
765 997
765 882
765 774
765 808
765 826
765 944
765 930
765 935
765 965
765 979
766 886
766 863
766 789
766 912
766 835
766 840
766 832
766 868
766 827
766 794
766 828
766 790
766 975
767 784
767 785
767 809
767 914
767 919
767 926
767 936
767 994
768 815
768 817
768 842
768 857
768 878
768 885
768 892
768 945
768 992
769 796
769 821
769 823
770 841
770 830
770 914
770 926
770 985
770 994
770 863
771 883
771 790
771 827
771 835
771 863
771 884
771 912
771 975
771 935
772 942
772 908
772 919
772 991
772 917
772 873
772 977
772 936
772 852
772 784
772 943
772 910
772 914
772 926
772 994
773 814
773 817
773 842
773 857
773 901
773 992
774 851
774 891
774 986
774 947
774 965
774 861
774 866
774 811
774 826
774 882
774 930
774 935
775 898
775 877
775 997
775 967
775 833
775 810
776 805
776 817
776 857
776 888
776 901
777 879
777 801
777 807
777 815
777 946
778 842
778 885
778 888
778 892
779 906
779 989
779 899
779 788
779 920
779 935
779 890
779 894
780 805
780 819
780 881
780 957
780 793
780 801
780 807
780 946
780 879
780 998
780 785
780 846
781 845
781 954
781 859
781 838
781 853
782 880
782 832
782 790
782 840
782 794
782 969
782 865
782 835
782 863
782 884
782 949
782 975
782 980
783 810
783 817
783 842
783 857
784 919
784 977
784 809
784 994
785 874
785 926
785 869
785 809
785 873
785 921
785 936
785 994
786 897
786 915
786 829
786 960
787 967
787 838
788 989
788 896
789 927
789 901
789 790
789 835
789 863
789 949
789 975
790 953
790 980
790 843
790 868
790 969
790 976
790 870
790 972
790 794
790 835
790 907
790 949
790 840
790 832
790 912
790 800
790 827
790 975
790 996
790 955
790 999
790 830
790 863
790 884
791 821
791 823
791 837
791 851
792 995
792 818
792 950
792 968
792 971
793 805
793 893
793 918
793 801
793 815
793 946
794 835
794 868
794 949
794 975
794 854
795 842
795 906
795 820
795 810
795 903
795 911
795 932
795 847
795 857
795 892
795 992
795 979
796 849
796 933
796 883
796 825
796 851
797 821
797 825
797 847
797 851
798 846
798 968
798 933
798 854
799 857
799 892
799 901
799 992
799 882
800 835
800 975
800 971
801 819
801 805
801 948
801 893
801 807
801 931
801 922
801 815
801 881
801 836
801 946
802 925
802 998
802 813
803 924
803 845
803 848
803 964
803 999
803 996
803 804
803 961
803 987
804 924
804 996
804 845
804 999
804 961
804 912
805 807
805 836
805 993
805 815
805 946
805 959
806 849
806 981
806 821
806 934
806 847
806 851
807 931
807 819
807 946
807 879
807 818
807 870
807 822
807 815
807 881
807 929
808 826
808 930
808 935
808 965
808 997
809 895
809 873
809 921
809 919
809 994
809 943
809 977
809 963
809 841
809 936
809 869
809 926
810 911
810 885
810 872
810 878
810 817
810 903
810 919
810 857
810 901
810 992
811 979
811 944
811 871
811 935
811 882
811 930
812 927
812 858
812 995
812 867
812 827
813 925
813 998
813 876
813 935
813 857
813 926
813 863
814 958
814 820
814 842
814 992
814 921
814 835
815 819
815 881
815 946
815 959
815 836
815 948
815 931
815 879
815 922
815 996
815 896
816 900
817 901
817 885
817 892
817 888
817 911
817 992
817 945
817 932
817 866
817 872
817 831
817 960
817 938
817 923
817 842
817 857
818 974
818 874
818 990
818 909
818 844
818 955
818 973
818 850
819 931
820 906
820 842
820 857
820 901
821 837
821 825
821 937
821 862
821 849
821 851
821 939
821 895
821 904
821 923
821 920
821 847
821 934
821 882
822 876
822 952
822 901
822 842
822 857
823 904
823 905
823 984
823 920
823 825
823 847
823 851
823 862
824 902
824 927
824 982
824 995
824 987
825 905
825 939
825 851
825 849
825 853
825 923
826 910
826 965
826 871
826 882
826 930
826 935
826 979
826 997
827 953
827 868
827 980
827 835
827 863
827 884
827 912
827 949
827 975
828 986
828 954
828 987
828 875
829 897
829 913
829 915
829 928
830 982
830 987
830 995
830 949
831 842
831 857
831 885
831 888
831 992
832 912
832 840
832 835
832 863
832 868
832 884
832 975
833 967
833 898
833 838
834 842
834 857
834 888
834 992
835 868
835 972
835 953
835 976
835 969
835 949
835 870
835 912
835 843
835 975
835 980
835 884
835 863
835 840
835 907
835 954
835 895
835 968
836 959
836 893
836 879
837 851
838 967
838 874
839 898
839 967
840 881
840 863
840 884
840 949
840 975
841 847
841 908
841 943
841 956
841 914
841 919
841 936
841 994
842 925
842 906
842 885
842 960
842 903
842 892
842 878
842 911
842 876
842 916
842 945
842 866
842 857
842 938
842 932
842 888
842 992
842 901
842 919
843 863
843 868
843 975
844 909
844 955
844 974
845 924
845 961
845 964
845 996
845 848
846 950
846 957
846 951
846 865
847 849
847 923
847 895
847 939
847 851
847 862
848 961
848 964
848 999
848 869
849 851
849 862
849 939
850 909
850 974
850 990
850 973
850 860
850 955
850 913
850 874
850 894
851 939
851 920
851 937
851 958
851 905
851 934
851 904
851 862
851 923
851 919
852 857
852 869
852 919
853 962
853 930
853 859
854 970
855 875
856 927
856 987
856 995
856 867
857 885
857 878
857 911
857 888
857 876
857 901
857 872
857 916
857 892
857 866
857 938
857 918
857 952
857 945
857 932
857 903
857 976
857 992
858 983
858 903
859 978
859 954
859 875
859 864
859 962
859 861
859 943
860 915
860 909
860 955
860 974
861 980
861 875
862 895
863 995
863 953
863 907
863 912
863 969
863 949
863 868
863 976
863 975
863 884
864 868
864 978
865 951
865 950
865 887
865 957
865 967
866 901
867 927
867 982
867 987
867 995
867 886
867 939
868 912
868 949
868 953
868 972
868 895
868 975
869 919
869 994
870 884
870 912
870 949
870 975
870 980
871 874
871 882
871 930
871 935
871 965
871 986
872 888
872 892
872 901
873 926
873 881
873 919
873 942
873 985
873 994
874 955
874 974
874 909
874 990
874 939
875 978
876 888
876 992
877 898
877 967
877 939
878 992
878 901
879 946
879 881
879 931
879 922
879 948
879 891
880 983
880 900
881 931
881 888
882 910
882 947
882 891
882 930
882 979
882 944
882 965
882 984
882 976
882 908
882 997
884 969
884 907
884 912
884 949
884 914
884 992
885 903
885 911
885 973
885 888
885 892
886 946
886 902
886 987
886 995
886 993
887 950
887 933
888 901
888 911
888 892
888 918
888 992
888 903
888 981
889 988
889 929
890 989
890 899
890 908
890 893
891 930
891 935
891 997
892 952
892 911
892 901
892 916
892 945
892 932
892 992
892 960
892 906
893 922
894 973
894 994
894 899
894 896
895 937
895 923
897 999
900 935
901 992
901 906
901 938
901 922
902 927
902 982
902 987
902 995
903 992
904 920
904 954
906 992
906 935
907 975
908 919
908 926
908 942
908 994
909 973
909 974
910 974
910 930
910 935
910 997
911 992
912 949
912 975
913 915
914 926
914 921
914 936
914 943
914 985
914 977
914 956
914 919
914 994
915 957
916 992
917 994
917 926
917 919
917 936
918 992
919 982
919 977
919 994
919 926
919 921
919 956
919 991
919 985
919 936
919 963
919 942
920 923
921 926
921 942
921 994
921 935
923 984
923 934
923 926
924 961
924 996
925 998
925 987
926 977
926 936
926 994
926 991
926 937
927 982
927 987
927 995
929 940
929 983
930 947
930 965
930 986
930 935
930 944
930 997
930 941
930 979
930 954
931 948
931 946
933 971
935 941
935 944
935 965
935 997
935 947
935 979
935 986
936 942
936 943
936 977
936 994
940 988
940 983
941 997
942 985
942 994
943 994
944 979
944 997
946 948
947 965
947 997
949 975
949 980
949 969
949 972
949 976
949 962
950 951
950 990
950 957
951 957
952 992
953 975
954 966
954 978
955 990
955 974
956 994
957 970
960 992
961 964
961 996
962 978
963 994
964 999
964 996
964 988
964 997
965 979
965 997
968 970
969 975
969 980
972 975
973 974
974 990
974 982
975 976
975 980
977 985
977 994
979 986
979 997
982 995
985 994
986 997
987 995
987 993
993 995
996 999
