0 838
0 230
0 924
0 915
0 904
0 64
0 728
0 537
0 981
0 79
0 218
0 502
0 750
0 523
0 524
0 13
0 128
0 934
0 423
0 505
0 777
0 818
0 264
0 403
0 656
0 741
1 689
1 717
1 82
1 881
1 987
1 566
1 838
1 930
1 587
1 99
1 786
1 818
1 430
1 825
1 741
1 532
1 48
1 60
1 66
1 582
1 73
1 595
1 92
1 726
1 730
1 243
1 340
1 865
1 955
1 41
1 560
1 564
1 146
1 177
1 263
1 551
1 365
1 583
1 287
1 757
1 246
2 495
2 881
2 716
2 566
2 849
2 49
2 340
2 641
2 582
2 740
2 580
2 861
2 643
2 614
2 140
2 442
2 532
2 57
2 66
2 82
2 605
2 99
2 717
2 726
2 730
2 254
2 268
2 310
2 865
2 435
2 768
2 952
2 363
2 31
2 45
2 992
2 809
2 174
2 757
2 998
2 526
3 345
3 435
3 495
3 733
3 772
3 461
3 423
3 514
3 309
3 101
3 405
3 78
3 331
3 30
3 783
3 929
3 898
3 446
3 440
3 802
3 914
3 255
3 871
3 16
3 258
3 317
3 161
3 833
3 948
3 172
3 792
3 877
3 364
3 478
3 97
3 54
3 807
3 462
3 455
3 827
3 581
3 869
3 450
3 403
3 326
3 535
3 982
3 171
3 202
3 286
3 791
3 602
3 966
3 373
3 280
3 306
3 328
3 974
3 349
3 506
3 829
3 529
3 260
3 452
3 362
3 604
3 283
3 608
3 388
3 6
3 957
3 33
3 571
3 80
3 445
3 862
3 634
3 789
3 749
3 766
3 900
3 454
3 956
3 924
3 923
3 585
3 254
3 907
3 959
3 880
3 773
3 394
3 41
3 629
3 400
3 155
3 335
3 708
4 369
4 870
4 63
4 523
4 317
4 30
4 535
4 285
4 440
4 929
4 993
4 604
4 364
4 982
4 255
4 783
4 635
4 474
4 312
4 902
4 648
4 195
4 424
4 559
4 97
4 155
4 172
4 202
4 286
4 446
5 73
5 641
5 625
5 356
5 590
5 798
5 476
5 473
5 132
5 377
5 637
5 934
5 128
5 242
5 149
5 720
5 537
5 512
5 863
5 372
5 570
5 308
5 120
5 229
5 214
5 531
5 95
5 523
5 524
5 13
5 55
5 170
5 505
5 292
5 176
5 291
5 379
6 641
6 50
6 920
6 572
6 624
6 637
6 612
6 413
6 655
6 350
6 201
6 660
6 809
6 855
6 647
6 902
6 164
6 273
6 416
6 861
6 784
6 397
6 546
6 519
6 94
6 630
6 176
6 739
6 240
7 122
7 726
7 648
7 693
7 611
7 124
7 421
7 621
7 489
7 753
7 678
7 585
7 774
7 241
7 423
7 752
7 720
7 53
7 797
7 354
7 479
7 705
7 565
7 324
7 768
7 628
7 13
7 55
7 59
7 149
7 417
7 170
7 684
7 699
7 980
7 878
7 98
7 836
7 542
8 230
8 281
8 370
8 939
8 339
8 663
8 750
8 687
8 41
8 477
8 725
8 291
8 882
8 187
8 245
8 77
8 9
8 26
8 50
8 593
8 90
8 627
8 183
8 719
8 796
8 868
8 870
8 363
8 932
8 469
8 994
8 284
8 657
8 621
8 980
8 632
8 142
9 66
9 885
9 206
9 204
9 663
9 217
9 959
9 281
9 410
9 507
9 665
9 90
9 183
9 787
9 363
9 304
9 750
9 244
9 924
9 687
9 406
9 796
9 370
9 709
9 50
9 545
9 868
9 342
9 173
9 976
9 216
9 939
9 811
9 561
9 296
9 932
9 347
9 884
9 725
9 409
9 339
9 26
9 593
9 991
9 303
9 135
9 418
9 121
9 153
9 792
9 161
9 701
9 613
9 755
9 995
9 580
9 96
9 126
9 785
9 563
9 218
9 595
9 972
9 393
9 766
9 870
9 994
9 643
9 895
9 839
9 968
9 742
9 855
9 16
10 80
10 740
10 151
10 190
10 696
10 968
10 123
10 353
10 17
10 193
10 482
10 861
10 379
10 676
10 741
10 447
10 142
10 320
10 615
10 401
10 257
10 540
10 405
10 71
10 892
10 519
10 526
10 636
10 143
10 713
10 224
10 746
10 799
10 835
10 957
11 717
11 385
11 705
11 227
11 393
11 151
11 848
11 372
11 565
11 210
11 583
11 395
11 360
11 21
11 732
11 339
11 311
11 61
11 216
11 846
11 511
11 623
11 651
11 196
11 708
12 243
12 694
12 72
12 579
12 824
12 19
12 696
12 205
12 808
12 916
12 13
12 146
12 282
12 269
12 527
12 43
12 621
12 374
12 441
12 702
12 210
12 487
12 797
12 306
12 578
13 141
13 880
13 230
13 173
13 102
13 680
13 31
13 551
13 524
13 684
13 946
13 536
13 476
13 585
13 459
13 888
13 762
13 454
13 586
13 980
13 742
13 417
13 698
13 728
13 753
13 64
13 546
13 505
13 59
13 315
13 699
13 774
13 678
13 981
13 147
13 132
13 22
13 752
13 128
13 25
13 489
13 55
13 537
13 720
13 481
13 859
13 375
13 553
13 739
13 160
13 773
13 340
13 697
13 383
13 192
13 828
13 294
13 871
13 561
13 999
13 861
13 708
13 825
13 583
13 494
13 149
13 423
13 170
13 463
13 242
13 270
13 240
13 763
13 252
13 957
14 268
14 314
14 969
14 451
14 916
14 949
14 890
14 764
14 108
14 177
14 780
14 675
14 679
14 777
14 63
14 539
14 544
14 642
14 670
14 220
14 748
14 348
14 393
14 411
14 673
14 196
14 94
14 998
14 741
15 99
15 706
15 767
15 108
15 348
15 910
15 617
15 973
15 52
15 560
15 437
15 894
15 283
15 906
15 465
15 639
15 476
15 222
15 691
15 97
15 638
15 519
15 544
15 589
15 114
15 667
15 670
15 748
15 267
15 795
15 314
15 393
15 949
15 969
15 502
15 644
15 170
15 684
15 242
15 988
15 809
15 413
15 975
15 715
15 734
15 819
15 302
16 254
16 832
16 337
16 904
16 678
16 131
16 305
16 592
16 771
16 280
16 97
16 358
16 779
16 477
16 626
16 941
16 482
16 201
16 559
16 581
16 168
16 202
16 255
16 285
16 386
17 323
17 697
17 749
17 170
17 878
17 836
17 840
17 856
17 434
17 632
17 929
17 449
17 542
17 554
17 636
17 682
17 708
17 713
17 714
17 799
17 320
17 957
18 874
18 645
18 952
18 203
18 109
18 272
18 169
18 236
18 428
18 892
18 517
18 629
18 209
18 767
18 619
18 899
18 115
18 228
18 136
18 44
18 231
18 533
18 230
18 497
18 562
18 652
18 34
18 396
18 989
18 114
18 434
18 715
18 820
18 786
18 749
18 584
18 905
18 76
18 795
18 540
18 622
18 640
18 648
18 481
18 102
18 950
18 181
19 429
19 137
19 269
19 24
19 555
19 265
19 218
19 68
19 834
19 237
19 687
19 501
19 43
19 56
19 579
19 876
19 621
19 374
19 950
19 696
19 702
19 970
19 210
20 874
20 342
20 693
20 949
20 789
20 372
20 37
20 200
20 191
20 376
20 174
20 33
20 185
20 773
20 208
20 771
20 492
20 819
20 745
20 549
20 293
20 936
20 928
20 984
20 76
20 760
20 319
20 531
20 882
20 727
20 708
20 35
20 824
20 252
20 325
20 646
20 730
20 722
20 239
20 757
20 246
20 257
20 264
20 797
20 438
20 443
20 509
21 622
21 541
21 178
21 338
21 360
21 395
21 277
21 634
21 780
21 672
21 803
21 133
21 669
21 550
21 577
21 623
21 755
21 287
21 292
21 911
21 988
21 440
22 263
22 151
22 524
22 55
22 182
22 242
22 981
22 555
22 490
22 462
22 798
22 377
22 128
22 423
22 684
22 698
22 699
22 454
22 980
22 505
22 123
22 778
22 666
22 390
23 406
23 515
23 322
23 265
23 292
23 988
23 519
23 333
23 945
23 79
23 880
23 827
23 222
23 853
23 518
23 134
23 140
23 181
23 739
23 240
23 855
23 860
24 60
24 707
24 254
24 865
24 381
24 870
24 575
24 104
24 852
24 75
24 520
24 269
24 527
24 224
24 745
24 462
24 326
24 124
24 641
24 28
24 38
24 603
24 696
24 210
24 487
24 586
25 99
25 796
25 539
25 909
25 111
25 524
25 473
25 149
25 476
25 678
25 968
25 132
25 774
25 512
25 443
25 350
25 58
25 277
25 782
25 39
25 735
25 934
25 423
25 454
25 505
25 519
25 214
25 46
25 783
26 486
26 152
26 994
26 709
26 530
26 410
26 725
26 687
26 744
26 674
26 939
26 806
26 924
26 593
26 244
26 665
26 719
26 976
26 217
26 500
26 750
26 204
26 627
26 737
26 183
26 370
26 469
26 339
26 296
26 787
26 173
26 491
26 811
26 347
26 407
26 281
26 206
26 884
26 216
26 50
26 991
26 870
26 545
26 663
26 948
26 202
26 546
26 659
26 863
26 758
26 143
26 34
26 905
26 898
26 297
26 579
26 613
26 497
26 771
26 290
26 946
26 442
26 681
26 641
26 236
26 41
26 561
26 363
26 406
26 507
26 852
26 355
26 519
26 140
26 855
26 257
27 740
27 764
27 531
27 511
27 160
27 956
27 137
27 351
27 235
27 598
27 883
27 279
27 138
27 826
27 400
27 164
27 135
27 891
27 756
27 496
27 187
27 754
27 102
27 613
27 541
27 89
27 422
27 394
27 100
27 599
27 806
27 418
27 243
27 487
27 60
27 269
27 319
27 909
27 839
27 246
27 593
27 553
27 397
27 230
27 84
27 611
27 104
27 125
27 190
27 731
27 789
27 842
27 847
27 848
27 858
27 372
27 817
27 494
27 38
27 149
28 562
28 795
28 110
28 954
28 269
28 441
28 727
28 600
28 568
28 56
28 498
28 436
28 341
28 766
28 504
28 218
28 697
28 729
28 702
28 487
28 624
28 749
28 579
28 520
28 62
28 460
28 374
28 621
28 555
28 580
28 667
28 995
28 340
28 410
28 829
28 284
28 887
28 236
28 631
28 856
28 941
28 840
28 38
28 43
28 876
28 205
28 234
28 240
28 722
28 989
29 595
29 495
29 63
29 440
29 957
29 432
29 300
29 272
29 694
29 726
29 110
29 42
29 636
29 669
29 708
29 714
29 224
29 763
29 799
29 330
29 851
30 294
30 375
30 645
30 924
30 393
30 420
30 178
30 353
30 911
30 988
30 299
30 443
30 529
30 373
30 446
30 655
30 943
30 956
30 808
30 282
30 649
30 639
30 54
30 97
30 255
30 335
30 386
31 566
31 865
31 385
31 893
31 470
31 329
31 67
31 356
31 186
31 785
31 552
31 904
31 781
31 493
31 953
31 180
31 301
31 103
31 730
31 190
31 144
31 691
31 188
31 817
31 832
31 415
31 954
31 965
32 127
32 136
32 758
32 273
32 55
32 423
32 732
32 464
32 870
32 851
32 442
32 429
32 85
32 94
32 120
32 134
32 139
32 658
32 739
32 240
32 836
32 864
32 963
32 503
32 362
32 313
33 532
33 340
33 418
33 648
33 217
33 244
33 177
33 883
33 788
33 632
33 615
33 245
33 316
33 941
33 153
33 91
33 439
33 961
33 517
33 366
33 550
33 567
33 677
33 722
33 239
33 257
33 264
33 299
33 438
33 443
33 509
33 529
33 559
34 116
34 770
34 429
34 622
34 466
34 517
34 533
34 431
34 115
34 705
34 955
34 259
34 629
34 645
34 767
34 36
34 738
34 725
34 670
34 338
34 163
34 600
34 571
34 872
34 109
34 880
34 169
34 209
34 470
34 481
34 230
34 159
34 842
34 394
34 43
34 559
35 595
35 310
35 687
35 515
35 301
35 795
35 227
35 490
35 887
35 544
35 58
35 822
35 95
35 670
35 52
35 321
35 693
35 256
35 718
35 890
35 513
35 916
35 114
35 560
35 543
35 83
35 906
35 283
35 845
35 576
35 499
35 177
35 437
35 249
35 449
35 897
35 867
35 609
35 393
35 522
35 909
35 194
35 314
35 146
35 714
35 713
35 551
35 676
35 247
35 863
35 574
35 370
35 198
35 580
35 159
35 180
35 755
35 488
35 559
35 337
35 192
35 517
35 602
35 384
35 108
35 643
35 703
35 748
35 471
35 279
35 826
35 848
35 999
35 696
36 532
36 705
36 817
36 519
36 757
36 257
36 245
36 291
36 936
36 246
36 715
36 773
36 567
36 688
36 548
36 361
36 479
36 498
36 673
36 272
36 793
36 780
36 615
36 130
36 185
36 208
36 722
36 239
36 264
36 299
36 426
36 443
37 617
37 748
37 368
37 288
37 738
37 657
37 323
37 875
37 479
37 337
37 421
37 691
37 365
37 785
37 63
37 954
37 61
37 650
37 420
37 144
37 573
37 965
37 890
37 935
37 372
37 329
37 745
37 765
37 865
37 937
37 43
37 551
37 77
37 664
37 200
37 56
37 815
37 669
38 687
38 183
38 868
38 77
38 696
38 824
38 374
38 876
38 600
38 232
38 729
38 271
38 269
38 772
38 441
38 234
38 950
38 830
38 81
38 672
38 104
38 667
38 741
38 910
38 43
38 56
38 603
38 697
38 487
38 505
38 649
39 517
39 533
39 431
39 899
39 336
39 857
39 215
39 44
39 127
39 230
39 97
39 278
39 198
39 226
39 622
39 640
39 169
39 700
39 706
39 481
39 231
39 868
39 118
39 847
39 53
39 639
39 941
39 320
40 532
40 66
40 179
40 48
40 82
40 874
40 49
40 158
40 735
40 433
40 950
40 871
40 57
40 580
40 73
40 595
40 610
40 116
40 641
40 730
40 740
40 268
40 838
40 841
40 340
40 865
40 648
40 203
40 507
40 110
40 624
40 53
40 755
40 270
40 81
40 615
40 620
40 443
41 340
41 428
41 410
41 868
41 744
41 409
41 173
41 90
41 330
41 537
41 635
41 561
41 593
41 687
41 694
41 183
41 244
41 281
41 806
41 870
41 932
41 507
41 159
41 848
41 965
41 520
41 240
41 426
42 184
42 753
42 360
42 521
42 819
42 378
42 578
42 927
42 211
42 851
42 856
42 313
42 330
42 142
42 252
42 191
42 175
42 532
42 192
42 602
42 865
42 391
42 669
42 682
42 708
42 799
42 320
42 957
43 868
43 693
43 772
43 518
43 775
43 269
43 808
43 461
43 487
43 234
43 56
43 341
43 441
43 600
43 970
43 205
43 601
43 70
43 520
43 460
43 47
43 436
43 624
43 555
43 766
43 498
43 824
43 751
43 765
43 729
43 876
43 950
43 271
43 696
43 265
43 504
43 232
43 62
43 71
43 579
43 749
43 527
43 218
43 556
43 568
43 702
43 374
43 603
43 68
43 695
43 727
43 621
43 592
43 345
43 185
43 410
43 799
43 249
43 307
43 930
43 63
43 687
43 682
43 462
43 270
43 400
43 852
43 353
43 975
43 753
43 285
43 627
43 750
43 304
43 917
43 298
43 210
43 878
43 87
43 945
43 101
44 57
44 768
44 540
44 686
44 776
44 638
44 880
44 952
44 893
44 978
44 533
44 574
44 228
44 336
44 640
44 955
44 872
44 645
44 700
44 770
44 623
44 93
44 674
44 359
44 941
44 284
44 532
44 266
44 196
44 648
44 429
44 431
44 209
44 231
44 932
44 289
44 111
44 172
44 403
45 51
45 356
45 311
45 721
45 785
45 91
45 999
45 297
45 420
45 188
45 996
45 327
45 832
45 904
45 661
45 664
45 738
45 992
45 226
45 484
45 421
45 494
45 186
45 679
45 67
45 913
45 837
45 479
45 853
45 148
45 324
45 389
45 254
45 553
45 244
45 387
45 602
45 924
45 783
45 938
45 189
45 934
45 373
45 621
45 643
45 61
45 63
45 650
45 817
45 365
45 954
45 965
45 997
45 728
45 534
45 319
45 506
46 580
46 726
46 817
46 487
46 529
46 397
46 54
46 260
46 319
46 78
46 171
46 914
46 358
46 769
46 439
46 455
46 871
46 373
46 326
46 440
46 559
46 974
46 405
46 255
46 199
46 438
46 615
46 460
46 156
46 223
46 190
46 608
46 432
46 965
46 581
46 97
46 155
46 168
46 786
46 317
46 335
46 462
47 978
47 560
47 772
47 269
47 765
47 374
47 766
47 775
47 751
47 808
47 988
47 616
47 867
47 300
47 620
47 68
47 71
47 876
47 621
47 441
47 210
47 487
47 94
47 185
47 224
47 799
48 472
48 49
48 184
48 532
48 340
48 485
48 92
48 254
48 930
48 987
48 849
48 730
48 158
48 445
48 610
48 385
48 810
48 384
48 919
48 874
48 243
48 726
48 740
48 882
48 345
48 717
48 580
48 69
48 608
48 387
48 898
48 908
48 575
48 650
48 296
48 667
48 965
48 900
48 282
48 232
48 133
48 911
48 249
48 57
48 66
48 82
48 103
48 117
48 129
48 689
48 310
48 838
48 865
48 369
48 418
48 112
48 247
48 357
48 632
48 855
48 446
48 708
49 532
49 117
49 838
49 99
49 445
49 608
49 150
49 580
49 707
49 418
49 722
49 755
49 565
49 814
49 625
49 60
49 66
49 73
49 82
49 595
49 116
49 726
49 730
49 740
49 243
49 254
49 841
49 340
49 369
49 385
49 495
49 872
49 705
49 406
49 469
49 321
49 761
49 650
50 580
50 582
50 184
50 838
50 787
50 500
50 811
50 303
50 244
50 593
50 976
50 304
50 796
50 409
50 296
50 885
50 725
50 859
50 666
50 271
50 438
50 257
50 795
50 874
50 605
50 449
50 90
50 687
50 183
50 281
50 868
50 363
50 932
50 560
50 894
50 664
50 262
50 453
50 936
50 714
51 776
51 705
51 538
51 552
51 346
51 388
51 551
51 908
51 650
51 368
51 565
51 923
51 661
51 493
51 361
51 673
51 247
51 721
51 943
51 817
51 399
51 837
51 198
51 186
51 144
51 569
51 172
51 363
51 625
51 132
51 281
51 614
51 492
51 462
51 76
51 406
51 165
51 584
51 200
51 788
51 954
51 965
51 55
51 647
51 708
52 231
52 515
52 544
52 301
52 284
52 449
52 855
52 581
52 126
52 458
52 576
52 617
52 108
52 642
52 146
52 220
52 263
52 795
52 867
52 887
52 949
52 61
52 659
52 140
52 548
52 130
52 252
53 899
53 296
53 175
53 524
53 536
53 742
53 762
53 55
53 558
53 980
53 934
53 699
53 463
53 541
53 84
53 221
53 382
53 59
53 149
53 417
53 678
53 170
53 968
53 728
53 473
53 505
53 360
53 902
54 725
54 744
54 516
54 494
54 950
54 722
54 299
54 559
54 462
54 101
54 255
54 783
54 285
54 982
54 604
54 403
54 402
54 168
54 309
54 113
54 802
54 898
54 718
54 972
54 182
54 375
54 841
54 85
54 365
54 366
54 129
54 579
54 356
54 155
54 668
54 286
54 869
54 373
54 386
54 682
55 574
55 681
55 355
55 793
55 523
55 524
55 241
55 888
55 505
55 64
55 728
55 546
55 946
55 752
55 699
55 586
55 753
55 459
55 981
55 170
55 473
55 377
55 315
55 149
55 132
55 762
55 698
55 208
55 930
55 179
55 466
55 282
55 478
55 776
55 716
55 745
55 247
55 562
55 831
55 423
55 242
55 563
55 285
56 616
56 169
56 789
56 200
56 775
56 527
56 504
56 205
56 498
56 468
56 950
56 766
56 374
56 520
56 808
56 556
56 518
56 621
56 436
56 71
56 68
56 218
56 749
56 547
56 70
56 765
56 62
56 729
56 579
56 702
56 624
56 876
56 269
56 600
56 697
56 970
56 487
56 441
56 704
56 152
56 437
56 109
56 965
56 134
56 422
56 67
56 793
56 767
56 151
56 372
56 277
56 651
56 420
56 432
56 66
56 502
56 601
56 696
56 210
56 292
56 528
56 757
57 532
57 608
57 99
57 73
57 874
57 103
57 385
57 189
57 930
57 641
57 635
57 582
57 882
57 375
57 359
57 689
57 266
57 740
57 805
57 803
57 716
57 129
57 310
57 587
57 82
57 418
57 60
57 122
57 987
57 345
57 445
57 179
57 610
57 472
57 841
57 605
57 784
57 80
57 838
57 117
57 435
57 726
57 150
57 495
57 70
57 223
57 119
57 431
57 602
57 725
57 782
57 118
57 269
57 434
57 148
57 631
57 229
57 898
57 763
57 902
57 417
57 525
57 498
57 186
57 570
57 66
57 92
57 730
57 268
57 340
57 369
57 932
57 541
57 848
57 493
57 621
57 702
57 425
58 717
58 340
58 564
58 393
58 670
58 437
58 538
58 451
58 539
58 74
58 532
58 403
58 668
58 617
58 112
58 220
58 267
58 411
58 949
58 502
58 104
58 153
58 847
58 422
58 356
58 953
58 755
58 945
58 620
58 291
58 238
58 252
59 66
59 533
59 892
59 111
59 512
59 684
59 423
59 476
59 586
59 546
59 170
59 488
59 699
59 505
59 128
59 698
59 536
59 685
59 558
59 762
59 241
59 845
59 677
59 133
59 808
59 167
59 812
59 356
59 617
59 519
59 295
59 416
59 934
59 678
59 463
59 980
59 473
59 753
59 242
59 86
59 630
59 174
60 532
60 570
60 375
60 610
60 495
60 605
60 243
60 919
60 717
60 635
60 838
60 80
60 608
60 445
60 810
60 418
60 141
60 596
60 156
60 867
60 917
60 289
60 877
60 171
60 145
60 541
60 66
60 582
60 92
60 99
60 150
60 179
60 254
60 865
60 369
60 385
60 553
60 399
60 493
60 149
60 615
60 896
60 993
60 542
61 209
61 557
61 691
61 565
61 251
61 875
61 551
61 357
61 247
61 673
61 793
61 992
61 996
61 781
61 847
61 972
61 728
61 522
61 133
61 275
61 63
61 67
61 650
61 661
61 200
61 839
61 346
61 904
61 965
61 338
61 426
61 807
62 865
62 263
62 91
62 775
62 269
62 527
62 950
62 579
62 667
62 849
62 544
62 693
62 565
62 68
62 624
62 374
62 696
62 441
62 702
62 210
62 487
62 277
62 191
62 757
63 116
63 545
63 314
63 552
63 557
63 679
63 479
63 247
63 793
63 596
63 415
63 388
63 661
63 551
63 664
63 467
63 297
63 311
63 913
63 361
63 631
63 457
63 288
63 584
63 365
63 399
63 967
63 673
63 382
63 67
63 724
63 484
63 992
63 408
63 565
63 368
63 91
63 174
63 587
63 812
63 556
63 833
63 385
63 448
63 697
63 383
63 299
63 538
63 701
63 621
63 932
63 562
63 478
63 710
63 75
63 200
63 788
63 817
63 839
63 630
63 757
63 257
63 443
63 97
64 268
64 348
64 411
64 186
64 908
64 399
64 523
64 524
64 377
64 742
64 537
64 586
64 385
64 657
64 326
64 714
64 281
64 357
64 149
64 417
64 423
64 699
64 968
64 463
64 980
64 242
64 505
64 277
64 630
64 176
64 155
65 740
65 418
65 639
65 222
65 519
65 935
65 332
65 191
65 958
65 433
65 115
65 506
65 538
65 933
65 448
65 85
65 606
65 630
65 632
65 134
65 647
65 181
65 739
65 240
65 809
65 855
65 503
65 113
66 179
66 605
66 608
66 740
66 141
66 189
66 96
66 122
66 495
66 635
66 784
66 972
66 919
66 375
66 99
66 580
66 930
66 116
66 69
66 689
66 391
66 268
66 243
66 707
66 345
66 445
66 582
66 385
66 485
66 150
66 369
66 92
66 610
66 435
66 641
66 730
66 805
66 340
66 117
66 384
66 103
66 192
66 266
66 838
66 595
66 716
66 254
66 874
66 107
66 310
66 294
66 467
66 781
66 142
66 622
66 824
66 578
66 678
66 215
66 296
66 572
66 396
66 389
66 387
66 324
66 613
66 494
66 638
66 901
66 465
66 634
66 421
66 715
66 879
66 918
66 82
66 616
66 841
66 619
66 822
66 950
66 534
66 258
66 799
67 616
67 717
67 838
67 893
67 114
67 575
67 731
67 219
67 551
67 853
67 144
67 573
67 965
67 992
67 578
67 855
67 688
67 716
67 213
67 111
67 534
67 718
67 596
67 148
67 186
67 721
67 788
67 817
67 365
67 908
67 923
67 577
67 639
67 948
67 676
68 73
68 281
68 314
68 775
68 269
68 579
68 766
68 520
68 71
68 695
68 460
68 772
68 547
68 702
68 518
68 461
68 621
68 624
68 603
68 765
68 232
68 970
68 824
68 436
68 374
68 600
68 205
68 504
68 212
68 440
68 517
68 368
68 687
68 248
68 908
68 875
68 467
68 666
68 217
68 400
68 639
68 105
68 876
68 696
68 210
68 727
68 487
68 423
68 534
68 510
68 291
68 829
69 532
69 243
69 122
69 849
69 881
69 616
69 810
69 141
69 972
69 419
69 259
69 490
69 331
69 160
69 582
69 73
69 82
69 99
69 158
69 730
69 794
69 865
69 418
69 978
69 244
69 283
69 723
69 763
70 209
70 530
70 949
70 572
70 137
70 232
70 568
70 527
70 624
70 487
70 621
70 461
70 411
70 247
70 186
70 123
70 164
70 483
70 117
70 374
70 970
70 519
70 757
70 669
71 730
71 874
71 259
71 837
71 772
71 265
71 269
71 504
71 468
71 702
71 824
71 766
71 762
71 309
71 91
71 954
71 544
71 456
71 512
71 257
71 876
71 696
71 210
71 487
71 131
71 879
71 739
71 264
71 438
71 509
71 581
71 255
72 707
72 533
72 593
72 539
72 544
72 560
72 906
72 909
72 129
72 291
72 729
72 591
72 112
72 114
72 643
72 710
72 220
72 748
72 263
72 782
72 887
72 393
72 949
72 969
72 575
72 584
72 775
72 742
72 505
72 813
72 549
72 688
72 529
72 636
72 156
72 851
73 532
73 582
73 707
73 116
73 359
73 784
73 740
73 92
73 369
73 158
73 107
73 266
73 838
73 881
73 495
73 391
73 345
73 625
73 971
73 637
73 512
73 600
73 772
73 208
73 82
73 616
73 635
73 166
73 726
73 730
73 243
73 268
73 865
73 212
73 617
73 693
73 611
73 118
73 644
73 441
73 988
73 961
74 532
74 254
74 838
74 627
74 806
74 95
74 267
74 276
74 102
74 104
74 842
74 903
74 427
74 864
74 554
74 636
74 143
74 708
74 799
74 851
75 709
75 795
75 834
75 175
75 551
75 552
75 886
75 337
75 467
75 875
75 661
75 493
75 382
75 817
75 456
75 346
75 188
75 588
75 839
75 557
75 408
75 650
75 679
75 713
75 183
75 518
75 857
75 117
75 425
75 979
75 725
75 342
75 866
75 144
75 148
75 738
75 832
75 389
75 269
75 696
75 353
75 121
75 809
75 855
75 615
75 529
75 669
76 579
76 145
76 745
76 563
76 430
76 426
76 805
76 113
76 914
76 89
76 722
76 221
76 734
76 239
76 246
76 245
76 264
76 797
76 401
76 438
76 509
77 266
77 572
77 575
77 551
77 584
77 200
77 323
77 738
77 650
77 312
77 862
77 361
77 365
77 997
77 494
77 817
77 636
77 84
77 645
77 743
77 175
77 891
77 144
77 148
77 664
77 188
77 832
77 837
77 337
77 904
77 965
77 999
77 269
77 621
77 630
77 559
77 682
77 250
78 375
78 806
78 560
78 795
78 314
78 240
78 185
78 245
78 529
78 559
78 581
78 97
78 155
78 168
78 255
78 792
78 829
78 349
78 373
78 386
79 717
79 431
79 867
79 356
79 527
79 157
79 519
79 628
79 675
79 918
79 311
79 837
79 698
79 198
79 210
79 85
79 87
79 630
79 660
79 836
80 532
80 582
80 641
80 608
80 485
80 435
80 384
80 254
80 418
80 930
80 874
80 595
80 345
80 707
80 635
80 580
80 536
80 97
80 448
80 668
80 855
80 262
80 920
80 82
80 99
80 184
80 730
80 740
80 243
80 268
80 838
80 340
80 865
80 375
80 748
80 104
80 889
80 163
80 221
80 525
81 203
81 531
81 188
81 579
81 521
81 404
81 550
81 773
81 757
81 246
81 900
81 797
81 567
81 984
81 683
81 426
81 801
81 760
81 541
81 529
81 830
81 407
81 191
81 629
81 356
81 615
81 722
81 257
81 264
81 438
81 373
81 708
82 532
82 580
82 582
82 381
82 384
82 587
82 717
82 784
82 141
82 391
82 385
82 369
82 919
82 107
82 472
82 849
82 122
82 972
82 129
82 882
82 794
82 268
82 435
82 345
82 254
82 610
82 375
82 641
82 96
82 294
82 874
82 445
82 99
82 566
82 117
82 810
82 150
82 116
82 730
82 495
82 805
82 605
82 192
82 243
82 803
82 367
82 825
82 521
82 407
82 693
82 955
82 421
82 574
82 833
82 97
82 144
82 410
82 318
82 798
82 586
82 133
82 191
82 839
82 353
82 731
82 393
82 174
82 165
82 654
82 608
82 616
82 726
82 340
82 865
82 212
82 228
82 545
82 477
82 949
82 178
82 632
82 658
82 316
82 779
82 851
83 310
83 381
83 872
83 515
83 538
83 560
83 591
83 220
83 822
83 987
83 115
83 266
83 626
83 643
83 670
83 748
83 795
83 814
83 844
83 949
83 471
83 200
83 996
83 934
83 684
83 240
83 313
84 116
84 470
84 593
84 515
84 575
84 516
84 380
84 613
84 903
84 422
84 852
84 555
84 586
84 867
84 691
84 260
84 599
84 611
84 100
84 104
84 118
84 680
84 219
84 761
84 322
84 329
84 842
84 848
84 858
84 372
84 965
85 418
85 519
85 975
85 961
85 632
85 94
85 963
85 528
85 333
85 139
85 655
85 371
85 433
85 735
85 998
85 351
85 428
85 179
85 157
85 136
85 190
85 120
85 658
85 176
85 199
85 240
85 864
85 503
85 208
85 708
86 533
86 857
86 104
86 753
86 242
86 222
86 332
86 843
86 145
86 889
86 630
86 963
86 392
86 739
86 87
86 823
86 166
86 447
86 695
86 376
86 888
86 345
86 94
86 134
86 647
86 675
86 176
86 201
86 240
86 864
86 975
86 172
87 730
87 485
87 348
87 895
87 704
87 612
87 647
87 735
87 765
87 847
87 930
87 94
87 98
87 120
87 134
87 658
87 214
87 975
87 404
88 466
88 267
88 575
88 848
88 613
88 985
88 873
88 680
88 756
88 354
88 842
88 237
88 938
88 474
88 720
88 195
88 849
88 331
88 111
88 151
88 322
88 329
88 847
88 852
88 372
88 511
88 684
88 360
88 521
88 550
88 165
89 231
89 758
89 969
89 541
89 572
89 366
89 850
89 599
89 164
89 671
89 293
89 898
89 92
89 221
89 871
89 93
89 100
89 102
89 151
89 187
89 190
89 219
89 237
89 322
89 842
89 848
89 852
89 352
89 355
89 372
89 148
89 238
90 872
90 593
90 737
90 491
90 303
90 870
90 924
90 216
90 627
90 530
90 347
90 173
90 885
90 500
90 217
90 709
90 725
90 585
90 215
90 894
90 549
90 956
90 109
90 286
90 96
90 271
90 152
90 687
90 932
90 469
90 994
90 507
90 414
90 612
90 503
90 682
91 254
91 865
91 363
91 137
91 551
91 584
91 657
91 365
91 832
91 493
91 922
91 698
91 229
91 504
91 664
91 188
91 788
91 817
91 346
91 862
91 913
91 954
91 684
91 120
91 257
91 998
91 286
92 532
92 595
92 919
92 495
92 107
92 930
92 987
92 359
92 141
92 384
92 184
92 385
92 445
92 849
92 635
92 435
92 150
92 117
92 570
92 192
92 129
92 294
92 972
92 99
92 158
92 189
92 96
92 587
92 689
92 391
92 472
92 726
92 580
92 740
92 608
92 381
92 810
92 493
92 195
92 850
92 747
92 181
92 273
92 725
92 847
92 320
92 993
92 330
92 546
92 832
92 463
92 962
92 958
92 488
92 303
92 790
92 616
92 254
92 268
92 841
92 340
92 865
92 874
92 369
92 932
92 711
92 237
92 372
92 394
92 565
92 282
92 246
92 746
93 124
93 681
93 711
93 847
93 848
93 322
93 852
93 219
93 541
93 863
93 922
93 187
93 826
93 380
93 225
93 434
93 597
93 790
93 354
93 372
93 985
93 398
93 496
93 850
93 151
93 352
93 858
93 891
93 320
93 730
93 97
93 282
93 760
93 772
93 692
93 766
93 977
93 849
93 578
93 824
93 554
93 813
93 611
93 100
93 118
93 680
93 842
93 355
93 997
93 798
93 519
93 658
93 255
94 266
94 530
94 218
94 139
94 350
94 181
94 961
94 392
94 945
94 918
94 199
94 618
94 105
94 864
94 823
94 739
94 120
94 902
94 704
94 517
94 479
94 239
94 418
94 525
94 415
94 756
94 574
94 897
94 134
94 140
94 660
94 855
94 677
94 155
94 869
95 184
95 706
95 515
95 560
95 564
95 642
95 667
95 283
95 782
95 387
95 674
95 297
95 614
95 972
95 108
95 112
95 693
95 267
95 284
95 348
95 920
95 949
95 842
95 971
95 415
95 762
95 239
95 896
95 202
96 532
96 717
96 803
96 849
96 587
96 865
96 570
96 863
96 952
96 669
96 131
96 610
96 99
96 117
96 641
96 689
96 726
96 730
96 340
96 345
96 435
96 640
96 670
96 897
96 588
96 210
96 630
96 176
96 550
96 567
96 280
96 390
96 957
97 534
97 253
97 529
97 581
97 101
97 255
97 358
97 168
97 260
97 334
97 328
97 786
97 452
97 783
97 914
97 898
97 405
97 869
97 827
97 535
97 335
97 319
97 792
97 948
97 171
97 113
97 306
97 172
97 993
97 364
97 402
97 389
97 120
97 997
97 795
97 976
97 543
97 672
97 146
97 254
97 644
97 541
97 148
97 463
97 533
97 432
97 663
97 155
97 668
97 258
97 317
97 326
97 373
97 386
97 440
97 506
98 466
98 357
98 954
98 223
98 519
98 632
98 945
98 823
98 975
98 425
98 333
98 647
98 958
98 889
98 612
98 371
98 912
98 105
98 960
98 864
98 715
98 657
98 622
98 482
98 844
98 344
98 608
98 629
98 938
98 630
98 120
98 139
98 653
98 176
98 739
98 843
98 855
98 239
99 532
99 580
99 582
99 184
99 810
99 243
99 726
99 268
99 381
99 129
99 179
99 254
99 874
99 881
99 610
99 384
99 689
99 141
99 841
99 294
99 805
99 107
99 472
99 616
99 566
99 495
99 570
99 803
99 385
99 418
99 641
99 608
99 987
99 189
99 605
99 972
99 345
99 716
99 551
99 800
99 113
99 480
99 405
99 402
99 330
99 695
99 336
99 443
99 300
99 728
99 490
99 347
99 368
99 496
99 465
99 917
99 223
99 477
99 116
99 150
99 740
99 838
99 340
99 398
99 404
99 171
100 730
100 254
100 541
100 575
100 599
100 731
100 372
100 422
100 151
100 235
100 274
100 901
100 367
100 475
100 863
100 111
100 723
100 412
100 788
100 131
100 880
100 221
100 350
100 419
100 418
100 673
100 890
100 118
100 159
100 681
100 190
100 219
100 842
100 848
100 414
100 148
100 696
100 453
100 519
100 559
101 595
101 477
101 153
101 664
101 269
101 696
101 798
101 149
101 360
101 458
101 140
101 948
101 982
101 869
101 792
101 248
101 535
101 362
101 594
101 328
101 364
101 559
101 285
101 871
101 807
101 303
101 393
101 587
101 264
101 716
101 772
101 534
101 881
101 178
101 995
101 158
101 155
101 668
101 258
101 335
101 386
101 682
102 865
102 481
102 108
102 599
102 151
102 761
102 541
102 826
102 138
102 274
102 279
102 956
102 149
102 925
102 286
102 111
102 118
102 187
102 237
102 329
102 848
102 852
102 354
102 372
102 749
102 780
102 299
103 580
103 582
103 595
103 381
103 716
103 972
103 150
103 910
103 928
103 854
103 104
103 491
103 635
103 726
103 730
103 838
103 340
103 865
103 369
103 385
103 418
103 495
103 513
103 544
103 834
103 144
103 487
103 119
104 689
104 865
104 572
104 598
104 599
104 611
104 380
104 400
104 396
104 956
104 138
104 151
104 111
104 351
104 398
104 826
104 412
104 922
104 137
104 135
104 761
104 873
104 883
104 790
104 190
104 118
104 110
104 372
104 355
104 723
104 733
104 847
104 125
104 414
104 235
104 160
104 671
104 756
104 187
104 159
104 863
104 926
104 613
104 789
104 367
104 483
104 153
104 225
104 124
104 901
104 219
104 516
104 903
104 731
104 366
104 842
104 496
104 541
104 394
104 815
104 969
104 947
104 573
104 411
104 141
104 115
104 610
104 384
104 602
104 399
104 228
104 290
104 673
104 693
104 781
104 937
104 409
104 833
104 370
104 928
104 637
104 336
104 274
104 322
104 329
104 852
104 965
104 417
104 282
104 335
105 740
105 272
105 398
105 661
105 788
105 837
105 494
105 235
105 434
105 630
105 181
105 739
105 290
105 855
105 864
105 975
105 171
105 320
106 605
106 122
106 429
106 976
106 671
106 680
106 187
106 569
106 527
106 534
106 307
106 712
106 892
106 763
106 440
106 301
106 623
106 119
106 131
106 651
106 270
106 292
106 878
106 911
106 988
106 612
106 563
106 819
107 532
107 635
107 192
107 190
107 578
107 894
107 438
107 689
107 717
107 243
107 838
107 865
107 874
107 381
107 385
107 435
107 495
107 619
107 138
107 421
107 757
107 526
107 763
108 919
108 939
108 543
108 609
108 256
108 283
108 194
108 471
108 845
108 973
108 617
108 499
108 969
108 146
108 844
108 925
108 576
108 278
108 949
108 800
108 307
108 123
108 178
108 952
108 595
108 727
108 474
108 991
108 803
108 372
108 112
108 114
108 177
108 693
108 748
108 795
108 314
108 348
108 895
108 393
108 219
108 953
108 374
108 315
108 224
108 741
109 369
109 272
109 533
109 540
109 571
109 574
109 872
109 203
109 648
109 899
109 619
109 706
109 517
109 893
109 857
109 955
109 136
109 686
109 770
109 466
109 336
109 561
109 358
109 839
109 860
109 812
109 851
109 912
109 772
109 718
109 646
109 640
109 431
109 705
109 209
109 481
109 228
109 231
109 190
109 837
109 653
109 656
110 841
110 598
110 611
110 531
110 237
110 355
110 329
110 354
110 789
110 680
110 396
110 175
110 956
110 125
110 160
110 926
110 597
110 151
110 412
110 135
110 511
110 863
110 111
110 400
110 850
110 137
110 858
110 159
110 971
110 483
110 945
110 449
110 697
110 287
110 248
110 669
110 222
110 488
110 566
110 645
110 416
110 562
110 842
110 848
110 852
110 651
110 778
111 129
111 730
111 614
111 665
111 687
111 244
111 233
111 263
111 516
111 597
111 329
111 754
111 662
111 842
111 153
111 671
111 219
111 847
111 531
111 572
111 187
111 124
111 996
111 362
111 749
111 606
111 337
111 620
111 911
111 323
111 560
111 118
111 644
111 159
111 848
111 852
111 352
112 972
112 560
112 973
112 642
112 490
112 800
112 499
112 949
112 643
112 513
112 348
112 276
112 710
112 820
112 897
112 501
112 920
112 564
112 969
112 465
112 986
112 589
112 387
112 301
112 845
112 522
112 278
112 703
112 455
112 242
112 326
112 132
112 398
112 497
112 178
112 738
112 412
112 140
112 815
112 596
112 318
112 764
112 256
112 321
112 867
112 471
112 118
112 128
113 740
113 700
113 263
113 415
113 201
113 559
113 581
113 869
113 807
113 386
113 668
113 833
113 602
113 169
113 526
113 823
113 770
113 133
113 894
113 202
113 255
113 317
114 648
114 515
114 522
114 560
114 564
114 895
114 710
114 267
114 887
114 393
114 449
114 800
114 822
114 263
114 283
114 305
114 353
114 170
114 779
114 816
114 396
114 733
114 372
114 703
114 314
114 348
114 920
114 949
114 471
114 186
114 247
114 512
114 864
114 246
114 155
115 268
115 435
115 770
115 517
115 533
115 540
115 562
115 574
115 614
115 872
115 619
115 622
115 899
115 700
115 706
115 203
115 978
115 481
115 663
115 873
115 583
115 581
116 566
116 972
116 375
116 385
116 838
116 641
116 345
116 716
116 580
116 472
116 605
116 391
116 874
116 919
116 882
116 595
116 268
116 849
116 810
116 674
116 273
116 424
116 630
116 778
116 853
116 367
116 143
116 726
116 730
116 254
116 310
116 340
116 369
116 418
116 705
116 852
116 954
116 205
116 509
117 532
117 580
117 582
117 122
117 391
117 158
117 849
117 641
117 726
117 379
117 128
117 785
117 565
117 241
117 292
117 604
117 730
117 254
117 310
117 838
117 865
117 369
117 385
117 648
117 481
117 424
117 858
117 473
117 651
117 979
117 526
117 713
118 533
118 477
118 541
118 572
118 599
118 754
118 983
118 761
118 956
118 355
118 237
118 531
118 160
118 190
118 731
118 511
118 322
118 852
118 219
118 125
118 597
118 901
118 516
118 644
118 235
118 496
118 848
118 164
118 352
118 863
118 372
118 366
118 400
118 680
118 903
118 329
118 137
118 279
118 858
118 873
118 790
118 922
118 847
118 850
118 394
118 367
118 274
118 532
118 915
118 906
118 282
118 508
118 320
118 781
118 499
118 960
118 677
118 568
118 143
118 710
118 944
118 260
118 642
118 210
118 368
118 384
118 812
118 649
118 671
118 159
118 187
118 711
118 354
118 398
118 862
118 479
118 692
118 778
118 155
118 286
118 957
119 882
119 723
119 696
119 577
119 623
119 123
119 921
119 282
119 343
119 732
119 905
119 275
119 534
119 261
119 633
119 813
119 825
119 879
119 458
119 353
119 122
119 226
119 645
119 482
119 502
119 891
119 241
119 504
119 594
119 651
119 180
119 383
119 911
119 240
119 714
120 469
120 284
120 329
120 354
120 837
120 456
120 534
120 519
120 630
120 658
120 945
120 201
120 140
120 961
120 145
120 975
120 191
120 612
120 809
120 935
120 655
120 425
120 240
120 918
120 701
120 823
120 503
120 739
120 963
120 836
120 392
120 371
120 841
120 798
120 998
120 428
120 516
120 966
120 190
120 345
120 940
120 885
120 312
120 553
120 539
120 750
120 486
120 632
120 134
120 660
120 675
120 176
120 855
120 446
121 169
121 231
121 737
121 590
121 528
121 961
121 612
121 203
121 813
121 410
121 632
121 134
121 140
121 154
121 176
121 201
121 240
121 836
121 975
121 503
121 759
122 532
122 570
122 310
122 184
122 504
122 533
122 689
122 726
122 730
122 243
122 254
122 874
122 375
122 435
122 693
122 581
122 604
122 799
123 231
123 643
123 205
123 577
123 307
123 907
123 343
123 635
123 166
123 651
123 292
123 911
123 140
123 306
123 682
124 375
124 507
124 644
124 159
124 858
124 903
124 599
124 598
124 656
124 973
124 702
124 456
124 151
124 723
124 731
124 733
124 237
124 842
124 848
124 852
124 372
124 817
124 487
124 145
124 843
124 757
124 168
125 894
125 575
125 322
125 873
125 847
125 891
125 422
125 754
125 516
125 434
125 681
125 671
125 164
125 135
125 351
125 175
125 813
125 981
125 962
125 539
125 457
125 746
125 950
125 564
125 897
125 151
125 159
125 680
125 237
125 274
125 329
125 842
125 848
125 852
125 354
125 414
125 753
125 675
125 293
125 156
126 640
126 348
126 422
126 934
126 699
126 728
126 753
126 239
126 947
126 509
126 446
126 636
126 143
126 682
126 708
126 763
126 302
126 957
127 192
127 272
127 872
127 622
127 466
127 574
127 955
127 428
127 648
127 776
127 327
127 433
127 931
127 474
127 686
127 431
127 705
127 706
127 212
127 159
127 365
127 864
128 254
128 524
128 590
128 798
128 170
128 790
128 840
128 866
128 440
128 934
128 423
128 684
128 448
128 473
128 753
128 975
128 529
128 714
129 532
129 582
129 616
129 641
129 716
129 740
129 340
129 566
129 384
129 726
129 328
129 453
129 565
129 701
129 947
129 166
129 689
129 730
129 254
129 266
129 838
129 381
129 435
129 495
129 322
129 579
129 696
129 529
129 143
130 340
130 880
130 515
130 329
130 567
130 615
130 185
130 922
130 861
130 513
130 208
130 722
130 757
130 246
130 245
130 264
130 797
130 293
130 819
130 438
130 358
131 730
131 687
131 814
131 954
131 623
131 639
131 977
131 879
131 292
131 921
131 988
131 223
131 907
131 995
131 222
131 275
131 649
131 464
131 344
131 189
131 760
131 852
131 735
131 283
131 429
131 651
131 859
131 353
131 360
131 878
131 911
131 140
131 371
131 143
132 635
132 348
132 788
132 751
132 523
132 524
132 804
132 962
132 153
132 155
132 298
132 416
132 417
132 980
132 615
132 677
132 246
133 591
133 886
133 739
133 979
133 161
133 636
133 856
133 418
133 687
133 204
133 816
133 159
133 682
133 713
133 320
133 957
134 533
134 466
134 932
134 795
134 519
134 630
134 176
134 191
134 836
134 735
134 704
134 653
134 701
134 935
134 503
134 606
134 333
134 425
134 963
134 660
134 240
134 958
134 214
134 632
134 612
134 229
134 290
134 139
134 325
134 658
134 945
134 960
134 912
134 392
134 628
134 201
134 332
134 918
134 433
134 855
134 647
134 809
134 961
134 618
134 823
134 154
134 915
134 400
134 817
134 921
134 532
134 898
134 223
134 341
134 813
134 512
134 866
134 412
134 193
134 555
134 227
134 800
134 529
134 903
134 769
134 680
134 272
134 363
134 587
134 721
134 941
134 140
134 255
134 320
135 340
135 561
135 709
135 531
135 541
135 572
135 575
135 644
135 958
135 441
135 138
135 151
135 159
135 322
135 329
135 842
135 852
135 354
135 372
135 380
135 988
135 519
135 240
135 349
135 439
136 768
136 770
136 533
136 540
136 857
136 880
136 638
136 640
136 874
136 417
136 218
136 372
136 648
136 169
136 431
136 700
136 705
136 706
136 209
136 481
136 138
136 842
136 848
136 839
136 535
136 335
137 776
137 640
137 217
137 814
137 949
137 572
137 611
137 644
137 329
137 723
137 671
137 516
137 274
137 213
137 350
137 882
137 529
137 151
137 680
137 187
137 219
137 237
137 322
137 842
137 848
137 372
137 155
137 869
137 636
138 952
138 593
138 870
138 194
138 598
138 611
138 361
138 364
138 151
138 219
138 237
138 789
138 329
138 848
138 852
138 355
138 372
138 398
138 148
138 934
138 606
138 660
138 975
138 833
138 526
139 150
139 838
139 643
139 584
139 374
139 632
139 647
139 214
139 325
139 855
139 145
139 392
139 528
139 628
139 191
139 655
139 240
139 255
139 520
139 283
139 978
139 897
139 338
139 417
139 501
139 341
139 893
139 140
139 660
139 176
139 201
139 836
139 979
139 549
140 740
140 932
140 994
140 491
140 348
140 949
140 398
140 519
140 240
140 176
140 199
140 918
140 413
140 704
140 975
140 735
140 855
140 325
140 350
140 332
140 660
140 963
140 809
140 935
140 392
140 528
140 145
140 658
140 229
140 628
140 701
140 958
140 618
140 653
140 606
140 630
140 290
140 843
140 902
140 818
140 191
140 864
140 243
140 804
140 250
140 362
140 253
140 833
140 742
140 600
140 351
140 690
140 221
140 937
140 375
140 761
140 664
140 573
140 183
140 201
140 739
140 712
140 155
141 595
141 616
141 881
141 192
141 359
141 566
141 640
141 460
141 904
141 528
141 184
141 268
141 784
141 838
141 369
141 495
141 159
141 680
141 374
141 524
141 637
141 818
141 792
142 870
142 748
142 749
142 149
142 757
142 542
142 636
142 821
142 856
142 509
142 449
142 857
142 794
142 682
142 708
142 746
142 238
142 851
142 957
143 481
143 407
143 975
143 615
143 525
143 636
143 856
143 666
143 964
143 252
143 763
143 830
143 224
143 318
143 211
143 821
143 736
143 957
143 708
143 313
143 379
143 462
143 368
143 745
143 150
143 280
143 715
143 773
143 225
143 444
143 682
143 713
143 714
143 799
143 851
144 552
144 588
144 186
144 420
144 273
144 691
144 785
144 679
144 767
144 806
144 255
144 956
144 949
144 664
144 673
144 188
144 200
144 724
144 738
144 788
144 817
144 832
144 346
144 862
144 886
144 954
144 965
144 341
144 210
144 755
144 383
144 433
144 246
144 833
145 641
145 268
145 348
145 723
145 724
145 697
145 632
145 647
145 961
145 290
145 528
145 655
145 199
145 889
145 949
145 620
145 928
145 730
145 328
145 243
145 660
145 176
145 181
145 836
145 855
145 257
145 298
145 255
145 211
146 794
146 560
146 625
146 617
146 916
146 643
146 814
146 267
146 465
146 887
146 973
146 718
146 618
146 868
146 425
146 244
146 756
146 805
146 263
146 795
146 289
146 348
146 894
146 411
146 949
146 969
146 225
146 903
146 817
146 824
146 343
146 734
147 874
147 899
147 645
147 212
147 657
147 188
147 311
147 389
147 696
147 774
147 524
147 377
147 416
147 459
147 505
147 280
147 211
148 564
148 909
148 657
148 361
148 817
148 415
148 724
148 408
148 198
148 954
148 875
148 368
148 421
148 588
148 584
148 200
148 346
148 673
148 323
148 479
148 923
148 365
148 992
148 551
148 297
148 788
148 942
148 557
148 953
148 965
148 996
148 631
148 343
148 159
148 605
148 758
148 264
148 255
148 622
148 175
148 773
148 386
148 720
148 902
148 990
148 209
148 664
148 691
148 188
148 837
148 967
148 181
148 443
148 581
148 362
149 617
149 194
149 858
149 808
149 590
149 241
149 980
149 774
149 536
149 546
149 182
149 934
149 315
149 170
149 512
149 678
149 505
149 684
149 558
149 888
149 608
149 983
149 332
149 440
149 763
149 324
149 479
149 900
149 402
149 946
149 463
149 753
149 963
149 550
150 580
150 582
150 595
150 865
150 418
150 369
150 605
150 740
150 874
150 805
150 260
150 501
150 986
150 228
150 289
150 373
150 312
150 730
150 243
150 268
150 838
150 841
150 340
150 385
150 209
150 593
150 267
150 915
150 219
150 998
150 362
151 348
151 572
151 597
151 611
151 983
151 613
151 873
151 883
151 159
151 475
151 681
151 671
151 711
151 322
151 414
151 598
151 394
151 680
151 756
151 496
151 372
151 531
151 733
151 380
151 842
151 723
151 731
151 516
151 396
151 858
151 483
151 922
151 190
151 422
151 225
151 541
151 926
151 279
151 754
151 575
151 789
151 850
151 761
151 846
151 329
151 237
151 354
151 153
151 398
151 847
151 520
151 600
151 512
151 515
151 491
151 582
151 365
151 537
151 843
151 463
151 760
151 308
151 425
151 532
151 692
151 833
151 510
151 685
151 316
151 909
151 445
151 628
151 296
151 848
151 852
151 999
151 271
151 621
151 441
151 270
151 519
151 191
151 778
151 819
152 566
152 230
152 530
152 593
152 627
152 663
152 206
152 347
152 183
152 197
152 370
152 976
152 870
152 289
152 516
152 181
152 794
152 783
152 777
152 636
152 281
152 363
152 932
152 469
152 970
152 163
153 909
153 502
153 575
153 599
153 733
153 756
153 225
153 531
153 761
153 653
153 339
153 282
153 331
153 187
153 711
153 789
153 842
153 858
153 352
153 354
153 372
153 577
153 739
153 778
153 386
154 545
154 544
154 839
154 623
154 519
154 606
154 632
154 658
154 449
154 852
154 268
154 456
154 176
154 214
154 739
154 240
154 290
154 855
155 561
155 507
155 511
155 269
155 876
155 417
155 809
155 722
155 529
155 358
155 319
155 993
155 974
155 285
155 328
155 869
155 786
155 161
155 331
155 450
155 898
155 405
155 326
155 914
155 807
155 373
155 929
155 829
155 317
155 871
155 260
155 248
155 403
155 982
155 402
155 791
155 344
155 514
155 364
155 940
155 452
155 440
155 802
155 361
155 865
155 378
155 815
155 273
155 330
155 745
155 610
155 813
155 921
155 385
155 410
155 274
155 765
155 570
155 789
155 168
155 783
155 335
156 435
156 609
156 351
156 315
156 240
156 165
156 542
156 554
156 636
156 238
156 379
156 851
156 909
156 983
156 955
156 380
156 682
156 708
156 320
156 957
157 230
157 909
157 534
157 623
157 651
157 639
157 577
157 427
157 223
157 383
157 162
157 554
157 618
157 755
157 292
157 353
157 866
157 360
157 988
157 712
157 529
157 682
158 532
158 580
158 616
158 914
158 900
158 453
158 598
158 726
158 730
158 740
158 268
158 794
158 340
158 865
158 369
158 385
158 159
158 346
158 590
158 458
158 618
158 843
158 245
158 373
159 532
159 254
159 216
159 572
159 575
159 599
159 611
159 164
159 414
159 398
159 496
159 511
159 971
159 842
159 475
159 380
159 613
159 662
159 279
159 160
159 354
159 926
159 790
159 219
159 903
159 422
159 754
159 883
159 846
159 367
159 852
159 826
159 901
159 322
159 187
159 848
159 483
159 938
159 954
159 658
159 694
159 638
159 408
159 166
159 545
159 738
159 676
159 707
159 945
159 440
159 624
159 350
159 937
159 237
159 372
159 772
159 264
159 797
160 814
160 531
160 541
160 611
160 644
160 289
160 932
160 457
160 681
160 761
160 322
160 848
160 858
160 354
160 624
160 168
161 834
161 348
161 894
161 190
161 188
161 277
161 353
161 989
161 168
161 202
161 308
161 552
161 427
161 922
161 373
162 340
162 491
162 515
162 251
162 888
162 728
162 753
162 519
162 299
162 636
162 669
162 759
162 708
162 713
162 714
162 799
162 835
162 957
163 184
163 480
163 642
163 551
163 200
163 479
163 876
163 213
163 567
163 773
163 430
163 900
163 299
163 174
163 990
163 944
163 690
163 592
163 989
163 715
163 831
163 851
163 971
163 977
163 667
163 350
163 656
163 785
163 677
163 722
163 221
163 253
163 257
163 264
163 797
163 936
163 438
163 443
163 636
163 708
164 575
164 671
164 175
164 833
164 464
164 640
164 292
164 187
164 237
164 761
164 852
164 372
164 454
164 529
164 328
165 709
165 348
165 696
165 441
165 315
165 660
165 299
165 167
165 443
165 521
165 509
165 492
165 816
165 195
165 734
165 208
165 378
165 742
165 614
165 823
165 566
165 925
165 712
165 715
165 757
165 257
165 896
165 438
166 532
166 582
166 595
166 605
166 610
166 689
166 240
166 501
166 167
166 315
166 726
166 730
166 740
166 243
166 865
166 874
166 369
166 385
166 418
166 435
166 495
166 477
166 625
166 895
166 808
166 732
166 988
166 402
167 640
167 667
167 795
167 822
167 599
167 200
167 651
167 201
167 615
167 677
167 495
167 885
167 278
167 649
167 274
167 688
167 722
167 239
167 757
167 257
167 264
167 797
167 936
167 438
167 443
167 509
167 763
168 570
168 806
168 897
168 611
168 529
168 581
168 349
168 260
168 594
168 462
168 450
168 898
168 248
168 833
168 940
168 929
168 668
168 478
168 309
168 506
168 877
168 439
168 622
168 717
168 460
168 980
168 323
168 207
168 612
168 972
168 225
168 435
168 960
168 258
168 373
168 386
168 440
168 708
169 540
169 872
169 622
169 640
169 648
169 705
169 770
169 978
169 899
169 429
169 638
169 431
169 497
169 272
169 481
169 892
169 230
169 672
169 619
169 517
169 336
169 758
169 700
169 614
169 665
169 884
169 883
169 837
169 389
169 352
169 261
169 498
169 360
169 696
169 231
169 920
169 632
169 975
169 317
170 872
170 663
170 348
170 175
170 673
170 346
170 218
170 524
170 934
170 742
170 586
170 417
170 762
170 182
170 558
170 888
170 416
170 423
170 590
170 637
170 454
170 699
170 685
170 507
170 598
170 236
170 971
170 482
170 809
170 500
170 629
170 409
170 757
170 184
170 783
170 295
170 684
170 463
170 980
170 777
170 823
170 239
170 509
170 373
171 841
171 672
171 197
171 304
171 342
171 380
171 551
171 793
171 888
171 559
171 487
171 296
171 609
171 831
171 286
171 386
172 622
172 552
172 287
172 240
172 902
172 438
172 529
172 829
172 405
172 373
172 953
172 473
172 314
172 815
172 258
172 335
172 439
173 545
173 561
173 593
173 491
173 216
173 744
173 238
173 679
173 564
173 392
173 183
173 737
173 244
173 870
173 932
173 477
173 994
173 372
173 422
173 691
173 832
173 487
173 528
173 647
173 851
173 957
174 707
174 259
174 706
174 355
174 577
174 911
174 519
174 550
174 492
174 239
174 440
174 983
174 618
174 657
174 690
174 246
174 819
174 438
174 443
174 998
175 838
175 381
175 303
175 407
175 256
175 572
175 599
175 611
175 902
175 639
175 190
175 322
175 842
175 852
175 374
175 946
175 864
175 299
176 566
176 381
176 429
176 787
176 477
176 731
176 832
176 988
176 519
176 630
176 632
176 675
176 961
176 739
176 199
176 392
176 777
176 655
176 975
176 935
176 229
176 647
176 809
176 325
176 628
176 889
176 332
176 735
176 612
176 918
176 912
176 823
176 818
176 855
176 660
176 864
176 503
176 413
176 528
176 425
176 658
176 214
176 240
176 704
176 960
176 333
176 201
176 836
176 181
176 433
176 290
176 618
176 338
176 532
176 927
176 370
176 374
176 512
176 610
176 908
176 868
176 526
176 634
176 368
176 803
176 996
176 584
176 795
176 407
176 581
176 737
176 713
176 235
176 366
176 810
176 828
176 482
176 221
176 246
177 268
177 865
177 706
177 515
177 539
177 543
177 560
177 589
177 670
177 748
177 834
177 513
177 501
177 284
177 916
177 411
177 194
177 490
177 544
177 499
177 703
177 690
177 649
177 863
177 982
177 532
177 799
177 857
177 237
177 263
177 267
177 314
177 949
177 322
177 624
177 232
177 416
177 246
177 264
178 267
178 348
178 664
178 624
178 980
178 534
178 577
178 623
178 639
178 723
178 617
178 406
178 911
178 988
178 181
178 836
178 889
179 566
179 587
179 641
179 810
179 984
179 387
179 338
179 195
179 726
179 730
179 254
179 805
179 310
179 841
179 340
179 865
179 369
179 385
179 418
179 573
179 200
179 739
179 317
180 667
180 451
180 875
180 534
180 577
180 651
180 732
180 626
180 780
180 813
180 911
180 988
180 909
180 280
180 641
180 375
180 491
180 216
180 360
180 878
180 246
181 648
181 411
181 644
181 274
181 817
181 287
181 828
181 988
181 332
181 735
181 979
181 660
181 214
181 864
181 897
181 582
181 685
181 891
181 210
181 594
181 201
181 739
181 240
181 836
181 503
181 581
181 373
182 665
182 267
182 599
182 671
182 965
182 775
182 520
182 523
182 524
182 417
182 678
182 448
182 577
182 658
182 316
182 439
182 799
183 385
183 530
183 561
183 593
183 665
183 217
183 281
183 545
183 709
183 244
183 932
183 870
183 197
183 403
183 895
183 277
183 645
183 861
183 732
183 239
183 642
183 719
183 796
183 363
183 406
183 469
183 477
183 237
183 761
183 366
183 337
183 487
183 655
183 549
183 559
183 829
183 799
184 532
184 605
184 616
184 369
184 838
184 730
184 810
184 865
184 391
184 587
184 570
184 717
184 716
184 874
184 340
184 243
184 650
184 367
184 479
184 954
184 602
184 365
184 726
184 254
184 385
184 562
184 629
184 852
184 372
184 505
184 567
185 481
185 424
185 852
185 234
185 377
185 550
185 567
185 615
185 688
185 298
185 559
185 237
185 370
185 306
185 734
185 253
185 257
185 264
185 293
185 438
185 443
185 509
185 255
185 792
185 827
186 582
186 730
186 310
186 557
186 569
186 992
186 657
186 661
186 408
186 327
186 324
186 839
186 188
186 832
186 817
186 368
186 853
186 759
186 510
186 423
186 847
186 938
186 700
186 736
186 373
186 273
186 788
186 837
186 356
186 357
186 886
186 908
186 965
186 618
186 257
186 401
186 947
187 435
187 533
187 541
187 572
187 575
187 956
187 846
187 826
187 723
187 671
187 611
187 434
187 983
187 219
187 351
187 756
187 475
187 850
187 901
187 352
187 842
187 511
187 598
187 681
187 847
187 274
187 796
187 397
187 579
187 665
187 839
187 487
187 942
187 257
187 561
187 984
187 518
187 272
187 878
187 684
187 919
187 768
187 329
187 858
187 354
187 355
187 372
187 374
187 950
187 934
187 742
187 250
188 972
188 267
188 398
188 551
188 368
188 399
188 691
188 484
188 738
188 967
188 323
188 247
188 324
188 389
188 198
188 479
188 721
188 913
188 931
188 356
188 886
188 569
188 361
188 346
188 904
188 584
188 657
188 327
188 226
188 631
188 365
188 703
188 821
188 217
188 537
188 637
188 682
188 205
188 936
188 237
188 486
188 906
188 845
188 835
188 439
188 200
188 251
188 862
188 954
188 965
188 524
188 921
188 677
188 529
189 532
189 582
189 689
189 841
189 707
189 294
189 652
189 281
189 531
189 622
189 726
189 740
189 254
189 266
189 268
189 838
189 865
189 369
189 495
189 571
189 510
189 975
189 722
189 250
189 320
190 865
190 216
190 938
190 483
190 723
190 434
190 414
190 422
190 598
190 274
190 826
190 754
190 891
190 398
190 842
190 922
190 873
190 731
190 761
190 679
190 689
190 833
190 943
190 799
190 669
190 580
190 560
190 219
190 733
190 847
190 848
190 355
190 337
191 705
191 932
191 800
191 572
191 398
191 269
191 519
191 836
191 282
191 218
191 872
191 240
191 843
191 855
191 963
191 829
191 326
192 532
192 580
192 582
192 595
192 369
192 803
192 689
192 391
192 726
192 374
192 706
192 840
192 259
192 410
192 243
192 254
192 838
192 865
192 874
192 381
192 385
192 435
192 342
192 920
192 967
192 461
192 417
192 879
192 688
192 722
192 734
192 509
193 706
193 915
193 680
193 354
193 251
193 337
193 549
193 264
193 291
193 869
193 526
193 578
193 636
193 669
193 708
193 736
193 799
193 320
193 835
193 851
193 957
194 522
194 544
194 617
194 670
194 321
194 591
194 220
194 227
194 856
194 246
194 817
194 263
194 795
194 289
194 348
194 909
194 518
194 775
194 448
194 753
194 505
194 201
194 715
194 258
195 844
195 852
195 567
195 521
195 549
195 815
195 344
195 353
195 361
195 354
195 734
195 239
195 757
195 257
195 443
196 625
196 623
196 854
196 307
196 828
196 444
196 319
196 933
196 486
196 878
196 988
196 529
196 300
197 593
197 665
197 674
197 491
197 787
197 347
197 480
197 530
197 870
197 406
197 561
197 407
197 409
197 811
197 687
197 281
197 500
197 367
197 846
197 699
197 938
197 980
197 501
197 399
197 894
197 244
197 932
197 994
197 507
197 623
197 257
197 998
197 255
198 865
198 575
198 551
198 650
198 664
198 251
198 493
198 421
198 904
198 853
198 942
198 992
198 783
198 267
198 690
198 430
198 993
198 605
198 675
198 200
198 721
198 337
198 954
198 702
198 377
198 734
198 760
198 713
199 283
199 684
199 519
199 630
199 632
199 735
199 655
199 333
199 912
199 818
199 864
199 201
199 653
199 918
199 220
199 955
199 722
199 861
199 633
199 631
199 783
199 714
199 739
199 240
199 836
199 855
199 979
199 264
200 551
200 721
200 997
200 646
200 832
200 273
200 494
200 312
200 691
200 399
200 657
200 479
200 913
200 738
200 793
200 954
200 886
200 226
200 569
200 724
200 484
200 837
200 999
200 661
200 673
200 631
200 781
200 785
200 664
200 457
200 356
200 650
200 382
200 493
200 288
200 297
200 251
200 962
200 311
200 337
200 565
200 368
200 953
200 408
200 853
200 908
200 415
200 800
200 683
200 275
200 545
200 286
200 812
200 309
200 706
200 412
200 868
200 582
200 986
200 924
200 425
200 974
200 248
200 438
200 770
200 699
200 965
200 798
200 577
200 262
201 310
201 598
201 213
201 519
201 630
201 632
201 660
201 675
201 528
201 701
201 392
201 960
201 823
201 612
201 425
201 332
201 777
201 618
201 979
201 350
201 975
201 818
201 902
201 918
201 935
201 647
201 699
201 363
201 703
201 708
201 840
201 469
201 221
201 977
201 462
201 683
201 785
201 264
201 240
201 855
202 582
202 740
202 281
202 267
202 529
202 581
202 786
202 535
202 260
202 450
202 765
202 503
202 233
202 795
202 532
202 379
202 317
202 335
202 373
202 440
203 571
203 857
203 640
203 648
203 431
203 700
203 706
203 880
203 614
203 466
203 633
203 691
203 216
203 209
203 481
203 576
203 721
203 738
203 832
203 509
203 462
204 717
204 726
204 435
204 561
204 593
204 744
204 865
204 706
204 707
204 812
204 244
204 281
204 806
204 870
204 363
204 491
204 642
204 748
204 284
204 790
204 441
204 292
204 815
204 529
204 668
204 851
205 254
205 310
205 663
205 976
205 673
205 965
205 775
205 547
205 601
205 876
205 696
205 702
205 733
205 907
205 683
205 837
205 875
205 318
205 210
205 487
205 213
205 275
206 740
206 254
206 209
206 978
206 530
206 561
206 593
206 687
206 709
206 920
206 514
206 244
206 304
206 870
206 363
206 406
206 932
206 469
206 507
206 560
206 782
206 516
206 398
206 699
206 980
206 659
206 833
206 799
207 228
207 617
207 887
207 354
207 583
207 769
207 462
207 542
207 682
207 708
207 713
207 679
207 223
207 864
207 799
207 320
207 851
207 957
208 730
208 962
208 377
208 549
208 615
208 757
208 804
208 299
208 816
208 801
208 563
208 990
208 831
208 936
208 773
208 941
208 419
208 401
208 331
208 704
208 393
208 465
208 340
208 616
208 562
208 456
208 779
208 734
208 239
208 245
208 257
208 771
208 264
208 797
208 298
208 819
208 443
208 998
208 509
209 268
209 768
209 533
209 857
209 872
209 622
209 892
209 648
209 431
209 700
209 428
209 466
209 614
209 497
209 231
209 706
209 652
209 672
209 481
209 899
209 638
209 893
209 562
209 952
209 955
209 336
209 640
209 429
209 215
209 767
209 686
209 619
209 270
209 401
209 404
209 735
209 371
209 825
209 763
209 910
209 391
209 580
209 699
209 526
209 434
209 352
209 551
209 460
209 292
209 353
209 615
209 559
210 516
210 965
210 775
210 265
210 579
210 876
210 374
210 696
210 624
210 218
210 436
210 765
210 271
210 824
210 518
210 341
210 766
210 555
210 498
210 460
210 950
210 487
210 504
210 808
210 970
210 441
210 603
210 601
210 568
210 515
210 444
210 968
210 689
210 898
210 936
210 360
210 902
210 652
210 571
210 230
210 602
210 406
210 456
210 234
210 524
211 553
211 670
211 834
211 348
211 423
211 981
211 722
211 831
211 669
211 682
211 708
211 713
211 714
211 224
211 525
211 250
211 313
211 933
211 546
211 903
211 729
211 539
211 686
211 235
211 799
212 784
212 770
212 259
212 872
212 431
212 955
212 705
212 228
212 819
212 481
212 230
212 560
212 329
212 876
212 462
213 375
213 857
213 665
213 339
213 342
213 932
213 411
213 711
213 847
213 588
213 356
213 954
213 965
213 534
213 639
213 659
213 261
213 732
213 360
213 780
213 582
213 413
213 521
213 843
213 442
213 841
213 270
213 859
213 878
213 911
213 988
213 902
214 726
214 619
214 932
214 994
214 920
214 541
214 611
214 372
214 901
214 512
214 630
214 658
214 519
214 975
214 822
214 949
214 869
214 566
214 586
214 430
214 766
214 364
214 240
214 843
215 616
215 243
215 268
215 770
215 776
215 533
215 622
215 648
215 428
215 497
215 705
215 470
215 640
215 222
215 547
215 420
215 920
215 756
215 604
215 948
215 481
215 219
215 322
215 273
215 389
215 774
215 524
215 253
215 581
216 561
216 593
216 939
216 304
216 725
216 406
216 737
216 347
216 530
216 959
216 480
216 694
216 244
216 631
216 695
216 889
216 299
216 503
216 772
216 281
216 870
216 363
216 932
216 878
217 375
217 561
217 593
217 694
217 986
217 919
217 737
217 244
217 342
217 870
217 406
217 932
217 718
217 795
217 411
217 615
217 715
217 306
218 635
218 231
218 219
218 761
218 382
218 601
218 876
218 696
218 697
218 702
218 568
218 547
218 729
218 436
218 376
218 247
218 803
218 833
218 513
218 540
218 451
218 487
218 232
218 732
218 383
218 827
219 553
219 220
219 599
219 611
219 681
219 938
219 850
219 396
219 322
219 790
219 394
219 412
219 842
219 483
219 380
219 414
219 848
219 351
219 372
219 756
219 733
219 225
219 236
219 753
219 584
219 830
219 395
219 695
219 487
219 933
219 413
219 562
219 284
219 852
219 934
219 239
219 769
219 397
220 480
220 522
220 539
220 544
220 553
220 609
220 625
220 276
220 887
220 538
220 451
220 895
220 693
220 437
220 227
220 814
220 591
220 949
220 973
220 820
220 897
220 822
220 703
220 909
220 278
220 795
220 283
220 301
220 986
220 411
220 513
220 543
220 490
220 834
220 284
220 560
220 748
220 764
220 861
220 335
220 228
220 412
220 754
220 994
220 666
220 282
220 455
220 998
220 778
220 541
220 985
220 960
220 534
220 569
220 516
220 255
220 707
220 314
220 348
220 867
220 731
220 237
220 988
220 519
220 245
221 267
221 361
221 970
221 586
221 623
221 427
221 563
221 567
221 615
221 592
221 797
221 401
221 404
221 683
221 816
221 550
221 712
221 548
221 771
221 376
221 677
221 442
221 760
221 692
221 868
221 425
221 918
221 448
221 451
221 810
221 460
221 744
221 877
221 373
221 276
221 289
221 253
221 257
221 264
221 299
221 438
221 509
222 582
222 872
222 750
222 507
222 876
222 534
222 577
222 633
222 353
222 338
222 780
222 277
222 879
222 859
222 826
222 495
222 811
222 642
222 489
222 625
222 287
222 360
222 988
222 809
222 947
223 435
223 551
223 954
223 534
223 577
223 623
223 639
223 651
223 732
223 464
223 307
223 881
223 450
223 445
223 880
223 571
223 648
223 270
223 878
223 911
223 921
223 988
223 757
223 819
223 763
224 893
224 724
224 415
224 911
224 712
224 792
224 542
224 636
224 713
224 799
224 676
224 861
224 840
224 830
224 238
224 330
224 741
224 736
224 447
224 560
224 527
224 631
224 363
224 497
224 397
224 632
224 691
224 851
224 957
225 381
225 884
225 611
225 644
225 581
225 904
225 452
225 329
225 852
225 372
226 340
226 522
226 662
226 584
226 661
226 664
226 566
226 499
226 616
226 464
226 837
226 954
226 965
226 360
226 548
227 522
227 543
227 544
227 560
227 643
227 670
227 263
227 366
227 864
227 468
227 315
227 748
227 249
227 267
227 284
227 800
227 814
227 348
227 411
227 876
227 534
227 836
227 851
228 716
228 872
228 622
228 899
228 648
228 700
228 705
228 481
228 892
228 758
228 517
228 906
228 829
228 818
228 891
228 871
228 609
228 965
228 456
228 232
228 234
228 934
228 958
229 610
229 243
229 932
229 795
229 965
229 997
229 749
229 295
229 519
229 653
229 660
229 739
229 240
229 864
229 386
230 770
230 517
230 540
230 574
230 619
230 622
230 431
230 978
230 481
230 686
230 428
230 880
230 955
230 497
230 466
230 857
230 231
230 672
230 571
230 872
230 700
230 706
230 640
230 645
230 272
230 804
230 875
230 780
230 694
230 292
230 357
230 801
230 859
230 420
230 965
230 579
230 383
230 739
230 783
231 838
231 770
231 776
231 533
231 571
231 640
231 645
231 705
231 481
231 767
231 470
231 892
231 272
231 236
231 706
231 517
231 431
231 955
231 768
231 622
231 672
231 648
231 619
231 428
231 512
231 389
231 365
231 511
231 819
231 415
231 656
231 235
231 284
231 644
231 322
231 519
232 539
232 265
232 601
232 603
232 374
232 696
232 487
232 772
232 624
232 711
232 661
232 371
232 776
232 324
232 934
232 534
232 739
232 443
232 948
233 296
233 538
233 560
233 576
233 667
233 670
233 748
233 986
233 451
233 321
233 845
233 895
233 800
233 610
233 319
233 547
233 510
233 782
233 348
233 894
233 661
233 819
234 619
234 370
234 611
234 557
234 269
234 547
234 808
234 603
234 696
234 697
234 702
234 727
234 487
234 775
234 374
234 579
234 970
234 328
234 985
234 790
234 951
234 253
234 823
234 320
234 989
235 838
235 531
235 575
235 599
235 662
235 970
235 387
235 237
235 329
235 842
235 852
235 422
235 511
235 577
235 567
235 373
236 517
236 533
236 571
236 872
236 619
236 892
236 640
236 899
236 648
236 429
236 431
236 706
236 430
236 324
236 641
236 687
236 761
236 664
236 577
236 240
236 299
236 443
237 726
237 572
237 575
237 599
237 483
237 322
237 329
237 723
237 380
237 400
237 826
237 352
237 971
237 414
237 598
237 733
237 422
237 597
237 434
237 398
237 496
237 761
237 412
237 531
237 847
237 936
237 609
237 695
237 882
237 630
237 240
237 674
237 839
237 469
237 565
237 783
237 275
237 943
237 649
237 852
237 354
237 511
237 775
237 836
237 581
238 347
238 670
238 420
238 999
238 684
238 257
238 443
238 636
238 669
238 746
238 812
238 919
238 499
238 905
238 557
238 835
238 851
238 957
239 615
239 677
239 712
239 734
239 760
239 592
239 900
239 548
239 438
239 936
239 293
239 951
239 257
239 264
239 308
239 801
239 937
239 688
239 426
239 567
239 831
239 944
239 990
239 984
239 797
239 316
239 815
239 246
239 745
239 419
239 928
239 550
239 816
239 291
239 690
239 886
239 516
239 701
239 240
239 455
239 803
239 330
239 859
239 633
239 543
239 906
239 873
239 598
239 354
239 941
239 998
239 439
240 345
240 611
240 329
240 380
240 420
240 315
240 454
240 612
240 632
240 658
240 739
240 843
240 413
240 647
240 325
240 735
240 653
240 963
240 889
240 350
240 975
240 823
240 371
240 902
240 392
240 701
240 333
240 628
240 704
240 332
240 945
240 618
240 912
240 528
240 961
240 958
240 606
240 818
240 503
240 960
240 655
240 809
240 348
240 916
240 601
240 245
240 261
240 753
240 802
240 788
240 331
240 484
240 703
240 718
240 268
240 376
240 799
240 252
240 779
240 855
240 246
241 381
241 524
241 377
241 416
241 684
241 454
241 980
241 753
241 326
241 694
241 863
241 399
241 248
241 519
241 615
242 733
242 888
242 684
242 448
242 968
242 463
242 488
242 752
242 720
242 537
242 678
242 459
242 416
242 637
242 546
242 417
242 476
242 654
242 319
242 293
242 773
242 686
242 795
242 540
242 246
242 936
243 532
243 582
243 726
243 730
243 418
243 635
243 987
243 495
243 485
243 566
243 865
243 616
243 610
243 930
243 384
243 881
243 254
243 740
243 972
243 385
243 641
243 570
243 849
243 369
243 340
243 874
243 882
243 445
243 587
243 605
243 871
243 417
243 539
243 755
243 408
243 357
243 550
243 265
243 515
243 474
243 516
243 645
243 360
243 854
243 910
243 461
243 985
243 268
243 838
243 375
243 381
243 435
243 976
243 480
243 617
243 267
243 920
243 374
243 739
243 860
243 358
243 446
243 666
244 530
244 744
244 674
244 687
244 884
244 281
244 561
244 491
244 663
244 959
244 339
244 924
244 486
244 406
244 480
244 469
244 709
244 593
244 796
244 750
244 737
244 296
244 932
244 806
244 407
244 870
244 454
244 898
244 931
244 996
244 776
244 262
244 739
244 965
244 435
244 374
244 864
244 846
244 453
244 363
244 477
244 267
244 422
244 954
244 934
244 632
244 829
244 682
245 329
245 494
245 269
245 797
245 308
245 858
245 713
245 253
245 257
245 299
245 819
245 936
245 438
245 443
245 509
245 763
246 738
246 399
246 292
246 864
246 945
246 567
246 615
246 734
246 757
246 745
246 298
246 299
246 760
246 715
246 722
246 438
246 376
246 819
246 815
246 509
246 900
246 677
246 941
246 990
246 404
246 426
246 860
246 937
246 951
246 953
246 420
246 912
246 968
246 533
246 262
246 320
246 395
246 443
247 314
247 971
247 657
247 738
247 337
247 862
247 327
247 986
247 940
247 533
247 273
247 788
247 817
247 839
247 415
247 953
247 965
247 690
247 373
247 851
248 865
248 711
248 702
248 534
248 529
248 559
248 455
248 584
248 354
248 552
248 674
248 449
248 538
248 255
248 792
248 829
248 335
248 373
248 462
249 561
249 515
249 522
249 544
249 576
249 670
249 267
249 949
249 284
249 845
249 866
249 399
249 305
249 477
249 833
249 795
249 834
249 348
249 411
249 980
249 298
250 587
250 608
250 913
250 999
250 521
250 525
250 682
250 708
250 713
250 714
250 840
250 856
250 799
250 729
250 517
250 420
250 302
250 957
251 614
251 782
251 891
251 551
251 646
251 657
251 664
251 479
251 288
251 308
251 715
251 441
251 256
251 839
251 346
251 862
251 356
251 365
251 388
251 954
251 374
251 487
251 255
251 851
252 640
252 814
252 584
252 529
252 328
252 542
252 578
252 708
252 746
252 300
252 830
252 525
252 395
252 520
252 688
252 349
252 799
253 369
253 664
253 751
253 968
253 911
253 615
253 677
253 722
253 778
253 401
253 442
253 801
253 990
253 492
253 692
253 549
253 757
253 443
253 944
253 291
253 620
253 936
253 816
253 804
253 759
253 688
253 376
253 900
253 942
253 777
253 493
253 573
253 494
253 471
253 826
253 821
253 713
253 586
253 277
253 309
253 868
253 269
253 257
253 293
253 831
253 998
253 786
254 532
254 570
254 582
254 587
254 726
254 919
254 580
254 740
254 881
254 616
254 865
254 340
254 805
254 838
254 803
254 391
254 268
254 784
254 707
254 972
254 266
254 418
254 608
254 641
254 375
254 435
254 717
254 930
254 841
254 716
254 961
254 403
254 827
254 522
254 632
254 534
254 559
254 960
254 612
254 563
254 890
254 640
254 310
254 369
254 495
254 870
254 539
254 354
254 792
254 713
255 471
255 611
255 346
255 534
255 936
255 559
255 769
255 993
255 455
255 833
255 581
255 974
255 309
255 786
255 317
255 982
255 898
255 807
255 871
255 319
255 306
255 335
255 403
255 331
255 452
255 349
255 929
255 514
255 594
255 402
255 478
255 966
255 869
255 439
255 829
255 604
255 914
255 334
255 450
255 285
255 344
255 802
255 286
255 940
255 535
255 948
255 783
255 326
255 602
255 446
255 792
255 532
255 630
255 383
255 685
255 261
255 406
255 566
255 811
255 907
255 342
255 698
255 570
255 278
255 475
255 817
255 458
255 667
255 994
255 607
255 584
255 773
255 978
255 373
255 386
256 339
256 543
256 560
256 670
256 501
256 814
256 910
256 321
256 289
256 500
256 624
256 565
256 268
256 263
256 795
256 314
256 348
256 393
256 360
257 733
257 842
257 461
257 261
257 567
257 615
257 677
257 757
257 896
257 778
257 291
257 900
257 998
257 548
257 404
257 563
257 712
257 797
257 773
257 308
257 419
257 683
257 745
257 937
257 944
257 592
257 990
257 722
257 936
257 984
257 771
257 293
257 509
257 801
257 819
257 928
257 688
257 298
257 443
257 376
257 994
257 880
257 649
257 667
257 322
257 300
257 435
257 303
257 979
257 525
257 887
257 424
257 850
257 343
257 922
257 776
257 340
257 586
257 440
258 665
258 723
258 965
258 377
258 529
258 559
258 331
258 403
258 402
258 309
258 827
258 829
258 502
258 638
258 512
258 522
258 851
258 386
258 799
259 429
259 497
259 700
259 614
259 767
259 629
259 770
259 837
259 295
259 472
259 517
259 533
259 872
259 619
259 640
259 645
259 648
259 431
259 705
259 417
259 623
259 433
259 299
260 710
260 284
260 680
260 361
260 997
260 678
260 896
260 529
260 559
260 792
260 362
260 373
261 805
261 485
261 867
261 788
261 361
261 967
261 639
261 732
261 275
261 659
261 388
261 636
261 281
261 276
261 769
261 292
261 878
261 911
261 977
261 988
261 615
262 994
262 564
262 534
262 277
262 305
262 743
262 383
262 813
262 844
262 802
262 292
262 353
262 878
262 879
262 988
262 508
262 510
262 550
262 567
262 559
262 636
262 320
263 648
263 481
263 515
263 522
263 642
263 670
263 915
263 920
263 643
263 822
263 560
263 387
263 544
263 449
263 576
263 393
263 909
263 513
263 539
263 973
263 867
263 348
263 800
263 446
263 334
263 397
263 463
263 900
263 724
263 826
263 303
263 795
263 814
263 314
263 895
263 949
263 650
263 421
263 855
263 286
264 726
264 899
264 521
264 615
264 677
264 734
264 550
264 376
264 492
264 293
264 941
264 688
264 951
264 438
264 715
264 896
264 760
264 443
264 291
264 404
264 990
264 549
264 563
264 692
264 778
264 998
264 773
264 592
264 819
264 797
264 900
264 984
264 712
264 401
264 947
264 548
264 801
264 316
264 426
264 831
264 298
264 937
264 419
264 757
264 928
264 759
264 690
264 961
264 633
264 594
264 352
264 358
264 424
264 623
264 313
264 537
264 566
264 939
264 697
264 929
264 895
264 868
264 624
264 536
264 433
264 789
264 379
264 640
264 299
264 335
264 656
265 899
265 538
265 834
265 355
265 657
265 288
265 323
265 967
265 970
265 775
265 504
265 749
265 579
265 603
265 520
265 628
265 882
265 853
265 887
265 799
265 452
265 843
265 269
265 527
265 341
265 876
265 621
265 624
265 950
265 696
265 487
265 373
265 397
266 532
266 582
266 595
266 641
266 726
266 418
266 881
266 566
266 930
266 385
266 495
266 717
266 277
266 578
266 918
266 686
266 683
266 268
266 310
266 838
266 340
266 865
266 874
266 369
266 375
266 670
266 524
266 934
266 291
266 656
267 435
267 495
267 522
267 560
267 670
267 693
267 748
267 890
267 949
267 764
267 284
267 820
267 710
267 909
267 589
267 465
267 276
267 925
267 501
267 969
267 321
267 539
267 834
267 795
267 502
267 643
267 897
267 301
267 490
267 564
267 906
267 574
267 921
267 383
267 701
267 478
267 402
267 869
267 955
267 348
267 894
267 393
267 451
267 588
267 950
267 567
267 358
268 532
268 582
268 717
268 730
268 641
268 635
268 391
268 595
268 610
268 294
268 570
268 616
268 972
268 689
268 726
268 445
268 849
268 784
268 865
268 418
268 472
268 919
268 381
268 495
268 385
268 359
268 882
268 803
268 810
268 310
268 435
268 869
268 506
268 672
268 409
268 889
268 802
268 885
268 392
268 988
268 617
268 343
268 349
268 361
268 373
268 838
268 841
268 340
268 874
268 369
268 389
268 684
268 623
268 823
268 326
269 560
269 775
269 824
269 749
269 436
269 751
269 487
269 374
269 579
269 601
269 518
269 696
269 547
269 727
269 441
269 520
269 970
269 695
269 556
269 600
269 341
269 766
269 876
269 461
269 603
269 697
269 498
269 504
269 555
269 729
269 624
269 808
269 460
269 527
269 702
269 468
269 983
269 471
269 528
269 495
269 855
269 874
269 731
269 333
269 907
269 272
269 834
269 526
269 852
269 977
269 817
269 957
269 911
269 630
269 529
270 748
270 832
270 527
270 742
270 534
270 639
270 977
270 859
270 828
270 732
270 458
270 879
270 623
270 508
270 383
270 275
270 921
270 510
270 427
270 604
270 476
270 805
270 959
270 600
270 346
270 644
270 813
270 353
270 878
270 911
270 988
271 838
271 469
271 852
271 372
271 775
271 520
271 555
271 696
271 480
271 294
271 415
271 527
271 547
271 579
271 341
271 702
271 487
271 318
272 784
272 384
272 495
272 770
272 533
272 893
272 429
272 952
272 415
272 549
272 924
272 622
272 431
272 700
272 487
272 523
272 977
272 606
272 797
273 670
273 883
273 551
273 724
273 673
273 738
273 913
273 479
273 931
273 664
273 420
273 853
273 365
273 661
273 679
273 955
273 692
273 735
273 313
273 509
273 544
273 656
273 788
273 837
273 839
273 337
273 953
273 954
274 532
274 465
274 644
274 671
274 711
274 483
274 434
274 797
274 822
274 331
274 735
274 457
274 762
274 852
274 398
274 954
274 624
274 888
274 290
274 550
275 357
275 463
275 534
275 577
275 623
275 651
275 287
275 921
275 444
275 464
275 613
275 761
275 322
275 986
275 540
275 652
275 353
275 360
275 878
275 458
275 988
275 660
275 739
275 831
276 481
276 515
276 609
276 642
276 693
276 748
276 340
276 984
276 292
276 314
276 348
276 393
276 502
276 352
276 957
277 418
277 471
277 775
277 621
277 534
277 577
277 732
277 755
277 673
277 518
277 809
277 964
277 360
277 878
277 911
277 988
278 538
278 543
278 609
278 642
278 670
278 693
278 748
278 854
278 329
278 775
278 348
278 949
278 671
278 957
279 348
279 575
279 611
279 662
279 733
279 709
279 853
279 322
279 842
279 848
279 852
279 366
279 422
279 943
279 579
279 702
279 961
279 690
279 786
280 882
280 737
280 281
280 599
280 979
280 797
280 936
280 529
280 559
280 769
280 948
280 869
280 600
280 820
280 461
280 456
280 592
280 802
280 335
280 386
280 446
281 431
281 561
281 665
281 796
281 750
281 744
281 342
281 884
281 924
281 959
281 991
281 486
281 410
281 694
281 687
281 593
281 994
281 477
281 663
281 347
281 296
281 719
281 627
281 409
281 469
281 491
281 530
281 870
281 737
281 707
281 993
281 390
281 611
281 405
281 872
281 315
281 851
281 610
281 969
281 519
281 583
281 613
281 597
281 875
281 406
281 932
281 718
281 575
281 731
281 420
281 458
281 508
282 595
282 551
282 577
282 905
282 988
282 340
282 899
282 576
282 837
282 292
282 878
282 911
282 510
282 509
282 373
282 708
283 686
283 522
283 539
283 544
283 564
283 642
283 670
283 693
283 502
283 703
283 986
283 490
283 867
283 943
283 290
283 397
283 724
283 474
283 386
283 329
283 552
283 524
283 463
283 577
283 295
283 815
284 803
284 495
284 517
284 544
284 591
284 609
284 643
284 693
284 642
284 986
284 703
284 845
284 393
284 560
284 764
284 890
284 800
284 465
284 564
284 538
284 576
284 949
284 573
284 528
284 536
284 754
284 691
284 715
284 741
284 790
284 348
284 895
284 411
284 592
285 340
285 560
285 949
285 632
285 529
285 581
285 802
285 604
285 331
285 362
285 940
285 303
285 531
285 408
285 682
285 368
285 756
286 616
286 435
286 744
286 329
286 848
286 839
286 586
286 298
286 792
286 829
286 833
286 349
286 462
286 668
286 791
286 335
286 403
286 331
286 306
286 807
286 373
286 724
286 747
286 925
286 641
286 986
286 467
286 522
286 534
286 730
286 481
286 386
287 593
287 842
287 534
287 577
287 623
287 360
287 654
287 607
287 395
287 659
287 508
287 297
287 542
287 740
287 988
287 510
287 299
287 708
287 713
287 957
288 499
288 551
288 657
288 965
288 382
288 875
288 519
288 626
288 537
288 745
288 346
288 862
288 357
288 420
288 421
288 729
288 855
288 334
288 446
289 431
289 694
289 513
289 515
289 539
289 543
289 576
289 609
289 642
289 670
289 748
289 501
289 916
289 693
289 321
289 795
289 482
289 326
289 872
289 712
289 675
289 319
289 846
289 908
289 814
289 348
289 411
289 949
289 471
289 729
289 295
289 878
289 831
289 328
290 519
290 630
290 632
290 739
290 823
290 864
290 502
290 893
290 939
290 465
290 831
290 307
290 836
290 855
290 722
290 450
291 369
291 431
291 561
291 372
291 607
291 550
291 567
291 615
291 677
291 715
291 734
291 745
291 757
291 771
291 815
291 548
291 563
291 683
291 760
291 831
291 469
291 621
291 737
291 999
291 402
291 834
291 298
291 299
291 438
291 443
291 713
292 641
292 913
292 577
292 623
292 732
292 755
292 825
292 905
292 649
292 626
292 813
292 633
292 395
292 854
292 911
292 307
292 343
292 305
292 360
292 295
292 453
292 534
292 583
292 780
292 690
292 562
292 719
292 863
292 461
292 683
292 833
292 500
292 933
292 490
292 878
292 988
292 317
293 532
293 530
293 572
293 653
293 757
293 778
293 316
293 401
293 804
293 745
293 298
293 430
293 677
293 860
293 797
293 722
293 896
293 620
293 549
293 937
293 734
293 865
293 466
293 809
293 911
293 985
293 840
293 787
293 411
293 794
293 682
293 723
293 516
293 819
293 438
293 443
293 998
293 509
293 769
294 532
294 587
294 616
294 689
294 730
294 491
294 692
294 981
294 310
294 838
294 865
294 369
294 495
294 406
294 775
294 876
294 688
295 589
295 718
295 876
295 459
295 505
295 577
295 623
295 639
295 755
295 651
295 510
295 743
295 828
295 360
295 430
295 919
295 595
295 590
295 707
295 878
295 988
295 326
295 440
296 730
296 561
296 593
296 674
296 709
296 618
296 870
296 932
296 491
296 858
296 394
296 454
296 371
296 615
296 514
297 693
297 551
297 557
297 788
297 731
297 894
297 839
297 908
297 965
297 992
297 997
297 999
297 438
298 495
298 722
298 745
298 941
298 438
298 801
298 937
298 620
298 592
298 299
298 715
298 778
298 860
298 815
298 308
298 773
298 947
298 804
298 376
298 442
298 509
298 690
298 712
298 404
298 734
298 759
298 567
298 797
298 760
298 540
298 669
298 368
298 600
298 875
298 571
298 833
298 942
298 408
298 311
298 747
298 678
298 872
298 464
299 705
299 561
299 750
299 541
299 644
299 848
299 521
299 734
299 430
299 419
299 760
299 492
299 941
299 984
299 797
299 815
299 998
299 548
299 896
299 722
299 426
299 509
299 757
299 549
299 778
299 677
299 900
299 801
299 692
299 947
299 563
299 860
299 443
299 497
299 765
299 513
299 312
299 669
299 699
299 302
299 305
299 727
299 671
299 691
299 458
299 819
300 726
300 790
300 647
300 443
300 581
300 783
300 833
300 526
300 636
300 708
300 713
300 799
300 320
300 835
301 665
301 959
301 544
301 560
301 564
301 643
301 670
301 795
301 314
301 348
301 411
301 451
301 697
301 981
301 866
301 615
301 438
301 581
302 689
302 726
302 670
302 572
302 329
302 505
302 550
302 563
302 526
302 682
302 741
302 799
302 933
302 856
302 840
302 957
302 507
302 307
302 450
302 692
302 798
302 383
302 712
302 875
302 851
303 391
303 561
303 694
303 737
303 806
303 825
303 664
303 732
303 870
303 363
303 932
303 477
303 480
303 544
303 551
303 621
303 977
303 988
303 655
303 889
303 819
304 530
304 593
304 665
304 868
304 500
304 339
304 370
304 486
304 709
304 853
304 566
304 739
304 691
304 342
304 932
304 642
304 662
304 487
304 524
304 757
304 542
305 544
305 670
305 909
305 852
305 817
305 534
305 577
305 623
305 651
305 353
305 878
305 458
305 988
305 510
305 809
305 509
305 317
306 356
306 420
306 745
306 529
306 362
306 342
306 625
306 829
306 335
306 446
307 495
307 981
307 859
307 444
307 917
307 498
307 752
307 776
307 397
307 742
307 360
307 878
307 921
307 988
307 508
308 539
308 721
308 464
308 961
308 615
308 712
308 734
308 819
308 438
308 443
309 616
309 418
309 574
309 622
309 431
309 847
309 372
309 774
309 818
309 529
309 559
309 581
309 792
309 829
309 349
309 373
310 566
310 595
310 616
310 641
310 726
310 689
310 987
310 582
310 485
310 605
310 841
310 794
310 784
310 881
310 874
310 803
310 717
310 483
310 395
310 515
310 422
310 837
310 745
310 600
310 500
310 741
310 340
310 369
310 375
310 381
310 385
310 495
310 424
310 913
310 512
310 534
310 362
311 770
311 976
311 544
311 588
311 494
311 942
311 507
311 902
311 920
311 346
311 908
311 415
311 954
311 992
311 997
311 697
311 799
312 582
312 561
312 515
312 844
312 848
312 551
312 661
312 843
312 678
312 316
312 432
312 324
312 346
312 913
312 415
312 954
312 965
312 697
312 722
312 835
313 541
313 346
313 623
313 658
313 443
313 708
313 713
313 714
313 799
313 473
313 851
313 957
314 495
314 564
314 609
314 625
314 670
314 693
314 748
314 795
314 513
314 451
314 920
314 667
314 894
314 560
314 814
314 895
314 499
314 387
314 591
314 617
314 910
314 897
314 906
314 764
314 718
314 986
314 424
314 925
314 576
314 890
314 845
314 553
314 930
314 794
314 458
314 840
314 537
314 788
314 853
314 460
314 888
314 507
314 418
314 988
314 781
314 750
314 729
314 348
314 949
314 502
314 733
314 354
314 980
314 819
314 443
314 792
314 506
314 851
314 957
315 561
315 625
315 814
315 352
315 354
315 601
315 523
315 524
315 772
315 664
315 586
315 377
315 416
315 678
315 684
315 699
315 463
315 980
315 526
315 318
316 370
316 671
316 488
316 739
316 615
316 677
316 595
316 538
316 426
316 438
316 636
317 740
317 551
317 684
317 980
317 529
317 559
317 581
317 792
317 827
317 373
317 478
317 929
317 982
317 439
317 816
317 764
317 902
317 836
317 569
317 595
317 362
317 386
317 736
318 369
318 725
318 505
318 577
318 438
318 636
318 682
318 708
318 713
318 714
318 763
318 612
318 828
318 870
318 362
318 867
318 851
318 957
319 726
319 703
319 348
319 723
319 696
319 698
319 514
319 559
319 792
319 829
319 929
319 779
319 769
319 375
319 750
319 689
319 778
319 881
319 342
319 423
319 892
319 435
319 362
319 386
320 718
320 761
320 355
320 524
320 651
320 604
320 328
320 526
320 636
320 669
320 708
320 713
320 714
320 746
320 799
320 747
320 830
320 957
320 390
320 763
320 812
320 482
320 835
320 933
320 525
320 821
320 572
320 775
320 559
320 389
320 408
320 679
320 620
320 954
320 402
320 869
320 691
320 863
320 851
321 643
321 795
321 890
321 424
321 449
321 834
321 478
321 559
321 468
321 514
321 792
321 854
321 909
321 451
321 762
321 659
321 989
321 833
322 570
322 726
322 841
322 517
322 924
322 516
322 575
322 599
322 680
322 733
322 400
322 731
322 394
322 826
322 850
322 761
322 681
322 671
322 754
322 611
322 597
322 511
322 891
322 329
322 901
322 496
322 483
322 926
322 985
322 962
322 433
322 954
322 356
322 464
322 665
322 435
322 785
322 630
322 753
322 806
322 769
322 438
322 855
322 842
322 852
322 354
322 921
322 836
322 936
323 716
323 619
323 811
323 800
323 551
323 557
323 817
323 832
323 456
323 368
323 661
323 388
323 584
323 786
323 512
323 526
323 549
323 871
323 546
323 864
323 862
323 357
323 399
323 954
323 503
324 369
324 486
324 691
324 332
324 602
324 950
324 353
324 346
324 862
324 356
324 415
324 954
324 775
324 878
324 792
325 874
325 385
325 748
325 681
325 754
325 967
325 519
325 606
325 630
325 632
325 739
325 975
325 759
326 385
326 705
326 348
326 968
326 567
326 819
326 559
326 792
326 769
326 349
326 478
326 838
326 770
326 350
326 593
326 965
326 362
326 386
327 689
327 340
327 892
327 530
327 796
327 348
327 848
327 573
327 584
327 738
327 965
327 494
327 586
328 716
328 522
328 660
328 963
328 722
328 529
328 559
328 792
328 424
328 608
328 681
328 446
328 554
329 622
329 572
329 597
329 599
329 611
329 873
329 858
329 575
329 850
329 541
329 883
329 852
329 496
329 903
329 956
329 355
329 662
329 394
329 926
329 790
329 733
329 754
329 531
329 938
329 414
329 398
329 434
329 680
329 922
329 681
329 354
329 789
329 951
329 474
329 579
329 542
329 562
329 696
329 382
329 697
329 485
329 362
329 587
329 753
329 842
329 848
329 372
329 404
329 581
329 335
329 578
330 665
330 791
330 526
330 636
330 682
330 708
330 713
330 835
330 799
330 669
330 970
330 623
330 561
330 824
330 598
330 388
330 617
330 809
330 957
331 580
331 810
331 560
331 393
331 922
331 980
331 660
331 529
331 668
331 792
331 373
332 872
332 848
332 551
332 832
332 630
332 658
332 836
332 792
332 855
332 397
333 411
333 772
333 934
333 519
333 739
333 377
333 362
333 963
333 503
334 674
334 932
334 511
334 738
334 374
334 947
334 514
334 529
334 581
334 829
334 537
334 869
334 669
335 477
335 559
335 581
335 792
335 929
335 966
335 446
335 358
335 452
335 668
335 397
335 802
335 450
335 807
335 829
335 439
335 760
335 857
335 392
335 382
335 801
335 515
335 678
335 606
335 771
335 373
336 768
336 533
336 571
336 574
336 652
336 892
336 776
336 640
336 734
336 388
336 866
336 712
336 452
336 872
336 622
336 672
336 431
336 700
336 978
336 481
336 744
336 954
336 660
336 668
336 666
337 435
337 657
337 664
337 996
337 997
337 738
337 788
337 954
337 862
337 382
337 859
337 695
337 723
337 818
337 931
337 965
337 967
337 902
337 961
337 615
337 529
337 676
338 789
338 441
338 577
338 651
338 732
338 539
338 671
338 383
338 988
338 510
339 561
339 687
339 694
339 806
339 507
339 932
339 991
339 959
339 594
339 893
339 839
339 538
339 342
339 870
339 363
339 469
339 477
339 584
339 346
339 699
339 463
339 739
339 797
340 641
340 972
340 707
340 381
340 385
340 495
340 881
340 635
340 716
340 391
340 726
340 369
340 570
340 841
340 485
340 717
340 580
340 375
340 930
340 740
340 874
340 919
340 605
340 838
340 418
340 587
340 610
340 810
340 435
340 566
340 865
340 803
340 616
340 445
340 882
340 472
340 784
340 490
340 424
340 842
340 370
340 662
340 870
340 757
340 468
340 347
340 980
340 453
340 888
340 686
340 801
340 812
340 829
340 763
340 977
340 949
340 852
340 875
340 772
340 660
340 739
340 443
341 580
341 689
341 517
341 926
341 954
341 775
341 579
341 697
341 460
341 436
341 727
341 527
341 468
341 749
341 374
341 556
341 621
341 531
341 482
341 670
341 809
341 479
341 443
341 820
341 789
341 426
341 696
341 632
342 582
342 495
342 700
342 593
342 627
342 665
342 737
342 409
342 976
342 410
342 674
342 347
342 750
342 994
342 885
342 526
342 366
342 492
342 602
342 870
342 406
342 932
342 469
342 477
343 560
343 670
343 904
343 876
343 534
343 651
343 732
343 813
343 392
343 360
343 878
343 911
343 815
344 776
344 481
344 969
344 611
344 852
344 529
344 581
344 668
344 818
344 509
344 439
344 714
345 595
345 726
345 838
345 841
345 545
345 768
345 619
345 865
345 369
345 435
345 495
345 844
345 518
345 698
345 878
346 892
346 991
346 424
346 551
346 657
346 839
346 999
346 357
346 967
346 467
346 992
346 942
346 817
346 494
346 931
346 479
346 493
346 781
346 953
346 388
346 650
346 965
346 962
346 679
346 721
346 365
346 954
346 943
346 862
346 793
346 624
346 752
346 428
346 476
346 878
346 676
346 471
346 901
346 754
346 628
346 385
346 454
346 966
346 905
346 468
346 519
346 736
347 540
347 705
347 561
347 593
347 687
347 694
347 518
347 788
347 868
347 870
347 363
347 932
347 976
347 703
347 502
347 568
347 869
347 440
348 385
348 560
348 643
348 782
348 822
348 897
348 589
348 513
348 437
348 564
348 424
348 393
348 915
348 925
348 543
348 471
348 800
348 465
348 986
348 834
348 973
348 969
348 845
348 515
348 887
348 449
348 411
348 764
348 501
348 576
348 844
348 625
348 890
348 795
348 906
348 544
348 895
348 910
348 718
348 814
348 693
348 703
348 920
348 490
348 916
348 820
348 956
348 455
348 711
348 942
348 565
348 821
348 838
348 850
348 966
348 914
348 759
348 830
348 953
348 779
348 867
348 651
348 440
349 481
349 599
349 848
349 529
349 581
349 792
349 514
349 669
349 995
349 377
349 733
349 448
349 491
349 386
349 462
349 714
350 572
350 421
350 487
350 463
350 519
350 630
350 632
350 658
350 660
350 739
350 836
350 864
351 810
351 435
351 640
351 561
351 932
351 670
351 393
351 575
351 680
351 842
351 848
351 852
351 564
351 625
351 366
351 422
351 383
351 675
351 835
352 978
352 642
352 531
352 733
352 789
352 852
352 731
352 858
352 983
352 557
352 589
352 811
352 420
352 354
352 398
352 414
352 817
352 946
353 491
353 613
353 848
353 873
353 534
353 651
353 732
353 866
353 623
353 905
353 917
353 988
353 911
353 626
353 765
353 971
353 558
353 420
353 933
353 543
353 878
353 647
353 708
354 597
354 644
354 671
354 842
354 848
354 852
354 598
354 394
354 414
354 926
354 826
354 412
354 903
354 983
354 355
354 380
354 475
354 422
354 680
354 516
354 611
354 711
354 873
354 761
354 367
354 858
354 850
354 400
354 396
354 956
354 981
354 489
354 773
354 581
354 417
354 694
354 606
354 812
354 947
354 588
354 877
354 454
354 547
354 753
354 911
354 510
354 771
354 426
354 802
354 869
355 533
355 670
355 894
355 575
355 671
355 848
355 531
355 496
355 412
355 598
355 572
355 756
355 475
355 541
355 599
355 891
355 983
355 644
355 790
355 858
355 847
355 433
355 927
355 564
355 445
355 640
355 951
355 828
355 893
355 372
355 380
355 551
355 399
355 448
355 438
355 514
355 669
356 841
356 576
356 551
356 552
356 596
356 738
356 817
356 862
356 724
356 837
356 588
356 942
356 565
356 389
356 757
356 407
356 404
356 629
356 908
356 421
356 965
356 698
356 623
356 799
357 748
357 588
357 664
357 691
357 817
357 650
357 408
357 862
357 734
357 722
357 520
357 415
357 420
357 965
357 997
357 752
357 639
357 632
357 860
357 373
357 993
357 957
358 841
358 967
358 463
358 438
358 529
358 535
358 364
358 532
358 830
358 945
358 373
358 386
358 799
359 532
359 580
359 582
359 587
359 605
359 726
359 730
359 838
359 865
359 804
359 874
359 369
359 375
359 381
359 495
359 684
359 975
360 687
360 870
360 748
360 534
360 639
360 755
360 988
360 813
360 634
360 732
360 743
360 607
360 907
360 879
360 651
360 510
360 654
360 917
360 995
360 828
360 964
360 625
360 950
360 978
360 542
360 986
360 997
360 888
360 738
360 897
360 878
361 469
361 617
361 925
361 575
361 848
361 664
361 673
361 596
361 650
361 999
361 942
361 588
361 493
361 550
361 581
361 380
361 731
361 621
361 954
361 965
361 524
361 851
362 566
362 887
362 839
362 503
362 869
362 403
362 386
362 529
362 478
362 792
362 569
362 370
362 846
362 995
362 991
362 981
362 373
362 708
363 530
363 561
363 593
363 627
363 663
363 674
363 870
363 737
363 665
363 884
363 687
363 787
363 500
363 725
363 991
363 477
363 709
363 719
363 796
363 545
363 885
363 507
363 994
363 868
363 410
363 496
363 585
363 518
363 869
363 575
363 461
363 685
363 866
363 598
363 616
363 732
363 484
363 369
363 432
363 906
363 932
363 411
363 372
363 950
364 707
364 435
364 756
364 524
364 836
364 529
364 373
364 386
364 669
365 530
365 552
365 862
365 484
365 837
365 382
365 875
365 904
365 404
365 376
365 960
365 520
365 957
365 566
365 378
365 407
365 953
365 954
365 967
365 479
365 992
365 656
366 575
366 611
366 789
366 396
366 938
366 847
366 787
366 816
366 388
366 633
366 677
366 372
366 565
366 839
366 954
366 813
366 401
367 575
367 599
367 611
367 680
367 842
367 852
367 429
367 760
367 393
367 674
367 945
367 372
367 414
367 511
367 415
367 649
368 431
368 806
368 598
368 552
368 584
368 664
368 724
368 738
368 817
368 832
368 954
368 487
368 550
369 532
369 726
369 730
369 838
369 865
369 784
369 587
369 794
369 384
369 803
369 391
369 810
369 381
369 605
369 582
369 635
369 987
369 874
369 849
369 595
369 385
369 608
369 610
369 495
369 740
369 570
369 805
369 375
369 930
369 919
369 435
369 580
369 418
369 689
369 972
369 445
369 707
369 544
369 724
369 814
369 628
369 451
369 545
369 759
369 528
369 711
369 543
369 494
369 405
369 387
369 467
369 962
369 640
369 723
369 833
369 395
369 842
369 902
369 422
369 508
369 976
369 795
369 597
369 509
369 529
369 783
370 805
370 545
370 561
370 593
370 663
370 737
370 870
370 405
370 953
370 932
370 477
370 601
370 732
371 687
371 589
371 842
371 847
371 658
371 675
371 864
371 965
371 532
371 478
371 835
372 599
372 611
372 848
372 847
372 531
372 662
372 971
372 613
372 380
372 422
372 926
372 858
372 575
372 985
372 434
372 761
372 396
372 496
372 731
372 414
372 842
372 541
372 901
372 597
372 922
372 723
372 400
372 572
372 516
372 398
372 873
372 846
372 789
372 956
372 754
372 680
372 863
372 511
372 903
372 927
372 656
372 542
372 986
372 529
372 814
372 484
372 830
372 507
372 416
372 588
372 645
372 824
372 727
372 781
372 988
372 865
372 736
372 874
373 385
373 540
373 522
373 503
373 529
373 581
373 792
373 982
373 993
373 940
373 877
373 455
373 802
373 403
373 827
373 462
373 439
373 833
373 397
373 807
373 786
373 402
373 478
373 769
373 966
373 418
373 749
373 956
373 541
373 878
373 744
373 894
373 663
373 697
373 806
373 952
373 401
373 781
373 585
373 386
373 440
373 506
373 708
374 874
374 385
374 932
374 579
374 876
374 729
374 765
374 695
374 436
374 527
374 487
374 621
374 824
374 775
374 970
374 568
374 556
374 504
374 601
374 749
374 772
374 751
374 547
374 555
374 881
374 961
374 396
374 795
374 745
374 591
374 410
374 930
374 565
374 575
374 696
374 441
374 702
374 859
374 879
374 777
375 532
375 582
375 595
375 616
375 641
375 689
375 726
375 730
375 865
375 381
375 707
375 881
375 385
375 794
375 392
375 533
375 736
375 597
375 625
375 988
375 812
375 435
375 932
376 391
376 431
376 671
376 789
376 842
376 567
376 615
376 688
376 722
376 757
376 404
376 426
376 443
376 998
377 972
377 852
377 523
377 423
377 546
377 720
377 685
377 742
377 798
377 550
377 941
377 741
377 417
377 684
377 448
377 419
378 730
378 485
378 648
378 593
378 539
378 842
378 988
378 578
378 669
378 682
378 708
378 714
378 799
378 851
379 710
379 448
379 859
379 526
379 636
379 669
379 682
379 713
379 930
379 857
379 822
379 629
379 517
380 599
380 611
380 789
380 852
380 711
380 613
380 922
380 593
380 495
380 952
380 424
380 508
380 582
380 463
380 792
381 582
381 689
381 707
381 726
381 730
381 740
381 838
381 865
381 391
381 608
381 874
381 881
381 784
381 580
381 495
381 595
381 794
381 435
381 717
381 849
381 987
381 841
381 587
381 571
381 729
381 883
381 542
381 756
381 723
381 491
381 598
381 393
381 529
381 842
381 534
381 446
382 465
382 551
382 661
382 832
382 862
382 962
382 976
382 511
382 611
382 812
382 494
382 755
382 878
383 870
383 609
383 577
383 878
383 917
383 639
383 458
383 651
383 801
383 886
383 847
383 911
383 988
384 532
384 726
384 730
384 740
384 865
384 427
384 683
384 672
384 435
384 495
384 698
384 722
385 532
385 582
385 730
385 740
385 841
385 865
385 805
385 641
385 435
385 838
385 580
385 391
385 605
385 972
385 810
385 610
385 987
385 784
385 472
385 689
385 716
385 445
385 595
385 626
385 565
385 585
385 647
385 606
385 683
385 523
385 492
385 974
385 962
385 536
385 776
385 679
385 418
385 495
385 511
385 519
386 895
386 451
386 623
386 529
386 559
386 581
386 792
386 940
386 535
386 514
386 802
386 982
386 450
386 948
386 397
386 462
386 439
386 829
386 827
386 403
386 455
386 783
386 506
386 402
386 837
386 396
386 438
386 905
386 470
386 395
386 707
386 650
386 752
386 519
386 571
386 545
386 562
386 691
386 762
386 507
386 893
386 569
386 627
386 851
386 957
387 716
387 477
387 539
387 670
387 814
387 834
387 949
387 969
387 546
387 980
387 438
387 676
388 582
388 726
388 924
388 795
388 557
388 588
388 832
388 839
388 400
388 952
388 961
388 840
388 471
388 935
388 688
388 415
388 954
388 878
388 948
388 746
389 764
389 551
389 584
389 664
389 839
389 738
389 793
389 450
389 490
389 633
389 931
389 421
389 954
389 965
389 967
389 441
389 529
390 690
390 526
390 682
390 708
390 714
390 851
390 830
390 507
390 417
390 957
391 532
391 582
391 587
391 616
391 689
391 730
391 740
391 805
391 838
391 841
391 861
391 738
391 495
391 562
391 694
391 563
392 870
392 507
392 894
392 897
392 775
392 632
392 653
392 739
392 864
392 799
393 874
393 700
393 544
393 564
393 576
393 642
393 643
393 670
393 703
393 764
393 795
393 814
393 822
393 887
393 591
393 897
393 625
393 915
393 553
393 748
393 973
393 667
393 513
393 543
393 449
393 501
393 411
393 895
393 894
393 782
393 718
393 490
393 710
393 471
393 909
393 969
393 871
393 559
393 408
393 537
393 644
393 530
393 640
393 646
393 976
393 672
393 586
393 495
393 394
393 453
393 886
393 658
393 966
393 785
393 621
393 949
393 692
393 439
393 713
394 515
394 842
394 847
394 749
394 860
394 762
395 641
395 730
395 593
395 516
395 848
395 558
395 534
395 577
395 607
395 651
395 813
395 878
395 988
395 677
395 757
395 682
396 572
396 611
396 644
396 671
396 842
396 848
396 775
396 527
396 669
397 870
397 949
397 443
397 529
397 559
397 581
397 791
397 829
397 953
397 876
397 788
397 784
397 463
398 582
398 541
398 599
398 858
398 422
398 412
398 400
398 848
398 711
398 852
398 723
398 922
398 644
398 926
398 983
398 846
398 578
398 928
398 958
398 573
398 799
398 778
398 482
398 965
398 630
398 809
398 722
398 529
399 627
399 664
399 837
399 832
399 679
399 588
399 781
399 931
399 467
399 593
399 918
399 848
399 420
399 954
399 992
399 621
399 441
400 575
400 611
400 671
400 680
400 842
400 852
400 817
400 508
401 646
401 946
401 550
401 592
401 615
401 722
401 620
401 756
401 878
401 543
401 581
401 426
401 438
401 998
401 509
402 664
402 992
402 494
402 695
402 732
402 911
402 529
402 581
402 792
403 574
403 431
403 511
403 953
403 970
403 473
403 734
403 559
403 581
403 792
403 961
403 677
403 440
403 506
404 867
404 923
404 464
404 548
404 567
404 615
404 501
404 850
404 465
404 621
404 443
404 713
405 909
405 502
405 599
405 711
405 414
405 603
405 685
405 548
405 439
406 689
406 730
406 418
406 767
406 530
406 545
406 593
406 665
406 687
406 694
406 709
406 870
406 674
406 868
406 500
406 507
406 477
406 480
406 932
406 491
406 409
406 725
406 627
406 419
406 861
406 845
406 587
406 698
406 675
406 639
406 503
406 739
406 652
406 826
406 463
407 561
407 593
407 665
407 687
407 870
407 409
407 640
407 669
407 535
407 932
407 469
407 477
407 949
407 745
407 778
408 533
408 622
408 593
408 737
408 551
408 552
408 584
408 664
409 582
409 533
409 530
409 665
409 687
409 737
409 870
409 932
409 981
409 675
409 615
410 545
410 593
410 665
410 806
410 870
410 932
410 560
410 969
410 465
410 575
410 526
411 515
411 560
411 576
411 670
411 710
411 748
411 834
411 465
411 867
411 543
411 617
411 910
411 578
411 705
411 674
411 706
411 949
411 862
411 699
411 630
411 975
411 426
412 726
412 872
412 795
412 541
412 575
412 611
412 681
412 842
412 848
412 422
412 989
413 726
413 543
413 544
413 576
413 569
413 487
413 749
413 427
413 519
413 739
413 836
413 855
413 505
413 810
413 829
414 580
414 418
414 539
414 572
414 575
414 680
414 731
414 733
414 842
414 926
414 434
414 597
414 761
414 475
414 901
414 621
414 871
414 705
414 676
414 550
414 727
414 528
414 637
414 424
414 569
414 422
414 970
414 941
415 495
415 857
415 551
415 817
415 661
415 788
415 721
415 456
415 967
415 573
415 943
415 781
415 953
415 942
415 962
415 769
415 447
415 518
415 834
415 790
415 555
415 559
415 421
415 965
415 479
415 997
415 855
415 503
415 713
415 957
416 954
416 753
416 454
416 769
416 656
416 842
416 664
416 417
416 934
416 423
416 684
416 505
416 682
417 532
417 852
417 524
417 459
417 698
417 752
417 968
417 463
417 454
417 476
417 546
417 720
417 489
417 728
417 512
417 774
417 448
417 980
417 586
417 668
417 926
417 870
417 836
417 734
417 914
417 479
417 984
417 765
417 684
417 753
418 566
418 726
418 730
418 805
418 874
418 987
418 881
418 740
418 532
418 616
418 865
418 849
418 707
418 717
418 841
418 509
418 828
418 908
418 624
418 658
418 468
418 602
418 669
418 482
418 435
418 629
418 590
419 870
419 748
419 723
419 852
419 781
419 505
419 534
419 550
419 677
419 722
419 745
419 815
419 819
419 860
419 438
419 443
420 481
420 920
420 599
420 551
420 646
420 788
420 793
420 837
420 923
420 596
420 992
420 943
420 931
420 886
420 631
420 965
420 817
420 927
420 448
420 504
420 815
420 825
420 421
420 954
420 636
421 913
421 996
421 781
421 650
421 931
421 999
421 588
421 531
421 773
421 449
421 660
421 819
421 669
422 709
422 643
422 920
422 575
422 611
422 733
422 842
422 848
422 858
422 483
422 731
422 826
422 847
422 863
422 511
422 985
422 516
422 555
422 548
422 517
422 567
422 589
422 843
422 576
422 722
422 719
422 707
422 652
422 862
422 534
422 878
422 988
423 782
423 524
423 637
423 934
423 888
423 720
423 476
423 685
423 512
423 774
423 505
423 698
423 537
423 699
423 742
423 684
423 536
423 980
423 981
423 585
423 448
423 725
423 852
423 499
423 475
423 795
423 732
423 729
423 641
423 527
423 479
423 454
423 968
423 463
423 753
423 797
424 544
424 576
424 670
424 748
424 795
424 643
424 969
424 834
424 745
424 536
424 949
424 519
425 451
425 650
425 775
425 612
425 739
425 836
425 855
425 578
425 692
425 839
425 665
425 880
425 438
426 616
426 431
426 548
426 677
426 757
426 937
426 928
426 759
426 990
426 703
426 730
426 523
426 973
426 438
426 443
427 561
427 507
427 551
427 534
427 577
427 623
427 639
427 921
427 458
427 626
427 584
427 595
427 988
427 708
428 874
428 768
428 770
428 533
428 619
428 640
428 645
428 648
428 672
428 902
428 653
428 931
428 429
428 978
428 561
428 909
428 915
428 598
429 533
429 540
429 872
429 648
429 619
429 497
429 629
429 978
429 952
429 431
429 899
429 770
429 568
429 537
429 825
429 693
429 457
429 705
429 481
429 552
429 775
429 534
430 790
430 536
430 521
430 734
430 757
430 797
430 438
430 998
431 532
431 770
431 540
431 872
431 640
431 686
431 768
431 562
431 481
431 892
431 629
431 533
431 638
431 652
431 466
431 893
431 614
431 700
431 648
431 571
431 497
431 645
431 574
431 978
431 588
431 961
431 824
431 501
431 861
431 812
431 553
431 804
431 909
431 593
431 742
431 526
431 669
432 435
432 642
432 842
432 788
432 487
432 708
432 799
432 851
432 957
433 878
433 739
433 447
433 472
433 839
433 503
434 582
434 610
434 533
434 719
434 541
434 575
434 611
434 711
434 842
434 848
434 852
434 858
434 524
434 503
434 683
434 831
435 532
435 566
435 689
435 726
435 730
435 865
435 972
435 810
435 587
435 641
435 838
435 605
435 445
435 987
435 485
435 849
435 610
435 919
435 882
435 580
435 725
435 938
435 484
435 895
435 706
435 444
435 897
435 495
435 530
435 811
435 601
435 632
436 865
436 470
436 758
436 545
436 806
436 870
436 625
436 965
436 967
436 479
436 772
436 518
436 775
436 601
436 876
436 621
436 950
436 696
436 702
436 487
437 522
437 539
437 553
437 642
437 748
437 587
437 878
437 542
438 551
438 620
438 677
438 722
438 734
438 896
438 771
438 567
438 549
438 998
438 760
438 442
438 937
438 492
438 688
438 759
438 936
438 928
438 819
438 592
438 745
438 563
438 521
438 860
438 951
438 941
438 989
438 548
438 947
438 797
438 683
438 757
438 443
438 715
438 984
438 712
438 994
438 776
438 572
438 490
438 624
438 779
438 568
438 909
438 665
438 890
438 929
438 660
438 601
438 579
438 875
438 529
438 594
438 829
438 728
438 479
438 509
439 719
439 920
439 949
439 908
439 699
439 529
439 791
439 827
439 779
439 478
439 874
439 613
439 551
439 501
439 631
440 847
440 858
440 621
440 529
440 792
440 869
440 791
440 452
440 450
440 829
440 514
440 709
440 629
440 540
440 631
440 933
440 901
441 670
441 603
441 876
441 621
441 697
441 772
441 601
441 460
441 556
441 751
441 600
441 518
441 870
441 812
441 658
441 483
441 702
441 487
441 523
441 714
442 587
442 838
442 870
442 724
442 550
442 567
442 712
442 757
442 771
442 819
442 443
442 509
443 655
443 979
443 734
443 757
443 860
443 951
443 984
443 521
443 816
443 989
443 715
443 900
443 804
443 896
443 771
443 677
443 549
443 947
443 509
443 492
443 690
443 778
443 592
443 722
443 941
443 936
443 692
443 990
443 819
443 563
443 760
443 831
443 944
443 745
443 688
443 550
443 797
443 815
443 928
443 544
443 795
443 642
443 770
443 927
443 747
443 931
443 470
443 580
443 505
443 799
443 779
443 474
443 454
443 708
443 988
443 868
443 464
444 532
444 599
444 999
444 772
444 534
444 623
444 651
444 878
444 988
444 792
445 532
445 582
445 587
445 595
445 641
445 716
445 730
445 784
445 874
445 495
445 524
445 636
446 932
446 541
446 644
446 997
446 454
446 534
446 509
446 783
446 829
446 602
446 974
446 766
446 676
446 757
447 923
447 460
447 524
447 546
447 855
447 831
447 636
447 682
447 708
447 799
447 851
447 957
448 515
448 764
448 774
448 523
448 590
448 699
448 888
448 546
448 917
448 636
448 982
448 924
448 463
448 980
448 742
448 505
448 734
449 605
449 553
449 576
449 693
449 703
449 748
449 795
449 909
449 949
449 529
449 664
449 623
450 700
450 553
450 949
450 585
450 878
450 722
450 869
450 617
450 897
451 625
451 909
451 949
451 834
451 925
451 890
451 897
451 642
451 867
451 609
451 591
451 877
451 878
451 603
451 704
451 636
451 471
451 599
451 876
451 487
452 619
452 515
452 836
452 529
452 559
452 581
452 792
452 506
453 876
453 623
453 859
453 878
453 911
453 634
453 541
453 826
453 942
453 988
454 513
454 515
454 465
454 790
454 512
454 774
454 524
454 934
454 968
454 473
454 586
454 558
454 505
454 742
454 980
454 753
454 936
454 717
454 520
454 848
454 680
454 705
454 851
454 544
454 463
454 828
454 829
454 636
454 682
455 748
455 943
455 992
455 998
455 529
455 559
455 869
456 820
456 793
456 954
456 837
456 862
456 853
456 801
456 716
456 992
456 529
456 792
457 885
457 817
457 913
457 931
457 954
457 965
457 497
457 708
457 838
457 992
457 997
457 494
457 637
457 911
457 831
457 682
458 880
458 576
458 781
458 577
458 651
458 878
458 922
458 564
458 675
458 988
458 508
458 510
458 851
459 768
459 719
459 512
459 524
459 590
459 782
459 912
459 767
459 463
459 742
459 628
460 865
460 622
460 932
460 939
460 479
460 775
460 520
460 808
460 579
460 876
460 950
460 702
460 526
460 487
460 607
460 550
461 972
461 522
461 611
461 624
461 950
461 696
461 702
461 586
461 646
461 636
462 529
462 559
462 792
462 786
462 604
462 914
462 844
462 616
462 492
462 547
462 850
462 714
463 524
463 934
463 536
463 981
463 590
463 774
463 678
463 698
463 523
463 798
463 558
463 685
463 586
463 546
463 489
463 585
463 684
463 537
463 637
463 888
463 473
463 753
463 720
463 488
463 968
463 980
463 752
463 808
463 494
463 893
463 634
463 983
463 717
463 696
463 581
463 577
463 858
463 477
463 841
463 630
464 865
464 693
464 556
464 577
464 639
464 651
464 859
464 878
464 988
464 559
464 799
465 507
465 538
465 539
465 553
465 560
465 670
465 693
465 703
465 748
465 949
465 582
465 979
465 502
466 638
466 640
466 648
466 700
466 705
466 978
466 961
466 481
466 915
466 839
466 612
466 559
467 726
467 593
467 560
467 664
467 817
467 839
467 931
467 954
467 479
467 581
468 862
468 923
468 518
468 775
468 579
468 685
468 487
468 505
468 503
469 561
469 593
469 687
469 737
469 870
469 932
469 530
469 868
469 725
469 507
469 884
469 811
469 796
469 709
469 644
469 688
469 850
469 835
469 484
469 555
469 619
469 994
469 493
469 547
469 568
469 510
470 533
470 614
470 872
470 880
470 899
470 648
470 686
470 705
470 768
470 622
470 545
470 859
470 481
470 723
470 832
470 527
471 515
471 560
471 564
471 670
471 693
471 834
471 920
471 949
471 915
471 748
471 906
471 591
471 897
471 925
471 703
471 501
471 764
471 513
471 661
471 902
471 559
471 813
471 558
471 618
471 671
471 891
471 877
471 511
472 532
472 582
472 730
472 838
472 534
472 555
472 495
472 481
472 992
472 727
472 988
472 528
472 581
472 636
473 969
473 551
473 631
473 839
473 524
473 684
473 980
473 857
473 567
473 746
473 803
473 878
473 957
474 895
474 547
474 567
474 526
474 636
474 708
474 713
474 714
474 799
474 851
474 957
475 580
475 595
475 640
475 530
475 693
475 541
475 572
475 599
475 662
475 852
475 858
475 577
475 799
476 707
476 872
476 665
476 572
476 611
476 848
476 494
476 524
476 637
476 934
476 980
476 505
476 658
476 745
477 730
477 545
477 561
477 593
477 687
477 994
477 725
477 719
477 663
477 674
477 486
477 787
477 924
477 987
477 863
477 861
477 638
477 887
477 572
477 529
477 708
478 730
478 920
478 563
478 529
478 581
478 869
479 719
479 681
479 551
479 569
479 664
479 832
479 913
479 954
479 965
479 565
479 493
479 657
479 979
479 836
479 990
479 670
479 730
479 628
479 845
479 855
479 869
480 561
480 593
480 665
480 687
480 744
480 870
480 932
480 491
480 493
480 832
480 989
480 994
480 507
480 680
480 931
480 965
480 528
481 803
481 838
481 533
481 640
481 648
481 700
481 705
481 955
481 629
481 857
481 770
481 540
481 517
481 776
481 497
481 614
481 767
481 706
481 768
481 686
481 574
481 880
481 619
481 952
481 622
481 892
481 872
481 893
481 657
481 873
481 991
481 967
481 951
481 889
481 921
481 499
481 505
481 650
481 544
481 693
481 696
482 643
482 502
482 775
482 636
482 708
482 713
482 714
482 799
483 796
483 560
483 575
483 671
483 731
483 842
483 847
483 852
483 833
484 838
484 517
484 551
484 646
484 657
484 817
484 862
484 954
484 965
484 967
484 934
484 525
485 532
485 580
485 582
485 595
485 641
485 726
485 730
485 740
485 838
485 865
485 927
485 495
485 584
485 775
485 896
486 530
486 593
486 663
486 687
486 694
486 976
486 965
486 876
486 487
486 864
487 527
487 696
487 970
487 498
487 729
487 547
487 555
487 765
487 520
487 772
487 504
487 749
487 568
487 775
487 808
487 600
487 697
487 824
487 766
487 579
487 518
487 556
487 695
487 686
487 972
487 783
487 875
487 803
487 501
487 665
487 781
487 864
488 646
488 954
488 524
488 934
488 684
488 551
488 965
488 753
488 505
488 623
488 632
488 855
488 864
489 865
489 880
489 593
489 572
489 512
489 523
489 934
489 684
489 968
489 980
489 753
489 505
489 529
490 560
490 748
490 795
490 967
490 624
490 554
491 874
491 561
491 593
491 932
491 868
491 984
491 862
491 995
491 922
491 507
492 730
492 593
492 515
492 733
492 931
492 586
492 550
492 563
492 712
492 734
492 819
492 941
492 509
492 581
493 817
493 832
493 999
493 676
493 769
494 540
494 842
494 584
494 631
494 664
494 817
494 832
494 965
494 565
494 829
494 618
494 651
495 532
495 587
495 616
495 726
495 730
495 838
495 874
495 707
495 882
495 810
495 717
495 865
495 972
495 919
495 881
495 635
495 570
495 794
495 740
495 803
495 987
495 580
495 608
495 849
495 872
495 824
495 958
495 779
495 518
495 728
495 611
495 821
495 822
495 879
495 553
495 997
495 984
495 826
495 936
495 713
496 892
496 598
496 599
496 611
496 644
496 681
496 723
496 842
496 848
496 922
496 721
496 980
496 675
497 770
497 533
497 571
497 614
497 619
497 622
497 640
497 899
497 645
497 648
497 709
497 576
497 909
497 789
497 510
497 975
497 592
498 648
498 949
498 520
498 579
498 601
498 624
498 696
498 709
498 788
498 562
498 799
499 726
499 784
499 522
499 553
499 560
499 617
499 625
499 643
499 693
499 795
499 734
500 978
500 545
500 561
500 593
500 665
500 687
500 694
500 737
500 806
500 932
500 502
500 848
500 660
501 538
501 560
501 576
501 643
501 782
501 795
501 949
501 502
502 522
502 544
502 576
502 642
502 670
502 693
502 782
502 795
502 909
502 895
502 949
502 824
502 951
502 714
502 992
503 976
503 505
503 632
503 647
503 658
503 675
503 855
503 864
503 843
503 918
503 660
503 935
503 612
503 963
503 530
503 627
503 542
503 673
503 800
503 941
503 829
503 833
504 775
505 814
505 681
505 852
505 524
505 546
505 699
505 980
505 753
505 774
505 934
505 685
505 698
505 728
505 762
505 981
505 798
505 684
505 678
505 637
505 968
505 710
505 641
505 772
505 925
505 589
505 719
505 554
506 872
506 748
506 575
506 677
506 998
506 581
506 612
506 649
506 760
506 819
506 697
507 672
507 561
507 593
507 687
507 719
507 870
507 932
507 663
507 709
507 674
507 924
507 665
507 884
507 806
507 545
507 991
507 737
507 787
507 874
507 781
507 979
507 710
507 982
507 535
507 934
507 623
507 651
508 882
508 665
508 891
508 971
508 534
508 651
508 878
508 988
508 825
508 995
508 726
508 723
508 994
508 989
508 660
508 801
509 611
509 550
509 615
509 734
509 757
509 944
509 620
509 937
509 567
509 797
509 692
509 990
509 715
509 773
509 819
509 683
509 984
509 831
509 677
509 998
509 816
509 622
509 974
509 591
509 901
509 945
509 844
509 637
509 752
510 635
510 784
510 842
510 534
510 623
510 659
510 755
510 859
510 878
510 911
510 988
510 825
510 828
510 583
510 995
510 824
510 617
510 747
510 976
510 730
510 745
510 855
511 842
511 848
511 852
511 516
511 863
511 999
511 950
511 871
511 678
512 605
512 686
512 965
512 699
512 728
512 911
512 816
512 934
512 678
512 684
512 980
512 542
513 543
513 693
513 764
513 642
513 515
513 887
513 949
513 916
513 576
513 906
513 986
513 879
513 869
513 660
513 544
513 560
513 667
513 748
513 795
513 834
513 569
513 755
514 795
514 902
514 728
514 544
514 529
514 559
514 581
514 792
515 591
515 670
515 625
515 814
515 576
515 800
515 895
515 710
515 718
515 894
515 782
515 544
515 543
515 916
515 986
515 643
515 703
515 693
515 539
515 522
515 725
515 775
515 566
515 847
515 634
515 560
515 564
515 795
515 920
515 757
515 525
515 799
516 582
516 589
516 748
516 575
516 611
516 848
516 852
516 836
516 869
517 892
517 619
517 893
517 776
517 640
517 611
517 911
517 836
517 957
518 837
518 527
518 880
518 795
518 825
518 775
518 696
519 566
519 533
519 737
519 670
519 721
519 823
519 918
519 902
519 961
519 704
519 777
519 945
519 675
519 889
519 647
519 960
519 843
519 855
519 935
519 660
519 735
519 818
519 701
519 809
519 655
519 958
519 658
519 632
519 592
519 750
519 538
519 614
519 690
519 520
519 815
519 628
519 739
520 532
520 593
520 931
520 772
520 824
520 555
520 556
520 729
520 579
520 527
520 568
520 702
520 697
520 765
520 603
520 591
520 533
520 671
520 570
520 582
520 841
520 952
520 601
520 876
520 621
520 727
520 807
521 622
521 834
521 657
521 904
521 773
521 967
521 775
521 563
521 615
521 712
521 722
521 797
522 740
522 916
522 894
522 609
522 710
522 954
522 586
522 549
522 652
522 560
522 617
522 642
522 670
522 748
522 782
522 795
522 814
522 895
522 702
522 878
523 782
523 772
523 699
523 590
523 720
523 637
523 581
523 890
523 862
523 943
523 524
523 684
524 532
524 994
524 949
524 858
524 551
524 637
524 752
524 946
524 678
524 968
524 537
524 934
524 742
524 981
524 586
524 536
524 774
524 558
524 698
524 798
524 684
524 720
524 888
524 753
524 585
524 699
524 590
524 980
524 685
524 546
524 988
524 634
524 644
524 599
524 919
524 893
524 900
524 624
524 738
524 979
524 636
525 753
525 647
525 529
525 676
525 666
525 682
525 543
525 985
525 578
525 636
525 708
525 851
525 957
526 848
526 620
526 778
526 656
526 830
526 763
526 736
526 840
526 812
526 835
526 688
526 863
526 773
526 596
526 636
526 682
526 713
526 799
526 851
526 957
527 834
527 775
527 695
527 568
527 555
527 783
527 930
527 601
527 876
527 950
527 696
527 577
527 836
527 864
528 703
528 621
528 878
528 632
528 660
528 739
528 809
528 855
529 841
529 531
529 664
529 624
529 896
529 993
529 791
529 604
529 829
529 869
529 779
529 974
529 877
529 559
529 769
529 982
529 792
529 898
529 871
529 948
529 783
529 602
529 668
529 929
529 914
529 553
529 570
529 776
529 547
529 549
529 767
529 831
529 742
529 729
529 754
529 581
530 610
530 674
530 884
530 870
530 687
530 665
530 885
530 868
530 719
530 811
530 787
530 991
530 786
530 743
530 561
530 932
530 852
530 724
530 772
530 668
530 713
530 714
531 874
531 754
531 852
531 901
531 766
531 980
531 575
531 842
531 848
531 858
531 534
531 957
532 689
532 616
532 919
532 582
532 635
532 587
532 608
532 794
532 580
532 784
532 707
532 595
532 726
532 740
532 716
532 874
532 641
532 566
532 882
532 865
532 805
532 810
532 838
532 972
532 987
532 881
532 661
532 807
532 985
532 698
532 555
532 617
532 986
532 989
532 549
532 795
532 697
532 577
532 914
532 845
532 546
532 772
532 570
532 730
532 841
532 770
532 842
532 862
533 770
533 705
533 767
533 540
533 857
533 768
533 614
533 686
533 640
533 893
533 652
533 776
533 638
533 700
533 880
533 758
533 648
533 629
533 978
533 955
533 672
533 619
533 892
533 560
533 726
533 750
533 903
533 624
533 575
533 704
533 846
533 599
534 689
534 710
534 671
534 788
534 977
534 649
534 813
534 651
534 921
534 866
534 825
534 988
534 634
534 639
534 905
534 583
534 626
534 732
534 878
534 907
534 654
534 995
534 859
534 917
534 854
534 623
534 911
534 879
534 780
534 844
534 724
534 812
534 974
534 956
534 696
534 944
534 973
534 677
535 570
535 670
535 848
535 623
535 988
535 618
535 843
535 801
535 581
535 829
535 746
536 795
536 731
536 968
536 675
536 556
536 996
536 759
536 980
536 741
537 865
537 652
537 852
537 934
537 712
538 576
538 897
538 591
538 909
538 693
538 891
538 872
538 898
538 539
538 643
538 795
538 949
538 572
538 696
538 660
539 894
539 895
539 718
539 703
539 617
539 782
539 910
539 642
539 795
539 906
539 897
539 741
539 813
539 863
539 754
539 686
539 560
539 625
539 670
539 949
539 848
539 864
539 827
539 957
540 580
540 705
540 640
540 619
540 880
540 637
540 618
540 865
540 574
540 872
540 622
540 700
540 978
540 870
540 815
540 669
541 800
541 863
541 938
541 711
541 826
541 985
541 842
541 956
541 846
541 598
541 986
541 887
541 602
541 574
541 572
541 575
541 611
541 971
541 875
541 626
542 730
542 611
542 697
542 964
542 578
542 676
542 656
542 612
542 817
542 586
542 636
542 669
542 799
542 851
542 957
543 564
543 710
543 916
543 844
543 969
543 973
543 560
543 556
543 735
543 801
543 939
543 648
543 654
543 553
543 591
543 642
543 643
543 748
543 795
543 852
543 835
544 625
544 703
544 589
544 915
544 887
544 748
544 894
544 973
544 693
544 920
544 956
544 835
544 888
544 826
544 560
544 670
544 795
544 949
544 733
544 630
544 581
545 725
545 787
545 924
545 939
545 884
545 674
545 962
545 600
545 817
545 687
545 694
545 737
545 870
545 932
545 560
545 639
545 855
545 792
546 601
546 753
546 720
546 951
546 721
546 684
546 658
547 573
547 775
547 727
547 950
547 729
547 749
547 778
547 625
547 932
547 603
547 696
547 835
548 702
548 773
548 831
548 999
548 567
548 615
548 757
548 998
548 799
549 678
549 745
549 928
549 990
549 944
549 688
549 594
549 712
549 757
549 778
549 819
550 575
550 671
550 996
550 900
550 947
550 831
550 734
550 592
550 936
550 989
550 567
550 616
550 872
550 827
550 615
550 712
550 757
550 778
551 648
551 591
551 800
551 681
551 997
551 657
551 793
551 721
551 965
551 661
551 646
551 904
551 931
551 913
551 954
551 569
551 552
551 853
551 673
551 875
551 967
551 664
551 992
551 631
551 738
551 963
551 729
551 629
551 623
551 630
551 827
551 659
551 817
551 999
551 808
551 677
551 771
551 708
552 949
552 569
552 839
552 588
552 886
552 582
552 813
552 563
552 803
552 657
552 664
552 721
552 738
552 992
552 997
553 663
553 674
553 744
553 710
553 834
553 795
553 916
553 925
553 920
553 973
553 985
553 934
553 938
553 560
553 642
553 748
553 844
553 949
553 611
553 931
554 870
554 690
554 799
554 714
554 851
554 669
554 797
554 814
554 962
554 578
554 656
554 666
554 708
554 741
554 835
554 957
555 687
555 670
555 693
555 775
555 784
555 876
555 696
555 739
556 580
556 873
556 738
556 775
556 792
556 926
556 601
556 876
556 950
556 696
556 855
556 963
557 865
557 693
557 584
557 793
557 573
557 629
557 705
557 740
557 833
557 657
557 579
557 957
558 608
558 726
558 645
558 670
558 782
558 949
558 903
558 968
558 720
558 994
558 875
558 759
558 831
558 678
558 980
558 753
558 797
559 767
559 598
559 842
559 929
559 783
559 802
559 792
559 833
559 594
559 602
559 869
559 877
559 769
559 982
559 966
559 871
559 974
559 914
559 791
559 604
559 993
559 827
559 940
559 876
559 789
559 811
559 756
559 824
559 862
559 674
559 611
559 885
559 834
559 593
559 797
559 660
559 909
559 726
559 844
560 838
560 593
560 820
560 906
560 748
560 925
560 845
560 969
560 625
560 693
560 822
560 814
560 894
560 834
560 617
560 764
560 782
560 591
560 589
560 718
560 844
560 890
560 576
560 564
560 915
560 670
560 863
560 950
560 934
560 983
560 630
560 726
560 646
560 704
560 836
560 795
560 949
560 572
561 605
561 976
561 939
561 806
561 959
561 811
561 787
561 932
561 868
561 924
561 665
561 870
561 737
561 663
561 719
561 674
561 627
561 687
561 885
561 991
561 884
561 653
561 634
561 762
561 697
561 618
561 659
561 984
561 883
561 626
561 851
561 593
561 994
562 776
562 880
562 758
562 629
562 893
562 768
562 600
562 574
562 872
562 622
562 648
562 700
562 978
562 879
563 819
563 771
563 804
563 831
563 615
563 734
563 759
563 896
564 587
564 667
564 625
564 949
564 748
564 969
564 640
564 723
564 604
564 656
564 576
564 589
564 609
564 703
564 795
564 909
564 920
564 658
564 831
564 746
565 730
565 700
565 870
565 971
565 578
565 646
565 673
565 691
565 832
565 923
565 954
565 999
565 902
566 616
566 610
566 882
566 849
566 717
566 582
566 608
566 726
566 730
566 805
566 865
567 891
567 780
567 628
567 937
567 801
567 900
567 816
567 768
567 687
567 985
567 615
567 620
567 722
567 757
567 998
567 957
568 848
568 772
568 775
568 794
568 800
568 950
568 696
568 702
568 755
569 642
569 667
569 693
569 782
569 923
569 679
569 962
569 664
569 705
569 877
569 945
569 657
569 817
569 862
569 965
569 999
569 802
570 805
570 580
570 726
570 784
570 657
570 582
570 587
570 730
570 838
570 841
570 865
570 631
570 862
570 792
571 768
571 770
571 672
571 916
571 669
571 818
571 942
571 574
571 872
571 686
571 758
571 681
571 999
572 784
572 949
572 956
572 754
572 848
572 733
572 858
572 790
572 680
572 983
572 826
572 985
572 922
572 903
572 711
572 723
572 789
572 611
572 731
572 939
572 743
572 755
572 664
572 575
572 842
572 696
572 780
572 928
572 714
573 582
573 670
573 681
573 893
573 793
573 862
573 953
573 954
573 992
574 776
574 978
574 622
574 705
574 706
574 892
574 697
574 779
574 968
574 872
574 640
574 648
574 700
574 585
574 792
575 622
575 891
575 789
575 723
575 985
575 903
575 938
575 847
575 848
575 846
575 613
575 858
575 790
575 956
575 756
575 873
575 898
575 722
575 854
575 869
575 629
575 787
575 924
575 740
575 750
575 644
575 842
575 852
575 757
576 906
576 764
576 591
576 916
576 867
576 834
576 617
576 890
576 807
576 712
576 607
576 593
576 821
576 642
576 643
576 670
576 748
576 795
576 949
576 832
576 813
576 878
577 582
577 646
577 603
577 879
577 866
577 921
577 878
577 828
577 907
577 780
577 825
577 626
577 659
577 634
577 854
577 633
577 607
577 651
577 911
577 654
577 905
577 995
577 623
577 917
577 742
577 677
577 838
577 969
577 944
577 933
577 723
577 658
577 688
577 755
577 988
577 739
578 861
578 672
578 817
578 874
578 671
578 921
578 656
578 669
578 682
578 713
578 714
578 799
578 835
578 851
578 957
579 621
579 950
579 749
579 840
579 753
579 594
579 842
579 601
579 702
580 717
580 616
580 707
580 587
580 794
580 582
580 641
580 838
580 754
580 601
580 851
580 880
580 994
580 837
580 965
580 651
580 682
580 957
581 640
581 954
581 802
581 668
581 602
581 769
581 869
581 792
581 779
581 594
581 791
581 807
581 871
581 608
581 949
581 690
581 627
581 989
581 713
582 803
582 717
582 707
582 841
582 587
582 919
582 794
582 730
582 616
582 810
582 610
582 784
582 849
582 726
582 635
582 865
582 689
582 641
582 608
582 864
582 967
582 722
582 755
582 734
582 978
582 876
582 723
582 818
582 874
582 822
582 842
582 852
582 777
582 819
583 614
583 834
583 895
583 634
583 633
583 905
583 775
583 791
583 607
583 623
583 639
583 732
583 743
583 755
584 737
584 931
584 620
584 882
584 664
584 691
584 965
584 992
584 727
584 714
585 726
585 694
585 634
585 689
585 934
585 968
585 753
586 648
586 754
586 934
586 792
586 835
587 854
587 855
587 780
587 608
587 635
587 689
587 726
587 730
587 838
587 874
587 670
587 658
588 811
588 625
588 631
588 820
588 916
588 657
588 691
588 738
588 817
588 862
588 992
588 997
588 988
588 704
589 689
589 782
589 834
589 916
589 643
589 880
589 642
589 670
589 748
589 949
590 770
590 593
590 699
590 625
590 753
591 910
591 895
591 916
591 645
591 796
591 899
591 642
591 643
591 670
591 748
591 782
591 795
591 820
591 909
591 949
591 739
592 867
592 696
592 975
592 778
592 816
592 620
592 765
592 954
592 615
592 677
592 757
592 797
592 941
593 806
593 939
593 750
593 674
593 744
593 663
593 885
593 787
593 959
593 870
593 725
593 884
593 868
593 811
593 991
593 687
593 709
593 924
593 976
593 932
593 994
593 665
593 698
593 738
593 933
593 891
593 858
593 654
593 854
593 838
593 694
593 611
593 801
593 819
593 791
594 610
594 709
594 617
594 862
594 708
595 689
595 794
595 888
595 629
595 922
595 730
595 865
595 878
595 851
596 895
596 942
596 691
596 868
596 740
596 761
596 995
596 661
596 664
596 673
596 965
596 992
596 633
596 777
596 963
597 694
597 852
597 807
597 831
597 967
597 611
597 671
597 723
597 842
597 848
597 953
597 660
598 642
598 971
598 985
598 733
598 723
598 611
598 975
598 988
598 994
598 599
598 671
598 848
598 852
598 858
598 779
599 985
599 873
599 790
599 754
599 938
599 611
599 723
599 761
599 959
599 822
599 833
599 740
599 733
599 842
599 848
599 852
599 817
599 875
599 798
599 739
600 867
600 997
600 772
600 775
600 701
600 753
600 818
600 876
600 624
600 696
600 697
600 702
600 980
600 752
600 802
601 775
601 727
601 702
601 603
601 765
601 970
601 934
601 955
601 991
601 680
601 876
601 696
601 961
601 712
602 792
603 724
603 965
603 828
603 612
603 743
603 839
603 688
603 876
603 950
603 696
603 921
604 621
604 675
604 620
604 783
604 791
604 792
604 829
604 869
605 874
605 740
605 919
605 656
605 726
605 730
605 865
605 627
605 756
605 921
605 630
605 815
606 671
606 628
606 735
606 660
606 632
606 975
606 823
606 996
606 841
606 790
606 739
606 855
607 874
607 949
607 817
607 780
607 821
607 835
607 623
607 639
607 732
607 878
607 911
607 921
607 988
608 689
608 953
608 736
608 752
608 838
608 841
608 865
608 870
608 721
608 702
608 829
609 686
609 986
609 915
609 978
609 705
609 617
609 625
609 642
609 834
609 613
609 954
610 707
610 924
610 794
610 865
610 874
610 817
611 983
611 789
611 891
611 761
611 926
611 680
611 903
611 985
611 826
611 711
611 733
611 847
611 938
611 846
611 756
611 922
611 644
611 842
611 671
611 991
611 618
611 990
611 765
611 683
611 617
611 940
611 936
611 681
611 852
611 632
612 748
612 969
612 637
612 633
612 632
612 864
612 870
612 976
612 997
612 647
612 675
612 836
612 975
612 734
612 769
613 640
613 973
613 733
613 842
613 728
614 616
614 770
614 655
614 872
614 622
614 640
614 648
614 706
615 648
615 817
615 702
615 639
615 928
615 936
615 771
615 984
615 990
615 896
615 683
615 831
615 944
615 941
615 804
615 712
615 677
615 692
615 734
615 801
615 690
615 757
615 745
615 819
615 620
615 860
615 773
615 951
615 947
615 816
615 815
615 760
615 797
615 900
615 778
615 660
615 691
615 863
615 650
615 786
615 876
615 892
615 756
615 746
615 970
615 914
615 744
615 946
615 950
615 829
616 881
616 730
616 814
616 669
616 829
616 641
616 689
616 726
616 838
616 874
616 782
616 943
616 632
617 899
617 994
617 910
617 867
617 822
617 969
617 845
617 916
617 925
617 909
617 830
617 707
617 748
617 795
617 949
617 671
617 913
618 852
618 721
618 632
618 653
618 739
618 836
618 998
619 768
619 622
619 767
619 640
619 776
619 700
619 880
619 918
619 648
619 978
620 946
620 831
620 692
620 815
620 625
620 722
620 860
621 641
621 838
621 772
621 876
621 766
621 695
621 749
621 624
621 963
621 696
621 702
621 819
622 776
622 872
622 880
622 645
622 770
622 955
622 672
622 638
622 893
622 767
622 648
622 768
622 758
622 700
622 652
622 952
622 753
622 827
622 734
622 961
622 689
622 934
622 694
622 640
622 932
622 923
622 732
623 687
623 922
623 654
623 732
623 879
623 743
623 634
623 911
623 854
623 828
623 792
623 956
623 753
623 878
623 988
623 675
624 817
624 954
624 965
624 775
624 772
624 695
624 642
624 726
624 979
624 851
625 909
625 894
625 693
625 920
625 667
625 949
625 643
625 845
625 960
625 892
625 979
625 642
625 748
625 782
625 795
625 814
625 867
625 895
625 943
625 864
626 841
626 638
626 953
626 876
626 747
626 809
626 651
626 732
626 878
626 921
627 884
627 796
627 744
627 812
627 674
627 870
627 932
627 858
627 843
627 855
628 675
628 794
628 698
628 723
628 809
628 855
628 864
629 770
629 857
629 768
629 750
629 646
629 700
629 705
629 941
630 841
630 704
630 958
630 823
630 979
630 855
630 809
630 864
630 902
630 655
630 660
630 945
630 975
630 811
630 978
630 970
630 786
630 632
630 739
630 963
630 712
630 851
631 908
631 931
631 644
631 970
631 855
631 636
632 649
632 777
632 818
632 823
632 855
632 739
632 647
632 958
632 660
632 655
632 935
632 735
632 979
632 960
632 963
632 704
632 918
632 792
632 848
632 730
632 806
632 752
632 809
632 836
633 694
633 639
633 921
633 755
633 911
633 961
633 739
633 933
633 659
633 878
633 988
633 715
633 835
634 699
634 651
634 859
634 878
634 911
634 957
635 919
635 882
635 860
635 685
635 730
635 740
635 838
635 865
635 874
635 952
635 870
635 643
635 684
636 949
636 702
636 666
636 861
636 933
636 656
636 708
636 851
636 669
636 746
636 713
636 741
636 812
636 799
636 714
636 747
636 964
636 835
636 892
636 916
636 841
636 647
636 881
636 650
636 779
636 792
636 787
636 758
636 682
636 957
637 742
637 981
637 684
637 670
637 682
637 934
637 980
637 977
638 865
638 872
638 700
638 652
638 818
638 715
638 643
638 640
638 899
638 672
638 954
639 874
639 687
639 932
639 795
639 649
639 825
639 988
639 995
639 828
639 917
639 780
639 826
639 931
639 719
639 745
639 793
639 658
639 651
639 878
639 760
640 652
640 705
640 880
640 893
640 899
640 770
640 768
640 857
640 776
640 672
640 872
640 955
640 685
640 918
640 710
640 741
640 673
640 928
640 797
640 946
640 648
640 922
640 664
640 913
640 772
641 881
641 882
641 803
641 717
641 689
641 805
641 764
641 663
641 891
641 675
641 666
641 986
641 838
641 874
641 691
641 965
641 745
641 682
642 969
642 845
642 915
642 681
642 758
642 669
642 979
642 643
642 670
642 693
642 748
642 764
642 795
642 887
642 949
643 874
643 648
643 686
643 915
643 693
643 814
643 895
643 782
643 845
643 765
643 802
643 683
643 853
643 763
643 676
643 785
643 670
643 795
643 949
643 908
644 926
644 662
644 922
644 846
644 956
644 883
644 681
644 861
644 755
644 913
644 740
644 842
644 852
644 684
645 768
645 776
645 899
645 736
645 818
645 648
645 705
645 748
645 669
645 851
646 904
646 874
646 847
646 738
646 793
646 965
646 727
647 706
647 657
647 772
647 735
647 918
647 701
647 818
647 961
647 676
647 792
647 971
647 660
647 739
647 975
648 872
648 880
648 758
648 700
648 770
648 768
648 652
648 899
648 978
648 706
648 892
648 893
648 691
648 822
648 650
648 996
649 654
649 921
649 882
649 911
649 988
649 836
649 783
650 962
650 886
650 673
650 944
650 821
650 740
650 817
650 954
650 965
650 967
650 961
650 993
650 676
651 725
651 654
651 755
651 659
651 825
651 917
651 828
651 878
651 813
651 702
651 891
651 899
651 782
651 692
651 815
651 921
651 988
651 739
651 945
651 746
652 955
652 833
652 815
652 844
652 686
652 706
652 687
652 867
653 809
653 836
653 735
653 806
653 914
653 811
653 658
653 739
654 805
654 703
654 761
654 863
654 817
654 878
654 988
655 865
655 738
655 836
655 864
656 865
656 734
656 741
656 812
656 799
656 950
656 690
656 665
656 676
656 708
656 713
656 763
656 835
656 957
657 832
657 962
657 954
657 853
657 965
657 781
657 967
657 817
657 804
657 659
657 893
657 892
657 704
657 664
657 913
657 999
657 745
657 928
658 740
658 865
658 675
658 823
658 979
658 945
658 918
658 959
658 799
658 871
658 739
658 843
658 786
658 676
659 853
659 878
659 911
659 988
659 666
659 708
660 672
660 737
660 828
660 823
660 739
660 855
660 935
660 960
660 704
660 889
660 809
660 977
660 791
660 975
660 829
661 996
661 992
661 757
661 693
661 714
661 793
661 817
661 931
661 864
661 791
661 835
662 887
662 949
662 984
662 979
662 848
662 852
663 709
663 750
663 959
663 674
663 744
663 824
663 741
663 687
663 870
663 932
663 968
663 907
664 730
664 679
664 785
664 691
664 913
664 832
664 954
664 776
664 773
664 836
664 717
664 684
664 767
664 673
664 738
664 862
664 908
664 965
664 831
664 669
665 750
665 744
665 796
665 868
665 719
665 940
665 851
665 768
665 674
665 694
665 806
665 870
665 932
665 994
666 687
666 868
666 795
666 992
666 772
666 746
666 861
666 830
666 797
666 789
666 958
666 874
666 669
666 713
666 957
667 726
667 872
667 737
667 695
667 693
667 834
667 931
667 799
668 936
668 871
668 800
668 920
668 792
669 970
669 797
669 799
669 741
669 861
669 830
669 676
669 933
669 763
669 708
669 929
669 683
669 906
669 809
669 682
669 851
669 957
670 820
670 986
670 895
670 718
670 710
670 949
670 845
670 834
670 916
670 906
670 795
670 782
670 890
670 814
670 925
670 915
670 748
670 910
670 867
670 897
670 764
670 815
670 682
670 918
670 743
670 765
670 803
670 846
670 903
670 861
670 703
670 858
670 753
670 818
670 831
671 761
671 883
671 873
671 850
671 842
671 947
671 940
672 955
672 869
672 700
672 703
672 774
672 921
673 954
673 952
673 687
673 712
673 680
673 817
673 837
673 967
673 732
674 700
674 744
674 932
674 819
674 891
674 747
674 896
674 853
674 694
674 737
674 870
674 994
674 723
675 963
675 728
675 826
675 836
675 855
676 774
676 682
676 708
676 714
676 799
676 835
676 957
677 884
677 696
677 831
677 801
677 745
677 998
677 778
677 683
677 797
677 863
677 752
677 781
677 932
677 895
677 712
677 715
677 722
677 734
677 757
677 771
677 819
677 769
677 835
678 684
678 774
678 762
678 720
678 821
678 897
678 892
678 988
679 838
679 959
679 956
679 788
679 817
679 862
680 959
680 826
680 731
680 926
680 936
680 812
680 842
680 848
680 852
680 837
681 711
681 863
681 733
681 723
681 985
681 981
681 761
681 848
681 852
682 689
682 932
682 757
682 957
682 821
682 747
682 927
682 799
682 746
682 964
682 840
682 763
682 933
682 856
682 861
682 835
682 830
682 714
682 770
682 813
682 854
682 759
682 726
682 833
682 774
682 749
683 730
683 781
683 823
683 688
683 712
683 896
683 936
684 726
684 870
684 934
684 720
684 888
684 980
684 968
684 753
684 698
684 946
684 957
684 714
684 814
684 886
684 853
684 742
685 949
685 984
685 777
685 785
685 879
685 753
686 874
686 706
686 857
686 771
686 875
686 965
687 939
687 719
687 885
687 884
687 787
687 750
687 709
687 694
687 796
687 959
687 976
687 806
687 797
687 832
687 792
687 688
687 737
687 932
687 822
687 731
687 988
688 811
688 898
688 747
688 734
688 757
688 851
689 841
689 810
689 726
689 730
689 874
689 838
689 987
689 952
689 990
689 939
689 904
689 779
689 758
689 805
689 865
690 691
690 831
690 990
690 816
690 852
690 712
690 722
690 778
690 819
691 711
691 802
691 811
691 795
691 922
691 913
691 954
692 711
692 789
692 753
692 918
692 722
692 792
692 713
693 986
693 925
693 822
693 909
693 703
693 844
693 698
693 821
693 814
693 867
693 743
693 819
694 758
694 994
694 939
694 787
694 959
694 806
694 744
694 707
694 799
694 777
694 709
694 719
694 870
694 932
694 702
694 734
694 941
695 810
695 772
695 775
695 702
695 860
696 719
696 775
696 876
696 751
696 729
696 824
696 808
696 749
696 697
696 727
696 765
696 702
696 950
696 798
696 735
696 880
696 985
696 747
696 733
696 744
696 934
696 979
697 775
697 808
697 780
697 989
697 702
697 727
697 829
697 877
698 934
698 753
698 829
698 809
698 712
698 941
699 750
699 870
699 888
699 867
699 863
699 926
699 961
699 980
700 758
700 770
700 955
700 892
700 795
700 805
700 911
700 886
700 929
700 782
700 992
700 771
701 870
701 842
701 922
701 766
701 740
701 736
701 739
701 975
702 969
702 772
702 876
702 775
702 727
702 950
702 766
702 824
702 729
702 744
702 728
702 967
702 905
702 713
702 855
703 806
703 910
703 837
703 747
703 795
703 852
704 852
704 931
704 828
704 905
705 857
705 872
705 892
705 706
705 758
705 775
705 978
705 739
706 958
706 911
706 745
707 726
707 730
707 740
707 838
707 865
707 879
708 988
708 957
708 713
708 763
708 851
708 835
708 799
708 856
708 821
708 830
708 927
708 741
708 933
708 964
708 861
708 812
708 710
708 979
708 911
708 863
709 725
709 744
709 719
709 796
709 870
709 932
709 994
709 753
709 722
709 745
709 957
710 845
710 812
710 919
710 748
710 795
710 949
710 738
711 863
711 852
711 989
711 858
711 979
712 734
712 816
712 745
712 860
712 780
712 823
712 715
713 788
713 837
713 714
713 736
713 957
713 861
713 747
713 821
713 856
713 851
713 967
713 929
713 753
713 874
713 935
713 766
713 925
713 763
714 842
714 821
714 856
714 840
714 964
714 830
714 812
714 741
714 747
714 736
714 795
714 759
714 907
714 760
714 906
714 999
714 799
714 835
714 851
714 957
715 841
715 801
715 840
715 927
715 722
716 838
716 865
716 897
716 992
717 930
717 805
717 958
717 788
717 726
717 730
717 841
717 874
717 815
718 811
718 748
718 920
718 819
719 885
719 811
719 976
719 725
719 806
719 751
719 932
719 795
719 786
720 794
720 870
720 722
721 874
721 943
721 954
721 869
721 877
722 813
722 866
722 843
722 896
722 819
722 778
722 944
722 998
722 734
722 880
722 812
722 847
722 757
722 741
723 842
723 848
723 858
724 920
724 862
724 817
724 923
724 965
724 792
725 794
725 737
725 870
725 932
725 994
725 729
725 921
726 919
726 740
726 730
726 841
726 881
726 930
726 784
726 810
726 882
726 794
726 987
726 838
726 887
726 742
726 876
726 901
726 779
726 986
726 905
726 805
726 865
726 814
726 909
726 832
727 991
727 922
727 965
727 824
727 772
727 944
727 964
727 935
727 867
727 938
727 878
728 934
728 980
728 989
728 753
728 988
728 799
729 839
729 775
729 745
729 947
730 810
730 972
730 803
730 841
730 930
730 874
730 794
730 919
730 784
730 849
730 882
730 881
730 987
730 947
730 814
730 815
730 967
730 928
730 935
730 995
730 916
730 788
730 740
730 950
731 794
731 767
731 858
731 901
731 883
731 878
731 842
731 852
731 975
732 911
732 988
732 907
732 995
732 873
732 792
732 957
732 753
732 828
732 878
733 795
733 887
733 826
733 848
733 868
733 939
733 937
733 858
733 862
733 836
734 937
734 778
734 831
734 989
734 928
734 816
734 773
734 757
734 819
734 984
734 900
734 896
734 810
734 814
734 821
734 879
734 906
734 777
734 959
734 763
734 957
735 800
735 739
735 836
735 855
735 799
736 838
736 933
736 920
736 818
736 898
736 891
736 799
736 851
736 957
737 810
737 924
737 744
737 884
737 991
737 870
737 753
737 745
737 806
737 811
737 932
737 749
738 992
738 839
738 967
738 857
738 974
738 776
738 941
738 906
738 777
738 913
738 923
738 953
738 954
738 965
738 997
738 843
739 994
739 795
739 863
739 967
739 988
739 979
739 889
739 912
739 902
739 935
739 836
739 958
739 777
739 824
739 819
739 743
739 813
739 768
739 820
739 931
739 855
739 864
739 975
739 869
740 784
740 805
740 987
740 919
740 930
740 843
740 752
740 785
740 874
740 744
740 809
740 975
741 839
741 907
741 990
741 936
741 799
741 851
741 957
742 911
742 778
742 779
743 870
743 930
743 798
743 844
743 878
743 921
744 773
744 870
744 932
744 859
744 878
745 757
745 819
745 831
746 807
746 835
746 763
746 851
747 838
747 813
747 799
747 851
747 957
748 925
748 782
748 887
748 973
748 795
748 916
748 986
748 894
748 764
748 890
748 895
748 969
748 808
748 750
748 832
748 931
748 827
748 938
748 767
748 909
748 988
749 957
749 851
750 841
750 978
750 809
750 870
750 932
750 999
750 823
750 855
750 778
751 814
751 949
751 772
751 775
751 876
751 803
751 863
752 952
752 934
753 981
753 968
753 888
753 934
753 946
753 918
753 881
753 801
753 784
753 993
753 807
753 829
754 892
755 965
755 813
755 835
755 777
755 911
755 988
755 757
756 780
756 842
756 852
756 858
756 878
756 757
757 842
757 852
757 860
757 951
757 936
757 815
757 937
757 778
757 900
757 990
757 867
757 819
758 768
758 978
758 974
759 878
759 989
759 985
759 925
759 819
760 939
760 782
760 771
760 779
761 852
761 992
761 934
761 946
762 934
762 911
762 977
763 899
763 792
763 833
763 851
763 957
763 840
763 835
763 927
763 917
763 841
763 930
763 820
764 916
764 774
764 838
764 782
764 814
764 834
764 909
764 920
764 949
765 775
765 876
765 866
765 957
766 852
766 775
766 876
767 768
767 967
768 811
768 911
768 868
768 899
768 978
768 923
769 822
769 789
769 852
769 922
769 954
769 948
769 891
770 872
770 974
770 984
770 998
770 869
770 899
770 814
770 878
770 771
770 801
771 862
771 907
771 815
771 778
771 773
771 804
771 940
771 800
771 819
772 865
772 899
772 842
772 908
772 970
772 824
772 775
772 808
772 876
773 852
773 819
774 805
774 872
774 795
774 820
774 913
774 968
774 982
774 952
774 934
774 836
775 970
775 876
775 784
776 899
776 952
776 877
776 857
776 872
776 963
777 836
777 975
777 928
778 876
778 859
778 907
778 947
778 984
778 896
778 854
778 878
778 819
779 897
779 885
779 829
780 994
780 948
780 878
780 977
780 988
780 797
780 835
781 978
781 958
781 817
781 953
781 965
781 997
781 836
782 885
782 915
782 986
782 916
782 909
782 929
782 975
782 795
782 834
782 895
782 949
782 809
782 827
783 827
783 929
783 857
783 984
783 895
783 814
783 977
783 792
784 882
784 919
784 914
784 983
784 865
785 955
785 870
785 954
785 967
785 999
786 913
786 966
786 950
786 856
786 829
787 847
787 806
787 870
787 932
787 862
787 963
788 919
788 872
788 908
788 816
788 817
788 953
788 954
788 965
789 795
789 956
789 863
789 842
789 852
789 858
789 979
790 795
790 956
790 852
790 940
790 993
791 982
791 817
791 802
792 898
792 993
792 827
792 793
792 903
793 874
793 842
793 937
793 882
793 980
793 817
793 832
793 862
793 913
793 997
793 855
794 803
794 819
794 861
794 966
794 838
794 865
794 874
794 827
795 796
795 910
795 834
795 915
795 973
795 916
795 906
795 867
795 800
795 920
795 894
795 890
795 986
795 820
795 822
795 969
795 826
795 862
795 860
795 995
795 975
795 912
795 900
795 949
796 870
796 932
796 862
796 860
797 932
797 860
797 989
797 951
797 804
797 985
797 895
798 946
798 981
798 888
799 801
799 957
799 830
799 812
799 861
799 835
799 851
799 840
799 969
799 973
799 923
799 979
799 944
800 895
800 920
800 949
801 911
801 941
802 836
802 894
802 880
802 959
803 838
803 841
803 865
804 879
804 936
805 836
805 911
805 830
805 838
805 865
806 811
806 926
806 870
806 994
807 878
808 874
808 817
808 920
808 876
809 865
809 960
809 864
809 910
810 905
810 865
810 963
810 860
811 870
811 932
811 860
812 851
812 957
813 932
813 950
813 878
813 879
813 911
813 988
814 915
814 910
814 834
814 905
814 965
814 949
815 832
815 931
815 947
815 899
815 971
816 909
816 886
816 819
817 967
817 962
817 839
817 923
817 943
817 862
817 837
817 853
817 904
817 942
817 997
817 992
817 998
817 821
817 884
817 881
817 965
817 928
817 827
818 848
818 904
818 855
819 895
819 950
819 970
819 831
819 944
819 937
819 951
819 860
819 906
819 973
819 953
820 993
820 903
820 954
821 949
821 969
821 992
821 864
821 833
821 851
821 957
822 909
822 839
823 836
823 855
823 902
824 858
824 832
824 967
824 854
824 876
824 950
824 879
825 954
825 878
825 911
825 988
825 941
826 848
826 852
826 858
826 859
827 980
827 988
827 936
827 948
827 891
828 947
829 972
829 992
829 982
829 929
829 959
829 835
830 894
830 852
830 957
831 893
831 860
831 945
831 941
832 872
832 953
832 913
832 965
834 925
834 969
834 909
834 897
834 865
834 843
834 949
834 855
834 957
835 876
835 980
835 845
835 989
835 957
836 852
836 981
836 912
836 960
836 958
836 935
836 864
836 918
836 947
836 975
837 858
837 999
837 942
837 908
837 936
837 993
838 849
838 882
838 874
838 972
838 898
838 945
838 966
838 926
838 847
838 953
839 887
839 962
839 954
840 842
840 852
840 957
841 881
841 930
841 876
842 955
842 985
842 846
842 938
842 858
842 891
842 863
842 956
842 850
842 852
842 873
842 926
842 952
842 978
842 928
842 932
842 953
842 867
842 887
843 908
843 928
843 855
843 864
843 940
844 897
844 921
844 949
844 992
845 909
845 920
846 870
846 949
846 848
846 852
846 858
847 971
847 999
847 995
847 848
847 852
847 858
847 988
848 891
848 926
848 938
848 852
848 858
848 956
848 883
848 903
848 985
848 850
848 919
848 894
848 906
848 855
848 936
848 941
849 874
850 969
850 852
851 901
851 911
851 964
851 927
851 861
851 933
851 931
851 865
851 985
851 896
851 973
851 875
852 870
852 985
852 891
852 863
852 983
852 926
852 971
852 938
852 901
852 883
852 900
852 858
853 955
853 876
854 878
854 988
855 978
855 935
855 963
855 979
855 958
855 889
855 912
855 918
855 902
855 882
855 928
855 948
855 908
855 977
856 957
857 924
857 872
857 992
858 956
858 983
858 864
858 973
858 908
858 936
858 984
858 942
859 994
859 879
859 977
859 913
859 914
859 878
859 988
860 900
861 945
861 962
862 908
862 942
862 943
862 992
862 927
862 954
863 993
864 909
864 904
864 975
864 902
864 979
864 935
864 969
864 995
864 927
864 896
865 874
865 881
865 882
865 987
865 985
865 897
865 900
866 875
866 878
866 911
866 921
866 988
867 978
867 906
867 894
867 915
867 914
867 895
867 949
868 985
868 870
868 932
868 918
869 966
869 993
869 994
869 903
870 976
870 884
870 939
870 991
870 885
870 924
870 994
870 959
870 974
870 932
871 972
871 932
872 978
872 893
872 952
872 946
872 899
873 923
874 987
874 930
874 919
874 920
874 988
875 965
875 997
876 950
876 970
876 976
876 885
876 878
877 888
877 934
878 997
878 917
878 879
878 988
878 995
878 911
878 925
879 894
879 954
879 988
880 892
880 886
881 895
881 954
882 895
882 918
883 954
884 932
885 981
886 949
886 888
886 954
886 965
887 973
887 934
887 950
888 930
889 975
890 949
891 971
892 978
892 914
893 955
893 952
894 949
895 920
895 978
895 949
896 949
896 995
898 999
899 978
900 932
900 911
900 998
901 908
902 932
902 986
902 946
902 903
903 988
904 954
904 965
904 992
905 932
905 980
905 921
905 988
906 920
906 949
907 967
907 968
907 988
908 912
908 913
908 923
908 953
908 967
908 992
910 949
910 961
911 988
911 921
911 917
911 949
911 998
911 946
911 961
912 997
913 992
913 978
914 957
915 949
915 988
916 920
916 949
917 921
917 977
917 988
917 998
918 921
920 973
920 959
920 949
920 921
921 986
921 988
923 949
923 954
923 999
924 932
924 994
924 989
925 949
928 949
930 992
931 996
931 997
932 976
932 959
932 994
932 991
932 939
932 965
932 943
932 933
932 953
933 957
934 946
934 964
934 980
935 968
936 965
936 944
936 968
936 941
936 998
937 971
940 997
940 990
942 953
942 954
942 965
942 967
943 954
943 965
943 967
943 957
949 986
949 973
949 983
950 953
950 989
951 972
951 998
952 996
953 996
953 997
954 994
954 965
954 992
954 999
954 955
954 966
954 967
955 979
955 988
957 964
958 999
959 976
960 963
961 968
962 967
962 992
963 975
965 996
965 967
966 978
967 997
967 998
968 980
969 999
972 988
974 980
975 998
976 994
977 988
978 988
988 995
988 989
992 996
998 999
