0 505
0 918
0 668
0 540
0 698
0 531
0 258
0 584
0 730
0 889
0 684
0 9
0 533
0 27
0 363
0 109
0 381
0 170
0 183
0 215
0 487
0 764
0 83
0 151
0 431
1 192
1 730
1 88
1 883
1 473
1 51
1 843
1 411
1 79
1 623
1 802
1 500
1 550
1 355
1 860
1 534
1 558
1 57
1 575
1 63
1 599
1 92
1 97
1 163
1 741
1 852
1 869
1 372
1 988
1 361
1 934
1 612
1 530
1 386
1 30
2 51
2 852
2 50
2 341
2 657
2 72
2 751
2 575
2 446
2 921
2 88
2 811
2 988
2 304
2 42
2 712
2 534
2 57
2 91
2 92
2 623
2 114
2 133
2 703
2 730
2 739
2 795
2 321
2 322
2 372
2 932
2 463
2 495
2 683
2 185
2 832
3 66
3 551
3 325
3 369
3 589
3 666
3 579
3 966
3 945
3 647
3 449
3 996
3 656
3 675
3 547
3 412
3 844
3 342
3 577
3 199
3 320
3 307
3 387
3 865
3 47
3 999
3 888
3 915
3 964
3 997
3 801
3 585
3 398
3 181
3 737
3 593
3 833
3 244
3 906
3 653
3 201
3 992
3 604
3 213
3 419
3 878
3 390
3 375
3 355
3 395
3 749
3 608
3 386
3 53
3 687
3 391
3 944
3 615
3 448
3 260
3 495
3 507
3 211
3 326
3 925
3 957
3 485
3 269
3 314
3 792
3 956
3 541
3 734
3 572
3 484
3 265
3 726
3 332
3 951
3 711
3 480
3 955
3 170
3 87
3 539
3 707
3 768
3 590
3 363
3 953
3 163
3 371
3 68
3 591
3 872
3 561
3 268
3 438
4 921
4 13
4 754
4 821
4 329
4 766
4 308
4 524
4 73
4 23
4 313
4 414
4 785
4 665
4 300
4 871
4 232
4 425
4 927
4 324
4 316
4 834
4 875
4 617
4 112
4 116
4 670
4 209
4 293
4 862
4 881
4 909
4 569
5 751
5 515
5 246
5 289
5 8
5 779
5 634
5 955
5 686
5 714
5 288
5 720
5 231
5 147
5 361
5 882
5 498
5 643
5 700
5 601
5 436
5 368
5 184
5 109
5 373
5 637
5 893
5 618
5 347
5 20
5 36
5 838
5 346
5 153
5 234
5 509
5 667
5 611
5 579
5 538
5 240
6 97
6 494
6 539
6 743
6 980
6 893
6 48
6 32
6 806
6 931
6 298
6 432
6 86
6 312
6 61
6 427
6 834
6 13
6 473
6 634
6 765
6 18
6 56
6 569
6 96
6 621
6 783
6 281
6 815
6 841
6 348
6 874
6 373
6 967
6 757
6 864
7 657
7 104
7 258
7 487
7 620
7 444
7 936
7 580
7 109
7 631
7 421
7 139
7 952
7 568
7 533
7 161
7 981
7 668
7 27
7 540
7 504
7 313
7 747
7 809
7 338
7 541
7 9
7 15
7 531
7 789
7 584
7 363
7 381
7 400
7 713
7 753
7 61
8 494
8 184
8 875
8 217
8 288
8 700
8 882
8 714
8 454
8 629
8 501
8 960
8 738
8 838
8 860
8 601
8 643
8 231
8 246
8 509
8 254
8 137
8 664
8 586
8 200
9 575
9 248
9 255
9 753
9 15
9 400
9 828
9 625
9 27
9 476
9 130
9 568
9 258
9 42
9 501
9 521
9 764
9 444
9 451
9 580
9 981
9 620
9 381
9 215
9 161
9 195
9 692
9 491
9 631
9 531
9 952
9 668
9 487
9 55
9 948
9 174
9 139
9 763
9 712
9 363
9 733
9 713
9 183
9 24
9 890
9 421
9 540
9 262
9 982
9 504
9 639
9 481
9 187
9 350
9 467
9 17
9 802
9 565
9 261
9 254
9 678
9 898
9 237
9 684
9 789
9 533
9 170
9 482
9 673
9 726
10 739
10 813
10 708
10 219
10 111
10 956
10 260
10 957
10 825
10 343
10 391
10 551
10 749
10 39
10 387
10 675
10 443
10 412
10 653
10 878
10 656
10 463
10 822
10 568
10 182
10 312
10 572
10 734
10 268
10 269
10 320
10 865
10 369
10 386
10 418
10 438
10 997
10 193
10 82
10 806
10 348
10 230
11 519
11 941
11 360
11 819
11 332
11 738
11 505
11 688
11 28
11 186
11 672
11 124
11 356
11 723
11 210
11 324
11 278
11 299
11 351
11 135
11 155
11 89
11 632
11 165
11 708
11 748
11 274
11 934
11 70
11 203
11 590
11 241
12 59
12 902
12 961
12 772
12 355
12 965
12 331
12 832
12 157
12 344
12 525
12 365
12 907
12 19
12 630
12 636
12 156
12 696
12 722
12 757
12 510
13 720
13 816
13 524
13 241
13 543
13 293
13 308
13 650
13 995
13 673
13 670
13 323
13 939
13 919
13 102
13 909
13 116
13 940
13 209
13 907
13 300
13 232
13 333
13 370
13 923
13 662
13 791
13 880
13 857
13 486
13 338
13 296
13 881
13 112
13 329
13 73
13 87
13 481
13 754
13 492
13 665
13 871
13 766
13 978
13 279
13 862
13 191
13 574
13 313
13 337
13 743
13 23
13 221
13 107
13 346
13 162
13 424
13 26
13 231
13 139
13 614
13 135
13 181
13 100
13 690
13 520
13 36
13 815
13 639
13 642
13 134
13 143
13 967
14 184
14 511
14 55
14 67
14 807
14 565
14 747
14 44
14 285
14 502
14 603
14 242
14 38
14 877
14 823
14 101
14 155
14 669
14 690
14 722
14 814
14 864
15 451
15 215
15 692
15 109
15 712
15 936
15 981
15 262
15 698
15 162
15 753
15 381
15 476
15 584
15 400
15 491
15 847
15 528
15 54
15 210
15 533
15 55
15 363
15 183
15 713
15 487
15 817
15 757
16 795
16 525
16 526
16 527
16 707
16 290
16 987
16 793
16 896
16 724
16 684
16 681
16 439
16 479
16 731
16 889
16 266
16 519
16 96
16 846
16 573
16 66
16 104
16 641
16 717
16 239
16 267
16 842
16 870
16 477
16 561
16 572
16 524
16 279
16 318
17 723
17 514
17 496
17 769
17 762
17 711
17 40
17 777
17 469
17 71
17 495
17 843
17 576
17 277
17 21
17 26
17 168
17 953
17 220
17 237
17 981
17 702
17 69
18 399
18 137
18 911
18 450
18 433
18 967
18 872
18 942
18 435
18 312
18 810
18 416
18 348
18 774
18 841
18 75
18 358
18 467
18 61
18 856
18 373
18 281
18 54
18 379
18 837
18 297
18 993
18 594
18 559
18 69
18 31
18 468
18 929
18 426
18 955
18 868
18 858
18 286
18 844
18 565
18 48
18 56
18 621
18 783
18 273
18 298
18 340
18 403
19 838
19 346
19 845
19 206
19 807
19 44
19 550
19 603
19 622
19 927
19 268
19 893
19 94
19 618
19 155
19 169
19 696
19 224
19 230
19 242
19 757
19 831
19 832
19 420
19 510
20 372
20 570
20 289
20 955
20 779
20 894
20 368
20 445
20 635
20 979
20 288
20 515
20 494
20 316
20 643
20 454
20 797
20 860
20 138
20 456
20 516
20 184
20 249
20 346
20 153
20 838
20 498
20 196
20 383
20 357
20 944
20 387
20 945
20 422
20 36
20 41
20 46
20 895
20 132
20 700
20 714
20 719
20 231
20 254
20 834
20 244
20 469
20 170
20 670
20 481
20 658
20 640
20 949
21 149
21 654
21 250
21 40
21 49
21 64
21 928
21 971
21 953
21 62
21 470
21 639
21 30
21 33
21 548
21 557
21 616
21 220
21 740
21 237
21 862
22 286
22 258
22 674
22 347
22 776
22 778
22 898
22 990
22 208
22 839
22 981
22 945
22 282
22 545
22 35
22 38
22 67
22 131
22 677
22 176
22 180
22 726
22 263
22 264
22 353
22 362
22 431
22 949
22 54
23 721
23 210
23 219
23 524
23 650
23 665
23 87
23 414
23 308
23 923
23 534
23 53
23 827
23 134
23 143
23 209
23 754
23 293
23 323
23 329
23 862
23 913
23 441
23 582
23 621
23 722
24 57
24 729
24 529
24 532
24 772
24 443
24 258
24 533
24 692
24 55
24 580
24 444
24 982
24 27
24 139
24 579
24 909
24 280
24 213
24 540
24 109
24 170
24 699
24 487
24 763
24 576
25 534
25 811
25 802
25 558
25 883
25 62
25 197
25 88
25 877
25 50
25 179
25 291
25 463
25 202
25 341
25 988
25 92
25 272
25 619
25 664
25 903
25 497
25 51
25 575
25 63
25 599
25 97
25 623
25 140
25 730
25 739
25 795
25 322
25 852
25 869
25 372
25 415
25 932
25 754
25 697
25 435
25 983
26 811
26 567
26 103
26 243
26 299
26 777
26 277
26 58
26 49
26 45
26 571
26 769
26 218
26 469
26 740
26 928
26 496
26 943
26 141
26 237
26 514
26 605
26 229
26 706
26 711
26 295
26 40
26 654
26 455
26 557
26 30
26 488
26 953
26 548
26 33
26 220
26 222
26 64
26 98
26 60
26 457
26 464
26 142
26 168
26 555
26 71
26 710
26 437
26 590
26 350
26 971
26 762
26 500
26 629
26 182
26 409
26 757
26 184
26 783
26 573
26 486
26 382
26 214
26 273
26 759
26 946
26 240
27 739
27 556
27 660
27 542
27 199
27 531
27 533
27 451
27 487
27 948
27 620
27 668
27 580
27 501
27 42
27 174
27 890
27 55
27 162
27 381
27 476
27 130
27 764
27 828
27 981
27 262
27 699
27 540
27 631
27 139
27 982
27 818
27 957
27 770
27 236
27 975
27 168
27 389
27 655
27 782
27 363
27 109
27 625
27 606
27 874
28 634
28 738
28 723
28 901
28 761
28 278
28 887
28 505
28 786
28 223
28 519
28 120
28 926
28 624
28 274
28 748
28 755
28 360
28 708
28 902
28 186
28 235
28 324
28 497
28 934
28 236
28 732
28 286
28 667
28 219
28 873
28 645
28 89
28 122
28 921
28 377
28 822
28 207
28 174
28 709
28 788
28 114
28 632
28 137
28 159
28 682
28 544
28 310
28 439
28 851
28 969
28 766
29 566
29 443
29 916
29 394
29 54
29 621
29 490
29 993
29 780
29 879
29 900
29 497
29 989
29 559
29 56
29 281
29 835
29 836
29 837
29 340
29 348
29 872
29 373
30 601
30 659
30 769
30 605
30 220
30 98
30 277
30 437
30 953
30 716
30 429
30 489
30 237
30 760
30 250
30 571
30 168
30 143
30 498
30 888
30 213
30 557
30 141
30 142
30 709
30 464
30 533
30 920
30 94
31 932
31 700
31 284
31 413
31 320
31 96
31 388
31 993
31 983
31 967
31 297
31 32
31 468
31 916
31 336
31 774
31 294
31 734
31 429
31 159
31 162
31 69
31 281
31 298
31 835
31 836
31 837
31 340
31 348
31 872
31 373
31 435
31 950
31 975
32 41
32 219
32 737
32 648
32 276
32 56
32 480
32 392
32 241
32 708
32 559
32 52
32 281
32 835
32 348
32 872
32 874
32 373
32 435
32 950
33 838
33 255
33 792
33 58
33 98
33 711
33 740
33 350
33 709
33 252
33 716
33 762
33 49
33 237
33 514
33 238
33 377
33 170
33 83
33 295
33 554
33 45
33 64
33 980
33 318
34 140
34 797
34 188
34 799
34 878
34 675
34 507
34 551
34 705
34 906
34 268
34 966
34 395
34 375
34 419
34 355
34 343
34 359
34 114
34 986
34 940
34 533
34 48
34 561
34 199
34 244
34 269
34 784
34 792
34 314
34 320
34 369
34 398
34 438
34 443
34 957
34 992
34 237
34 481
34 652
34 691
35 322
35 708
35 286
35 239
35 918
35 250
35 252
35 257
35 175
35 67
35 745
35 990
35 225
35 271
35 327
35 240
35 471
35 264
35 345
35 985
35 158
35 347
35 778
35 726
35 122
35 839
35 771
35 824
35 949
35 198
35 823
35 863
35 735
35 520
35 702
35 458
35 180
35 989
35 176
35 259
35 275
35 770
35 362
35 886
35 434
35 335
35 208
35 353
35 38
35 404
35 809
35 946
35 791
35 284
35 947
35 110
35 837
35 151
35 397
35 194
35 157
35 253
35 235
35 942
35 618
35 43
35 582
35 640
35 431
36 515
36 779
36 153
36 346
36 979
36 41
36 227
36 894
36 46
36 445
36 509
36 361
36 686
36 643
36 49
36 412
36 506
36 832
36 788
36 316
36 838
36 132
36 714
36 494
36 254
36 632
36 356
36 245
36 402
36 648
37 623
37 254
37 518
37 532
37 544
37 724
37 870
37 423
37 583
37 528
37 602
37 123
37 889
37 681
37 408
37 609
37 759
37 917
37 251
37 452
37 842
37 573
37 922
37 493
37 100
37 912
37 325
37 832
37 455
37 931
37 360
37 516
37 66
37 600
37 611
37 104
37 118
37 651
37 664
37 190
37 239
37 479
37 592
37 116
37 275
37 61
38 124
38 812
38 318
38 938
38 458
38 383
38 176
38 946
38 809
38 697
38 67
38 471
38 824
38 582
38 431
38 434
38 198
38 339
38 898
38 477
38 72
38 128
38 438
38 43
38 702
38 726
38 240
38 949
38 954
39 261
39 103
39 104
39 512
39 687
39 737
39 915
39 992
39 419
39 678
39 894
39 246
39 796
39 551
39 589
39 615
39 647
39 666
39 675
39 201
39 734
39 244
39 268
39 792
39 865
39 878
39 438
39 443
39 957
39 495
39 340
40 655
40 632
40 786
40 190
40 581
40 586
40 354
40 393
40 675
40 992
40 277
40 45
40 598
40 98
40 168
40 429
40 953
40 469
40 237
40 250
40 584
40 920
41 730
41 341
41 516
41 779
41 797
41 515
41 875
41 254
41 643
41 75
41 893
41 838
41 346
41 895
41 132
41 436
41 714
41 494
41 246
41 509
41 615
41 712
41 351
42 91
42 244
42 443
42 533
42 421
42 828
42 584
42 625
42 109
42 890
42 540
42 482
42 981
42 262
42 504
42 622
42 166
42 673
42 388
42 571
42 381
42 698
42 487
43 978
43 520
43 726
43 805
43 938
43 782
43 697
43 640
43 208
43 178
43 257
43 353
43 809
43 756
43 187
43 823
43 691
43 863
43 954
43 334
43 990
43 275
43 771
43 985
43 886
43 745
43 787
43 158
43 704
43 383
43 735
43 434
43 470
43 335
43 808
43 949
43 122
43 471
43 930
43 728
43 327
43 466
43 339
43 198
43 778
43 827
43 225
43 263
43 458
43 770
43 671
43 677
43 545
43 347
43 989
43 898
43 175
43 998
43 431
43 345
43 768
43 447
43 67
43 259
43 404
43 860
43 248
43 171
43 331
43 965
43 139
43 308
43 502
43 718
43 972
43 202
43 182
43 375
43 841
43 85
43 365
43 366
43 582
43 176
43 240
43 264
43 348
43 328
44 532
44 354
44 763
44 108
44 48
44 331
44 242
44 757
44 637
44 517
44 230
44 420
44 845
44 185
44 285
44 352
44 536
44 854
44 807
44 550
44 169
44 603
44 929
44 380
44 411
44 64
44 808
44 59
44 303
44 94
44 101
44 622
44 636
44 155
44 696
44 814
45 694
45 693
45 269
45 307
45 277
45 598
45 710
45 760
45 252
45 716
45 740
45 71
45 943
45 488
45 220
45 971
45 557
45 250
45 168
45 616
45 571
45 295
45 457
45 64
45 237
45 60
45 49
45 455
45 769
45 496
45 141
45 218
45 157
45 281
45 791
45 358
45 479
45 540
45 512
45 721
45 651
46 797
46 289
46 546
46 552
46 955
46 516
46 217
46 147
46 601
46 316
46 184
46 686
46 635
46 368
46 231
46 234
46 227
46 248
46 570
46 979
46 714
46 700
46 498
46 138
46 895
46 720
46 677
46 171
46 569
46 378
46 86
46 420
46 568
46 838
46 346
46 361
46 629
46 643
46 445
46 494
46 246
46 509
46 254
46 418
46 957
46 582
46 559
47 629
47 393
47 551
47 653
47 547
47 966
47 572
47 878
47 693
47 495
47 326
47 865
47 889
47 842
47 242
47 593
47 675
47 244
47 269
47 314
47 342
47 369
47 386
47 999
47 948
47 90
47 99
47 963
47 431
48 322
48 499
48 257
48 559
48 298
48 780
48 305
48 394
48 506
48 392
48 840
48 597
48 348
48 367
48 774
48 336
48 433
48 69
48 783
48 75
48 872
48 621
48 351
48 931
48 468
48 340
48 810
48 950
48 916
48 879
48 432
48 983
48 967
48 586
48 669
48 832
48 431
48 848
48 330
48 890
48 497
48 56
48 276
48 281
49 246
49 210
49 514
49 60
49 457
49 943
49 222
49 142
49 237
49 996
49 544
49 364
49 335
49 571
49 605
49 350
49 98
49 168
49 469
49 220
49 250
49 874
50 534
50 92
50 739
50 751
50 884
50 446
50 349
50 730
50 575
50 63
50 473
50 97
50 374
50 973
50 703
50 171
50 133
50 599
50 655
50 843
50 623
50 216
50 415
50 372
50 814
50 625
50 226
50 474
50 208
50 715
50 57
50 140
50 795
50 852
50 341
50 406
50 932
50 988
50 236
50 93
50 734
50 307
50 73
50 125
50 156
51 534
51 106
51 415
51 932
51 884
51 197
51 852
51 730
51 349
51 614
51 92
51 97
51 623
51 76
51 877
51 114
51 405
51 205
51 411
51 657
51 655
51 558
51 72
51 374
51 869
51 192
51 795
51 825
51 385
51 691
51 455
51 572
51 447
51 453
51 352
51 63
51 599
51 638
51 127
51 171
51 179
51 216
51 741
51 322
51 372
51 988
51 121
51 353
51 75
52 801
52 806
52 993
52 780
52 351
52 433
52 836
52 366
52 597
52 707
52 448
52 56
52 621
52 298
52 815
52 340
52 348
52 874
52 373
52 636
53 838
53 892
53 619
53 541
53 579
53 833
53 211
53 957
53 386
53 387
53 904
53 314
53 268
53 925
53 792
53 760
53 245
53 821
53 962
53 572
53 577
53 593
53 666
53 687
53 181
53 734
53 737
53 269
53 320
53 369
53 443
53 698
54 852
54 552
54 529
54 495
54 976
54 704
54 559
54 506
54 312
54 266
54 433
54 815
54 975
54 781
54 836
54 416
54 366
54 931
54 61
54 432
54 806
54 340
54 298
54 490
54 311
54 305
54 691
54 245
54 538
54 699
54 362
54 125
54 56
54 569
54 96
54 810
54 856
54 348
54 874
54 373
55 795
55 797
55 922
55 694
55 109
55 195
55 699
55 258
55 982
55 504
55 487
55 170
55 828
55 952
55 501
55 381
55 444
55 625
55 215
55 668
55 521
55 948
55 183
55 162
55 363
55 936
55 139
55 130
55 262
55 981
55 693
55 844
55 816
55 817
55 299
55 651
55 407
55 719
55 713
55 733
55 471
55 403
55 690
56 535
56 513
56 559
56 75
56 840
56 427
56 394
56 810
56 433
56 297
56 874
56 836
56 348
56 358
56 311
56 480
56 856
56 281
56 975
56 388
56 931
56 273
56 336
56 468
56 478
56 506
56 86
56 993
56 276
56 893
56 872
56 298
56 621
56 305
56 983
56 806
56 266
56 916
56 594
56 569
56 835
56 432
56 416
56 757
56 669
56 662
56 143
56 129
56 922
56 977
56 192
56 858
56 460
56 501
56 115
56 83
56 815
56 837
56 340
56 435
57 813
57 106
57 463
57 846
57 473
57 607
57 802
57 623
57 599
57 843
57 811
57 76
57 133
57 349
57 197
57 932
57 88
57 322
57 739
57 171
57 405
57 655
57 500
57 63
57 127
57 406
57 152
57 291
57 91
57 415
57 128
57 287
57 868
57 140
57 852
57 575
57 59
57 272
57 534
57 566
57 97
57 869
57 202
57 374
57 261
57 921
57 730
57 446
57 321
57 163
57 92
57 867
57 268
57 917
57 289
57 841
57 145
57 541
57 897
57 859
57 315
57 162
57 713
57 169
57 216
57 795
57 818
57 372
57 988
57 104
57 200
57 725
57 503
57 369
57 317
58 227
58 849
58 292
58 579
58 953
58 295
58 590
58 237
58 60
58 476
58 678
58 408
58 571
58 64
58 71
58 706
58 740
58 451
58 978
58 689
58 582
58 340
58 975
59 534
59 566
59 751
59 163
59 205
59 614
59 140
59 500
59 655
59 802
59 973
59 921
59 374
59 623
59 575
59 411
59 62
59 128
59 63
59 192
59 406
59 287
59 261
59 216
59 620
59 619
59 519
59 793
59 776
59 101
59 88
59 97
59 114
59 703
59 730
59 741
59 795
59 852
59 869
59 415
59 932
59 988
59 235
59 873
59 355
59 175
59 435
60 66
60 267
60 354
60 593
60 734
60 386
60 769
60 295
60 437
60 571
60 716
60 469
60 220
60 496
60 489
60 711
60 971
60 762
60 654
60 237
60 710
60 350
60 717
60 380
60 339
60 696
60 581
60 275
60 590
60 598
60 98
60 142
60 429
60 953
60 709
60 740
60 257
60 809
61 385
61 560
61 582
61 198
61 806
61 893
61 433
61 874
61 841
61 942
61 490
61 366
61 298
61 432
61 796
61 465
61 204
61 400
61 86
61 621
61 281
61 836
61 340
61 348
61 975
61 101
62 446
62 72
62 405
62 988
62 171
62 372
62 623
62 92
62 973
62 575
62 566
62 187
62 634
62 782
62 140
62 729
62 739
62 795
62 852
62 932
62 463
62 503
62 363
62 209
63 534
63 575
63 623
63 869
63 88
63 730
63 638
63 216
63 79
63 291
63 179
63 133
63 171
63 72
63 657
63 843
63 114
63 721
63 877
63 884
63 406
63 205
63 322
63 795
63 261
63 140
63 852
63 883
63 321
63 163
63 973
63 287
63 846
63 607
63 811
63 463
63 703
63 374
63 389
63 272
63 921
63 741
63 446
63 106
63 286
63 923
63 426
63 969
63 891
63 503
63 130
63 69
63 102
63 674
63 369
63 239
63 599
63 91
63 97
63 127
63 192
63 739
63 372
63 988
63 524
63 920
63 949
64 165
64 118
64 593
64 277
64 953
64 488
64 142
64 590
64 252
64 71
64 229
64 455
64 65
64 545
64 159
64 570
64 598
64 616
64 220
64 237
64 363
64 670
64 671
65 638
65 739
65 884
65 705
65 521
65 591
65 640
65 550
65 169
65 352
65 242
65 215
65 931
65 977
65 101
65 622
65 630
65 636
65 155
65 669
65 185
65 722
65 230
65 757
65 814
65 864
66 527
66 529
66 532
66 544
66 970
66 123
66 849
66 535
66 118
66 330
66 284
66 659
66 803
66 717
66 251
66 303
66 553
66 987
66 518
66 681
66 537
66 556
66 526
66 870
66 417
66 724
66 641
66 528
66 267
66 664
66 908
66 573
66 596
66 239
66 974
66 190
66 759
66 922
66 493
66 452
66 822
66 633
66 310
66 775
66 499
66 104
66 892
66 477
66 899
66 896
66 103
66 245
66 119
66 609
66 100
66 309
66 897
66 602
66 912
66 564
66 917
66 707
66 889
66 793
66 207
66 449
66 984
66 74
66 292
66 854
66 329
66 868
66 754
66 274
66 823
66 901
66 294
66 880
66 744
66 965
66 611
66 612
66 651
66 842
66 911
66 423
66 439
66 855
66 314
66 957
66 495
66 85
66 180
66 696
67 884
67 374
67 520
67 756
67 178
67 949
67 275
67 263
67 582
67 824
67 778
67 863
67 404
67 697
67 827
67 677
67 735
67 436
67 607
67 428
67 242
67 640
67 176
67 702
67 726
67 240
67 264
67 839
67 353
67 362
67 431
68 560
68 283
68 674
68 652
68 648
68 591
68 715
68 194
68 364
68 247
68 627
68 689
68 357
68 606
68 920
68 812
68 81
68 380
68 613
68 750
68 980
68 189
68 461
68 90
68 867
68 78
68 610
68 858
68 82
68 441
68 422
68 365
68 718
68 85
68 578
68 788
68 914
68 193
68 224
68 312
68 677
68 514
68 358
68 321
68 660
68 132
68 125
68 151
68 214
68 817
68 848
68 69
68 156
68 829
69 730
69 113
69 559
69 569
69 432
69 340
69 311
69 942
69 815
69 581
69 273
69 281
69 298
69 841
69 348
69 872
69 435
70 523
70 530
70 238
70 354
70 93
70 148
70 410
70 816
70 861
70 393
70 855
70 847
70 385
70 853
70 135
70 744
70 280
70 299
70 760
70 308
70 425
70 110
70 149
70 680
70 695
70 725
70 243
70 772
70 577
70 533
70 487
70 232
70 271
70 298
71 846
71 254
71 664
71 326
71 514
71 277
71 295
71 554
71 557
71 229
71 616
71 455
71 571
71 237
71 953
71 350
71 682
71 316
71 944
71 815
71 809
71 709
71 469
71 220
71 222
71 733
71 576
71 151
72 534
72 575
72 76
72 655
72 852
72 152
72 593
72 936
72 92
72 623
72 638
72 140
72 657
72 163
72 171
72 205
72 730
72 739
72 795
72 322
72 372
72 374
72 415
72 932
72 988
72 288
72 838
72 641
72 876
72 211
72 130
72 735
73 274
73 870
73 495
73 524
73 574
73 670
73 143
73 134
73 673
73 102
73 880
73 871
73 221
73 919
73 414
73 821
73 617
73 338
73 662
73 907
73 87
73 337
73 319
73 928
73 291
73 717
73 954
73 606
73 116
73 665
73 329
73 913
73 978
73 240
73 783
74 534
74 765
74 93
74 924
74 725
74 173
74 203
74 876
74 385
74 542
74 655
74 821
74 113
74 660
74 148
74 685
74 188
74 200
74 790
74 299
74 855
74 354
74 448
74 85
74 242
75 97
75 539
75 619
75 834
75 413
75 579
75 116
75 271
75 358
75 506
75 474
75 815
75 468
75 394
75 967
75 513
75 432
75 931
75 86
75 950
75 800
75 366
75 821
75 790
75 954
75 376
75 748
75 109
75 266
75 273
75 836
75 340
75 348
75 373
75 403
75 435
76 534
76 291
76 868
76 192
76 657
76 811
76 623
76 690
76 872
76 332
76 92
76 133
76 140
76 197
76 730
76 739
76 741
76 795
76 322
76 852
76 869
76 372
76 374
76 921
76 988
76 526
76 855
76 220
76 435
76 636
77 234
77 519
77 672
77 409
77 926
77 186
77 682
77 371
77 755
77 159
77 688
77 661
77 89
77 274
77 236
77 497
77 708
77 505
77 471
77 438
77 417
77 547
77 634
77 632
77 210
77 723
77 219
77 732
77 748
77 819
77 934
77 941
77 767
77 244
77 533
77 116
77 848
77 965
77 839
78 842
78 693
78 443
78 576
78 750
78 81
78 718
78 848
78 150
78 217
78 876
78 591
78 82
78 99
78 108
78 151
78 160
78 817
78 920
78 965
78 345
78 281
78 420
79 534
79 566
79 97
79 463
79 795
79 291
79 721
79 751
79 349
79 389
79 261
79 106
79 573
79 722
79 755
79 599
79 91
79 92
79 623
79 152
79 729
79 730
79 843
79 852
79 372
79 415
79 932
79 988
79 979
79 119
79 258
79 533
79 167
79 86
80 223
80 417
80 581
80 450
80 772
80 725
80 115
80 397
80 430
80 243
80 385
80 393
80 304
80 384
80 790
80 587
80 136
80 851
80 280
80 396
80 354
80 887
80 158
80 845
80 298
80 167
80 110
80 111
80 113
80 628
80 149
80 148
80 200
80 742
80 255
80 799
80 299
80 834
80 861
80 355
80 425
80 980
80 315
81 138
81 666
81 976
81 652
81 858
81 947
81 145
81 591
81 937
81 750
81 965
81 914
81 848
81 644
81 453
81 648
81 84
81 663
81 457
81 851
81 971
81 977
81 667
81 82
81 99
81 658
81 151
81 689
81 817
81 365
81 224
82 465
82 626
82 533
82 560
82 576
82 578
82 247
82 125
82 84
82 947
82 891
82 283
82 689
82 962
82 99
82 976
82 233
82 627
82 365
82 270
82 214
82 812
82 788
82 189
82 441
82 422
82 613
82 826
82 652
82 85
82 848
82 108
82 867
82 658
82 167
82 151
82 965
82 914
82 145
82 194
82 357
82 364
82 900
82 83
82 204
82 644
82 674
82 963
82 817
82 610
82 317
82 591
82 160
82 212
82 858
82 380
82 648
82 960
82 150
82 663
82 562
82 750
82 557
82 520
82 500
82 377
82 331
82 419
82 704
82 393
82 340
82 616
82 456
82 779
82 92
82 525
82 868
82 470
82 373
83 730
83 322
83 602
83 560
83 591
83 401
83 576
83 648
83 357
83 899
83 584
83 99
83 151
83 283
83 848
83 441
83 965
83 461
83 872
83 696
84 97
84 140
84 700
84 148
84 685
84 992
84 560
84 578
84 160
84 627
84 606
84 610
84 188
84 134
84 679
84 90
84 99
84 658
84 151
84 689
84 746
84 848
84 357
84 365
84 965
84 980
84 242
85 91
85 346
85 734
85 560
85 270
85 453
85 317
85 606
85 99
85 214
85 160
85 652
85 610
85 663
85 900
85 167
85 591
85 496
85 398
85 880
85 108
85 644
85 648
85 151
85 848
85 441
85 965
85 298
86 516
86 887
86 355
86 928
86 606
86 559
86 96
86 394
86 348
86 336
86 298
86 983
86 467
86 392
86 480
86 255
86 620
86 705
86 301
86 266
86 836
86 340
86 864
87 118
87 524
87 116
87 670
87 308
87 574
87 102
87 186
87 447
87 266
87 117
87 134
87 221
87 313
87 323
87 329
87 414
87 978
87 481
87 294
87 757
88 534
88 566
88 575
88 411
88 877
88 91
88 349
88 216
88 251
88 89
88 536
88 448
88 92
88 623
88 140
88 703
88 192
88 730
88 739
88 291
88 852
88 372
88 932
88 988
88 708
88 196
88 842
88 706
88 125
88 603
89 231
89 219
89 902
89 624
89 632
89 723
89 755
89 901
89 991
89 492
89 719
89 520
89 137
89 159
89 682
89 732
89 748
89 286
89 819
89 934
89 941
89 759
89 793
89 851
89 382
89 424
89 560
89 965
89 640
89 778
89 294
90 97
90 600
90 851
90 915
90 560
90 718
90 125
90 365
90 578
90 150
90 204
90 867
90 591
90 652
90 746
90 817
90 145
90 214
90 99
90 788
90 920
90 422
90 771
90 156
90 427
90 675
90 875
90 108
90 689
90 848
90 839
91 534
91 575
91 473
91 657
91 389
91 399
91 730
91 802
91 163
91 605
91 140
91 197
91 739
91 818
91 322
91 349
91 372
91 374
91 406
91 932
91 570
91 581
91 704
91 281
92 534
92 599
92 405
92 372
92 921
92 127
92 463
92 852
92 140
92 973
92 152
92 802
92 884
92 291
92 287
92 932
92 349
92 272
92 106
92 374
92 657
92 614
92 818
92 877
92 446
92 623
92 558
92 133
92 321
92 171
92 128
92 389
92 741
92 500
92 813
92 607
92 721
92 261
92 811
92 367
92 825
92 521
92 407
92 693
92 805
92 955
92 421
92 574
92 833
92 144
92 410
92 97
92 703
92 739
92 795
92 988
92 842
92 695
92 799
92 244
92 620
92 668
93 979
93 908
93 581
93 834
93 149
93 304
93 984
93 694
93 986
93 172
93 440
93 413
93 115
93 148
93 110
93 736
93 430
93 407
93 767
93 113
93 628
93 876
93 462
93 166
93 426
93 442
93 799
93 402
93 676
93 177
93 410
93 924
93 280
93 129
93 679
93 849
93 331
93 529
93 571
93 686
93 781
93 188
93 243
93 253
93 255
93 292
93 299
93 851
93 855
93 385
93 393
93 397
93 503
93 170
93 965
93 176
93 240
93 420
94 795
94 537
94 711
94 300
94 954
94 829
94 603
94 256
94 156
94 230
94 636
94 696
94 807
94 155
94 352
94 536
94 929
94 224
94 758
94 157
94 959
94 814
94 517
94 618
94 169
94 502
94 158
94 409
94 134
94 355
94 801
94 898
94 622
94 669
94 757
94 831
94 832
94 864
94 420
94 460
95 415
95 463
95 581
95 588
95 649
95 522
95 113
95 255
95 136
95 765
95 834
95 680
95 951
95 671
95 619
95 110
95 111
95 135
95 148
95 694
95 188
95 200
95 243
95 292
95 354
95 876
95 397
95 440
95 972
95 551
95 429
95 348
95 146
95 859
96 114
96 624
96 641
96 560
96 559
96 474
96 206
96 264
96 165
96 621
96 281
96 298
96 836
96 348
96 435
96 829
97 534
97 607
97 973
97 322
97 374
97 192
97 171
97 795
97 349
97 599
97 163
97 988
97 446
97 721
97 703
97 291
97 415
97 558
97 921
97 500
97 127
97 411
97 473
97 869
97 399
97 202
97 566
97 405
97 852
97 655
97 932
97 133
97 152
97 818
97 623
97 179
97 205
97 614
97 406
97 463
97 371
97 388
97 173
97 728
97 756
97 804
97 965
97 125
97 730
97 372
97 779
97 664
97 354
97 105
97 117
97 697
98 736
98 551
98 277
98 555
98 350
98 488
98 437
98 469
98 762
98 953
98 457
98 464
98 943
98 769
98 706
98 590
98 237
98 142
98 427
98 511
98 212
98 552
98 805
98 955
98 643
98 141
98 429
98 220
98 740
98 252
98 890
98 639
98 550
99 560
99 606
99 891
99 283
99 194
99 204
99 247
99 960
99 812
99 658
99 189
99 150
99 646
99 715
99 270
99 160
99 848
99 976
99 151
99 937
99 867
99 750
99 364
99 357
99 145
99 914
99 965
99 613
99 401
99 365
99 920
99 562
99 317
99 627
99 947
99 212
99 900
99 167
99 718
99 578
99 441
99 826
99 980
99 591
99 233
99 962
99 453
99 788
99 576
99 858
99 689
99 521
99 347
99 911
99 672
99 622
99 532
99 518
99 692
99 954
99 325
99 426
99 227
99 777
99 376
99 108
99 644
99 648
99 214
99 458
99 879
99 285
99 864
100 527
100 529
100 583
100 600
100 611
100 775
100 822
100 707
100 123
100 465
100 951
100 190
100 912
100 526
100 911
100 896
100 641
100 290
100 724
100 310
100 633
100 931
100 811
100 882
100 363
100 581
100 137
100 104
100 118
100 119
100 651
100 664
100 267
100 842
100 870
100 479
100 426
100 541
100 890
101 104
101 603
101 637
101 929
101 146
101 727
101 510
101 845
101 156
101 747
101 831
101 854
101 155
101 224
101 752
101 420
101 565
101 282
101 859
101 832
101 315
101 344
101 864
101 157
101 757
101 690
101 256
101 206
101 525
101 160
101 823
101 531
101 990
101 930
101 234
101 622
101 630
101 636
101 669
101 696
101 722
101 230
101 758
101 814
102 115
102 660
102 268
102 580
102 543
102 414
102 481
102 939
102 296
102 639
102 907
102 117
102 799
102 877
102 772
102 795
102 116
102 134
102 670
102 209
102 279
102 302
102 323
103 534
103 165
103 529
103 532
103 539
103 544
103 556
103 611
103 684
103 527
103 439
103 955
103 633
103 190
103 731
103 239
103 899
103 304
103 201
103 112
104 941
104 518
104 526
104 529
104 539
104 564
104 611
104 918
104 119
104 803
104 123
104 377
104 544
104 301
104 889
104 439
104 527
104 479
104 684
104 896
104 602
104 911
104 892
104 731
104 899
104 724
104 759
104 226
104 681
104 987
104 927
104 528
104 633
104 922
104 563
104 870
104 609
104 612
104 842
104 303
104 532
104 537
104 793
104 535
104 493
104 477
104 775
104 822
104 951
104 310
104 309
104 849
104 820
104 330
104 465
104 245
104 600
104 452
104 908
104 207
104 596
104 641
104 897
104 583
104 190
104 974
104 573
104 423
104 239
104 118
104 909
104 305
104 774
104 364
104 926
104 615
104 642
104 197
104 644
104 715
104 424
104 341
104 705
104 720
104 417
104 693
104 268
104 620
104 329
104 726
105 739
105 714
105 332
105 524
105 574
105 662
105 338
105 134
105 791
105 481
105 167
105 650
105 670
105 329
105 913
105 414
105 780
105 367
105 403
105 206
105 510
106 558
106 607
106 614
106 163
106 202
106 205
106 739
106 883
106 832
106 962
106 158
106 114
106 140
106 192
106 741
106 322
106 852
106 372
106 374
106 406
106 932
106 463
106 988
106 714
106 120
106 861
106 817
106 335
106 949
107 736
107 851
107 992
107 338
107 472
107 881
107 670
107 486
107 919
107 463
107 887
107 112
107 639
107 134
107 143
107 293
107 329
107 913
107 481
107 841
108 932
108 611
108 822
108 560
108 591
108 858
108 648
108 937
108 674
108 663
108 365
108 746
108 960
108 646
108 980
108 270
108 562
108 578
108 151
108 715
108 160
108 627
108 658
108 965
108 872
108 131
108 376
108 971
108 397
108 174
108 125
108 644
108 848
108 867
108 431
108 806
108 837
109 921
109 624
109 262
109 538
109 476
109 890
109 451
109 789
109 568
109 130
109 491
109 952
109 533
109 936
109 584
109 421
109 712
109 258
109 232
109 700
109 341
109 432
109 243
109 683
109 126
109 625
109 139
109 713
109 487
109 763
110 406
110 581
110 587
110 592
110 958
110 304
110 280
110 200
110 676
110 649
110 442
110 972
110 725
110 694
110 866
110 253
110 984
110 847
110 396
110 861
110 299
110 511
110 148
110 172
110 588
110 173
110 816
110 523
110 255
110 628
110 111
110 765
110 385
110 424
110 839
110 487
110 942
110 956
110 257
110 561
110 518
110 272
110 878
110 177
110 188
110 772
110 799
110 851
110 393
110 639
111 509
111 519
111 428
111 511
111 523
111 440
111 986
111 200
111 442
111 426
111 430
111 588
111 255
111 280
111 243
111 905
111 410
111 619
111 299
111 413
111 885
111 149
111 203
111 765
111 177
111 424
111 385
111 628
111 560
111 517
111 704
111 401
111 163
111 227
111 954
111 660
111 172
111 742
111 851
111 354
111 876
111 393
111 397
111 462
111 438
111 457
112 875
112 397
112 117
112 492
112 617
112 909
112 193
112 414
112 319
112 209
112 662
112 472
112 116
112 919
112 232
112 370
112 673
112 481
112 143
112 754
112 524
112 913
112 766
112 880
112 293
112 665
112 300
112 302
112 486
112 338
112 333
112 923
112 574
112 862
112 118
112 829
112 446
112 606
112 692
112 666
112 647
112 212
112 639
112 134
112 848
112 348
112 373
113 739
113 522
113 581
113 148
113 851
113 430
113 255
113 144
113 166
113 121
113 503
113 742
113 626
113 772
113 619
113 674
113 470
113 319
113 258
113 149
113 172
113 188
113 243
113 799
113 292
113 354
113 440
113 958
113 560
113 294
114 575
114 599
114 202
114 321
114 261
114 739
114 287
114 389
114 152
114 197
114 272
114 877
114 883
114 399
114 623
114 566
114 192
114 163
114 495
114 455
114 310
114 222
114 660
114 730
114 795
114 852
114 869
114 374
114 415
114 932
114 446
114 988
114 707
114 576
114 257
115 657
115 818
115 436
115 509
115 530
115 588
115 428
115 354
115 129
115 281
115 162
115 177
115 694
115 200
115 255
115 299
115 851
115 385
115 413
115 507
115 168
115 862
115 370
115 735
116 292
116 851
116 244
116 375
116 668
116 170
116 524
116 209
116 296
116 650
116 232
116 329
116 370
116 300
116 880
116 333
116 481
116 871
116 857
116 143
116 785
116 913
116 486
116 786
116 230
116 825
116 977
116 117
116 639
116 134
116 665
116 670
116 221
116 323
116 954
116 810
117 505
117 253
117 342
117 421
117 524
117 543
117 481
117 300
117 191
117 221
117 279
117 333
117 978
117 209
117 834
117 606
117 347
117 498
117 241
117 293
117 329
117 414
117 425
117 125
118 526
118 532
118 611
118 897
118 310
118 820
118 330
118 544
118 612
118 731
118 970
118 226
118 452
118 842
118 525
118 850
118 190
118 951
118 245
118 518
118 408
118 684
118 724
118 493
118 573
118 563
118 974
118 596
118 830
118 659
118 870
118 239
118 775
118 899
118 267
118 528
118 707
118 535
118 251
118 609
118 889
118 803
118 911
118 423
118 681
118 301
118 641
118 651
118 290
118 918
118 527
118 309
118 927
118 477
118 917
118 759
118 303
118 600
118 178
118 942
118 565
118 140
118 327
118 211
118 319
118 821
118 838
118 165
118 966
118 126
118 279
118 914
118 465
118 484
118 704
118 696
119 372
119 509
119 159
119 525
119 526
119 529
119 532
119 493
119 681
119 922
119 564
119 499
119 596
119 707
119 330
119 899
119 641
119 684
119 563
119 377
119 912
119 611
119 553
119 123
119 652
119 894
119 914
119 592
119 404
119 885
119 651
119 267
119 870
119 911
119 465
119 847
119 646
119 208
119 242
120 624
120 748
120 324
120 356
120 137
120 219
120 519
120 286
120 371
120 632
120 994
120 332
120 679
120 732
120 409
120 667
120 688
120 196
120 186
120 804
120 165
120 682
120 926
120 819
120 761
120 505
120 873
120 887
120 274
120 235
120 977
120 306
120 376
120 701
120 661
120 786
120 961
120 210
120 497
120 755
120 124
120 901
120 923
120 604
120 359
120 724
120 334
120 891
120 553
120 747
120 896
120 853
120 159
120 164
120 360
120 902
120 934
120 941
120 911
120 382
120 396
120 213
120 257
121 581
121 587
121 626
121 424
121 299
121 986
121 144
121 393
121 426
121 480
121 660
121 149
121 200
121 238
121 243
121 255
121 790
121 799
121 834
121 851
121 855
121 876
121 385
121 511
121 269
121 221
121 329
122 721
122 372
122 551
122 582
122 770
122 704
122 691
122 865
122 326
122 410
122 640
122 176
122 726
122 768
122 257
122 263
122 264
122 782
122 805
122 431
122 949
122 954
123 988
123 529
123 532
123 544
123 611
123 477
123 375
123 947
123 326
123 684
123 284
123 842
123 870
123 911
123 342
123 531
123 839
124 197
124 519
124 624
124 679
124 223
124 549
124 901
124 159
124 819
124 682
124 497
124 403
124 895
124 708
124 210
124 748
124 286
124 505
124 201
124 265
125 660
125 693
125 560
125 576
125 578
125 689
125 980
125 441
125 591
125 715
125 858
125 380
125 960
125 610
125 900
125 965
125 270
125 914
125 989
125 326
125 637
125 648
125 658
125 151
125 317
125 848
125 778
126 159
126 577
126 277
126 554
126 791
126 323
126 663
126 357
126 257
126 345
126 284
126 260
126 273
126 281
126 298
126 340
126 348
126 351
126 872
126 874
126 373
126 435
126 420
127 534
127 575
127 599
127 405
127 415
127 657
127 169
127 799
127 944
127 140
127 152
127 730
127 795
127 852
127 372
127 932
127 463
127 988
127 255
127 414
128 575
128 599
128 473
128 205
128 287
128 739
128 607
128 415
128 973
128 349
128 833
128 965
128 900
128 192
128 730
128 795
128 291
128 322
128 852
128 868
128 406
128 932
128 446
128 684
128 740
128 919
129 852
129 411
129 991
129 530
129 581
129 587
129 592
129 866
129 619
129 903
129 649
129 253
129 725
129 736
129 407
129 355
129 236
129 753
129 584
129 660
129 149
129 685
129 188
129 200
129 238
129 255
129 834
129 851
129 855
129 354
129 876
129 385
129 511
129 801
129 295
129 662
129 264
129 823
130 730
130 532
130 533
130 625
130 195
130 932
130 936
130 713
130 491
130 189
130 728
131 509
131 259
131 998
131 809
131 582
131 327
131 158
131 768
131 187
131 823
131 178
131 447
131 362
131 640
131 334
131 930
131 808
131 383
131 776
131 863
131 938
131 271
131 352
131 455
131 236
131 953
131 679
131 206
131 176
131 697
131 240
131 263
131 264
131 782
131 353
131 949
132 779
132 552
132 838
132 346
132 860
132 601
132 147
132 882
132 509
132 515
132 700
132 355
132 380
132 325
132 154
132 254
132 526
132 280
132 855
132 865
132 646
132 298
133 534
133 575
133 729
133 883
133 843
133 614
133 272
133 330
133 695
133 336
133 443
133 730
133 795
133 322
133 852
133 372
133 374
133 932
133 988
133 999
133 706
133 812
133 640
133 677
133 240
133 362
134 708
134 581
134 551
134 709
134 524
134 639
134 642
134 650
134 574
134 617
134 313
134 673
134 323
134 241
134 543
134 665
134 370
134 425
134 279
134 766
134 857
134 308
134 293
134 193
134 791
134 978
134 881
134 472
134 232
134 319
134 486
134 302
134 662
134 143
134 329
134 862
134 743
134 481
134 492
134 414
134 300
134 880
134 939
134 995
134 670
134 333
134 338
134 221
134 871
134 191
134 337
134 296
134 209
134 754
134 940
134 291
134 501
134 632
134 577
134 321
134 432
134 407
134 699
134 443
134 416
134 238
134 952
134 760
134 834
134 568
134 158
134 909
134 176
135 645
135 165
135 539
135 724
135 245
135 522
135 765
135 144
135 430
135 487
135 150
135 933
135 136
135 695
135 243
135 253
135 255
135 799
135 292
135 834
135 847
135 855
135 385
135 393
135 491
135 281
136 523
136 530
136 581
136 767
136 588
136 660
136 382
136 173
136 790
136 689
136 435
136 174
136 148
136 685
136 188
136 243
136 253
136 255
136 799
136 855
136 972
136 726
137 519
137 567
137 632
137 667
137 497
137 738
137 804
137 977
137 819
137 873
137 371
137 887
137 682
137 761
137 672
137 235
137 259
137 713
137 518
137 165
137 708
137 210
137 748
137 274
137 360
137 934
137 941
137 961
137 994
137 505
137 544
137 780
138 730
138 838
138 346
138 601
138 629
138 643
138 882
138 217
138 955
138 691
138 216
138 700
138 714
138 719
138 228
138 231
138 254
138 356
138 426
138 693
138 277
138 264
139 529
139 876
139 469
139 250
139 258
139 531
139 625
139 381
139 504
139 712
139 952
139 174
139 451
139 668
139 400
139 161
139 969
139 713
139 631
139 183
139 194
139 704
139 660
139 947
139 181
139 454
139 170
139 215
139 487
139 753
140 534
140 566
140 703
140 846
140 811
140 216
140 739
140 852
140 321
140 322
140 389
140 729
140 973
140 171
140 558
140 374
140 406
140 163
140 638
140 883
140 179
140 152
140 500
140 818
140 741
140 202
140 192
140 473
140 751
140 921
140 802
140 655
140 721
140 291
140 405
140 843
140 657
140 349
140 575
140 463
140 607
140 877
140 623
140 884
140 287
140 988
140 273
140 424
140 630
140 778
140 853
140 987
140 367
140 143
140 770
140 942
140 242
140 604
140 288
140 197
140 730
140 795
140 869
140 372
140 411
140 932
140 748
140 525
140 290
140 589
140 798
140 168
140 279
141 455
141 971
141 489
141 716
141 496
141 218
141 557
141 457
141 571
141 295
141 531
141 732
141 247
141 168
141 469
141 220
141 222
141 740
141 998
142 777
142 295
142 571
142 654
142 953
142 557
142 350
142 555
142 904
142 511
142 677
142 710
142 218
142 220
142 740
142 237
142 258
142 317
142 169
143 291
143 701
143 524
143 642
143 414
143 221
143 743
143 313
143 791
143 308
143 486
143 650
143 639
143 193
143 370
143 329
143 232
143 191
143 871
143 923
143 880
143 619
143 914
143 379
143 745
143 752
143 793
143 861
143 170
143 670
143 302
143 862
143 481
143 800
143 298
144 684
144 522
144 581
144 847
144 676
144 512
144 680
144 188
144 385
144 626
144 292
144 253
144 986
144 919
144 443
144 963
144 999
144 660
144 200
144 744
144 255
144 790
144 799
144 851
144 855
144 354
144 876
144 440
144 511
144 536
145 287
145 577
145 560
145 648
145 674
145 867
145 817
145 204
145 646
145 441
145 900
145 914
145 453
145 380
145 976
145 194
145 212
145 215
145 868
145 269
145 313
145 483
145 658
145 151
145 214
145 848
145 858
145 357
145 920
145 965
145 176
146 738
146 941
146 581
146 799
146 792
146 833
146 485
146 400
146 754
146 603
146 622
146 636
146 282
146 757
146 475
146 156
146 618
146 621
146 381
146 429
146 155
146 669
146 696
146 722
146 224
146 230
146 242
146 829
146 832
146 864
147 372
147 515
147 516
147 289
147 838
147 346
147 361
147 368
147 895
147 643
147 153
147 184
147 454
147 231
147 498
147 246
147 254
147 440
147 713
147 150
148 934
148 149
148 725
148 767
148 523
148 430
148 851
148 243
148 511
148 958
148 816
148 660
148 694
148 649
148 292
148 790
148 442
148 581
148 685
148 177
148 736
148 924
148 587
148 203
148 402
148 280
148 847
148 166
148 765
148 173
148 676
148 586
148 905
148 396
148 503
148 986
148 428
148 860
148 681
148 377
148 492
148 378
148 686
148 288
148 791
148 962
148 433
148 188
148 253
148 255
148 772
148 834
148 855
148 354
148 385
148 393
148 440
148 462
148 557
148 740
148 209
148 298
149 988
149 570
149 544
149 530
149 581
149 834
149 685
149 924
149 200
149 903
149 393
149 744
149 676
149 173
149 586
149 172
149 166
149 660
149 428
149 986
149 442
149 203
149 972
149 299
149 503
149 382
149 603
149 810
149 714
149 208
149 520
149 235
149 970
149 515
149 188
149 736
149 243
149 799
149 855
149 861
149 354
149 385
149 268
149 369
150 664
150 592
150 578
150 606
150 658
150 441
150 562
150 194
150 613
150 746
150 214
150 750
150 826
150 576
150 401
150 212
150 225
150 369
150 332
150 491
150 151
150 270
150 317
150 858
150 422
150 965
150 980
150 264
151 239
151 799
151 244
151 355
151 209
151 302
151 560
151 578
151 648
151 194
151 937
151 900
151 233
151 718
151 357
151 613
151 627
151 962
151 947
151 867
151 750
151 160
151 976
151 364
151 652
151 812
151 858
151 270
151 817
151 576
151 167
151 826
151 963
151 646
151 980
151 663
151 401
151 189
151 674
151 422
151 247
151 788
151 914
151 610
151 591
151 920
151 461
151 283
151 365
151 891
151 317
151 960
151 562
151 204
151 214
151 965
151 939
151 697
151 929
151 895
151 868
151 624
151 293
151 536
151 433
151 789
151 379
151 193
151 177
151 640
151 583
151 792
151 689
151 208
152 534
152 566
152 599
152 341
152 500
152 883
152 884
152 811
152 730
152 638
152 640
152 414
152 182
152 679
152 163
152 197
152 739
152 795
152 852
152 372
152 932
152 463
152 988
152 289
152 477
152 848
153 515
153 552
153 570
153 838
153 346
153 860
153 882
153 635
153 182
153 361
153 217
153 934
153 898
153 733
153 557
153 714
153 246
153 248
153 775
153 674
153 264
154 515
154 838
154 346
154 361
154 368
154 882
154 686
154 456
154 234
154 894
154 419
154 197
154 198
154 700
154 231
154 494
154 246
154 509
154 254
154 696
155 657
155 354
155 639
155 954
155 603
155 630
155 636
155 829
155 935
155 156
155 758
155 864
155 328
155 683
155 637
155 352
155 242
155 929
155 622
155 854
155 831
155 794
155 420
155 690
155 696
155 502
155 832
155 224
155 565
155 230
155 282
155 536
155 722
155 669
155 517
155 344
155 206
155 315
155 747
155 475
155 752
155 814
155 959
155 256
155 157
155 618
155 845
155 757
155 807
155 727
155 422
155 824
155 207
155 569
155 252
155 658
155 373
155 906
155 949
155 511
155 442
155 737
155 905
155 751
155 544
155 169
155 185
155 460
156 263
156 266
156 373
156 550
156 636
156 603
156 690
156 536
156 352
156 565
156 813
156 196
156 669
156 696
156 722
156 285
156 829
156 831
156 832
156 420
156 510
157 719
157 609
157 443
157 536
157 636
157 669
157 231
157 563
157 690
157 722
157 242
157 285
157 829
157 832
157 859
158 896
158 744
158 971
158 670
158 582
158 640
158 919
158 677
158 176
158 187
158 208
158 728
158 745
158 240
158 264
158 949
158 998
158 328
159 534
159 519
159 624
159 679
159 961
159 934
159 902
159 278
159 274
159 708
159 873
159 723
159 804
159 196
159 409
159 977
159 164
159 223
159 701
159 786
159 994
159 567
159 887
159 505
159 378
159 667
159 219
159 332
159 286
159 356
159 210
159 819
159 672
159 376
159 755
159 306
159 235
159 688
159 186
159 497
159 682
159 645
159 165
159 549
159 748
159 732
159 901
159 273
159 392
159 606
159 457
159 865
159 319
159 599
159 347
159 454
159 898
159 931
159 996
159 738
159 360
159 941
159 775
159 744
159 413
159 936
159 302
159 337
159 506
160 560
160 644
160 648
160 669
160 182
160 932
160 214
160 270
160 788
160 812
160 817
160 848
160 357
160 920
160 422
160 980
160 805
161 346
161 258
161 533
161 363
161 381
161 501
161 504
161 476
161 969
161 913
161 744
161 778
161 374
161 451
161 215
161 487
161 753
161 763
161 513
161 621
161 510
162 341
162 505
162 479
162 847
162 605
162 616
162 521
162 789
162 533
162 584
162 363
162 668
162 713
163 197
163 341
163 192
163 446
163 322
163 374
163 813
163 261
163 179
163 389
163 411
163 463
163 739
163 988
163 666
163 986
163 356
163 391
163 511
163 975
163 216
163 287
163 818
163 852
163 932
163 528
163 438
163 481
163 422
163 559
164 519
164 624
164 632
164 645
164 667
164 356
164 926
164 186
164 888
164 267
164 165
164 682
164 708
164 723
164 732
164 223
164 748
164 236
164 934
164 342
164 218
165 519
165 567
165 624
165 645
165 661
165 732
165 219
165 286
165 223
165 356
165 378
165 409
165 961
165 994
165 688
165 376
165 549
165 968
165 973
165 940
165 682
165 210
165 748
165 274
165 819
165 934
165 505
165 855
165 220
165 435
165 864
166 641
166 530
166 592
166 619
166 280
166 523
166 215
166 559
166 200
166 253
166 255
166 799
166 851
166 855
166 393
166 426
166 462
166 268
166 753
167 953
167 560
167 606
167 610
167 947
167 627
167 380
167 674
167 599
167 778
167 245
167 214
167 270
167 283
167 817
167 848
167 365
167 965
167 358
167 379
168 895
168 870
168 777
168 295
168 590
168 616
168 971
168 488
168 605
168 557
168 457
168 706
168 711
168 762
168 222
168 554
168 953
168 237
168 429
168 489
168 350
168 229
168 455
168 514
168 716
168 555
168 290
168 868
168 306
168 835
168 594
168 473
168 660
168 709
168 464
168 740
168 669
169 599
169 681
169 640
169 809
169 536
169 603
169 636
169 669
169 622
169 831
169 285
169 517
169 690
169 747
169 565
169 206
169 344
169 637
169 752
169 722
169 315
169 256
169 935
169 331
169 727
169 421
169 825
169 341
169 700
169 350
169 493
169 597
169 696
169 242
169 757
169 794
169 832
169 864
170 399
170 619
170 656
170 391
170 584
170 580
170 381
170 936
170 712
170 504
170 363
170 692
170 981
170 699
170 482
170 183
170 763
170 952
170 568
170 533
170 174
170 969
170 733
170 501
170 753
170 421
170 258
170 540
170 698
170 195
170 948
170 713
170 694
170 196
170 784
170 973
170 268
170 592
170 683
170 487
171 575
171 558
171 399
171 739
171 205
171 813
171 372
171 947
171 544
171 339
171 528
171 730
171 741
171 795
171 291
171 322
171 852
171 349
171 932
171 988
171 346
171 679
171 799
171 762
171 621
171 420
172 228
172 842
172 523
172 587
172 660
172 694
172 428
172 592
172 649
172 772
172 742
172 549
172 953
172 899
172 874
172 243
172 255
172 799
172 851
172 385
172 393
172 397
172 426
173 330
173 465
173 512
173 523
173 530
173 581
173 706
173 277
173 661
173 177
173 200
173 725
173 243
173 851
173 561
173 260
173 418
174 607
174 288
174 519
174 708
174 551
174 615
174 533
174 363
174 421
174 580
174 950
174 915
174 272
174 217
174 699
174 451
174 713
174 733
174 487
174 753
174 817
174 691
175 922
175 426
175 551
175 414
175 520
175 582
175 677
175 671
175 985
175 447
175 180
175 503
175 203
175 176
175 697
175 187
175 702
175 257
175 263
175 353
175 383
175 431
175 998
175 636
176 869
176 601
176 882
176 440
176 543
176 545
176 582
176 640
176 671
176 677
176 805
176 431
176 938
176 697
176 990
176 778
176 347
176 434
176 702
176 470
176 404
176 187
176 339
176 334
176 264
176 726
176 466
176 824
176 225
176 327
176 863
176 773
176 383
176 271
176 930
176 776
176 768
176 745
176 447
176 691
176 362
176 808
176 954
176 275
176 335
176 735
176 998
176 471
176 989
176 728
176 787
176 827
176 898
176 823
176 458
176 839
176 520
176 259
176 318
176 263
176 946
176 756
176 770
176 532
176 829
176 630
176 685
176 261
176 406
176 566
176 811
176 907
176 342
176 698
176 185
176 570
176 278
176 475
176 817
176 208
176 240
176 257
176 771
176 782
176 949
177 321
177 523
177 587
177 885
177 744
177 354
177 853
177 767
177 694
177 384
177 816
177 385
177 834
177 382
177 440
177 243
177 676
177 530
177 903
177 986
177 972
177 302
177 240
177 212
177 286
177 239
177 409
177 825
177 188
177 799
177 851
177 855
177 542
177 507
177 713
177 232
177 783
178 868
178 463
178 462
178 337
178 425
178 582
178 671
178 677
178 824
178 208
178 667
178 994
178 607
178 180
178 726
178 728
178 745
178 240
178 257
178 264
178 782
178 431
178 954
179 534
179 558
179 599
179 657
179 640
179 460
179 904
179 192
179 730
179 739
179 802
179 322
179 852
179 372
179 374
179 921
179 411
179 932
179 988
179 615
179 734
179 435
180 239
180 299
180 582
180 640
180 898
180 404
180 198
180 778
180 782
180 271
180 362
180 208
180 985
180 512
180 522
180 851
180 697
180 702
180 726
180 240
180 264
180 431
180 949
180 954
180 831
181 519
181 731
181 292
181 615
181 915
181 997
181 964
181 343
181 956
181 484
181 375
181 359
181 320
181 968
181 904
181 418
181 792
181 443
181 589
181 419
181 888
181 369
181 825
181 327
181 711
181 689
181 661
181 293
181 948
181 199
181 211
181 734
181 749
181 265
181 268
181 438
181 999
181 264
181 536
181 864
182 623
182 515
182 779
182 797
182 838
182 346
182 601
182 894
182 632
182 846
182 955
182 454
182 714
182 231
182 246
182 509
182 254
182 583
182 477
182 817
183 601
183 255
183 572
183 580
183 421
183 936
183 625
183 381
183 789
183 451
183 476
183 262
183 533
183 699
183 215
183 981
183 400
183 736
183 542
183 346
183 686
183 331
183 964
183 698
183 713
183 487
183 665
183 340
183 230
184 534
184 988
184 515
184 546
184 838
184 346
184 860
184 361
184 643
184 436
184 601
184 634
184 459
184 882
184 228
184 720
184 246
184 552
184 629
184 779
184 456
184 434
184 252
184 376
184 371
184 207
184 700
184 714
184 231
184 509
184 254
184 508
184 243
184 551
184 593
184 865
184 438
184 668
184 560
184 891
184 781
185 305
185 536
185 550
185 622
185 636
185 696
185 669
185 814
185 344
185 510
185 758
185 794
185 377
185 436
185 910
185 722
185 230
185 757
185 829
185 859
186 322
186 519
186 549
186 632
186 645
186 682
186 508
186 210
186 332
186 688
186 991
186 708
186 505
186 732
186 804
186 624
186 567
186 926
186 236
186 977
186 655
186 403
186 882
186 599
186 211
186 370
186 568
186 701
186 219
186 223
186 738
186 748
186 761
186 819
186 360
186 934
186 961
186 596
186 342
186 318
187 234
187 878
187 670
187 671
187 677
187 805
187 335
187 990
187 582
187 466
187 770
187 756
187 998
187 886
187 989
187 778
187 447
187 362
187 823
187 809
187 275
187 520
187 863
187 949
187 745
187 773
187 808
187 898
187 985
187 782
187 839
187 353
187 404
187 697
187 458
187 726
187 787
187 827
187 263
187 397
187 224
187 763
187 444
187 793
187 692
187 314
187 570
187 254
187 993
187 903
187 240
187 257
187 264
188 659
188 581
188 586
188 587
188 619
188 402
188 905
188 253
188 649
188 299
188 511
188 767
188 799
188 626
188 430
188 855
188 203
188 354
188 292
188 924
188 853
188 958
188 676
188 847
188 442
188 685
188 790
188 440
188 851
188 986
188 503
188 426
188 744
188 522
188 195
188 557
188 582
188 381
188 376
188 952
188 978
188 928
188 701
188 257
188 255
188 393
188 579
188 647
188 314
188 380
189 287
189 440
189 705
189 560
189 658
189 317
189 566
189 848
189 976
189 980
190 526
190 529
190 532
190 539
190 544
190 553
190 564
190 611
190 612
190 684
190 918
190 899
190 922
190 609
190 267
190 535
190 889
190 664
190 951
190 573
190 870
190 309
190 912
190 970
190 625
190 543
190 773
190 453
190 383
190 751
190 308
190 793
190 284
190 822
190 304
190 572
190 315
191 227
191 219
191 524
191 574
191 639
191 670
191 370
191 337
191 209
191 939
191 881
191 300
191 661
191 371
191 249
191 649
191 232
191 241
191 293
191 302
191 319
191 481
191 578
191 230
192 623
192 739
192 197
192 453
192 598
192 794
192 814
192 729
192 730
192 813
192 322
192 372
192 406
192 932
192 463
192 988
192 360
192 681
192 595
192 687
192 733
192 270
192 965
193 927
193 547
193 572
193 524
193 639
193 670
193 302
193 772
193 256
193 221
193 293
193 337
193 689
194 895
194 280
194 402
194 555
194 252
194 540
194 560
194 576
194 689
194 812
194 817
194 317
194 441
194 965
194 774
195 258
195 262
195 789
195 533
195 580
195 699
195 451
195 306
195 900
195 713
195 981
195 487
195 753
195 311
195 285
196 519
196 624
196 632
196 682
196 708
196 804
196 748
196 811
196 210
196 732
196 738
196 286
196 902
196 934
196 505
196 380
196 837
197 575
197 599
197 607
197 852
197 558
197 818
197 846
197 205
197 932
197 406
197 321
197 703
197 723
197 576
197 727
197 980
197 820
197 730
197 795
197 322
197 372
197 399
197 446
197 988
197 254
197 551
197 481
197 648
197 276
198 779
198 361
198 310
198 734
198 369
198 319
198 640
198 702
198 863
198 771
198 257
198 275
198 434
198 458
198 514
198 746
198 753
198 988
198 208
198 726
198 240
198 264
198 949
198 954
198 872
199 541
199 547
199 577
199 595
199 615
199 675
199 325
199 910
199 269
199 604
199 342
199 395
199 551
199 957
199 355
199 391
199 966
199 435
199 245
199 402
199 476
199 213
199 749
199 792
199 326
199 878
199 369
199 386
199 398
199 438
199 443
199 992
199 319
199 722
200 519
200 731
200 423
200 512
200 581
200 619
200 660
200 694
200 695
200 587
200 885
200 958
200 450
200 280
200 986
200 238
200 847
200 972
200 853
200 851
200 866
200 243
200 402
200 592
200 523
200 799
200 905
200 428
200 424
200 442
200 903
200 430
200 503
200 440
200 511
200 407
200 626
200 588
200 685
200 649
200 834
200 876
200 354
200 304
200 790
200 586
200 292
200 522
200 385
200 397
200 816
200 462
200 542
200 884
200 493
200 230
200 719
200 281
200 453
200 916
200 276
200 867
200 487
200 212
200 395
200 353
200 349
200 203
200 253
200 255
200 393
201 322
201 551
201 593
201 615
201 687
201 693
201 705
201 579
201 419
201 910
201 320
201 957
201 865
201 412
201 387
201 244
201 784
201 956
201 749
201 268
201 945
201 390
201 269
201 342
201 608
201 999
201 595
201 395
201 666
201 359
201 925
201 541
201 933
201 577
201 343
201 825
201 992
201 739
201 732
201 257
201 891
201 624
201 681
201 954
201 202
201 375
201 418
201 438
201 495
201 507
201 948
202 534
202 575
202 623
202 657
202 739
202 741
202 374
202 877
202 843
202 614
202 406
202 473
202 219
202 974
202 209
202 485
202 244
202 205
202 730
202 795
202 852
202 868
202 372
202 411
202 932
202 988
202 332
202 303
202 876
202 757
202 829
203 657
203 988
203 248
203 961
203 581
203 851
203 568
203 476
203 894
203 744
203 243
203 255
203 772
203 292
203 299
203 834
203 855
203 393
203 541
203 561
203 595
203 763
203 416
204 463
204 708
204 274
204 651
204 648
204 870
204 403
204 270
204 817
204 317
204 848
204 805
204 312
205 534
205 399
205 721
205 703
205 500
205 869
205 272
205 321
205 751
205 623
205 599
205 482
205 918
205 777
205 759
205 380
205 730
205 739
205 795
205 322
205 852
205 372
205 406
205 988
205 289
205 423
205 835
206 739
206 738
206 302
206 636
206 669
206 696
206 587
206 727
206 242
206 832
206 859
206 864
207 852
207 549
207 529
207 532
207 596
207 684
207 717
207 539
207 306
207 644
207 248
207 731
207 239
207 842
207 330
207 870
207 918
207 423
207 465
207 477
207 847
208 246
208 632
208 724
208 577
208 582
208 677
208 339
208 771
208 735
208 782
208 471
208 946
208 930
208 264
208 954
208 778
208 824
208 644
208 348
208 243
208 806
208 256
208 726
208 745
208 240
208 257
208 275
208 362
208 949
209 813
209 902
209 557
209 487
209 524
209 574
209 642
209 670
209 370
209 492
209 821
209 909
209 880
209 940
209 857
209 785
209 754
209 995
209 329
209 241
209 639
209 313
209 481
209 333
209 978
209 472
209 862
209 232
209 414
209 308
209 766
209 302
209 221
209 594
209 740
209 736
209 399
209 282
209 218
209 612
209 520
209 559
209 435
210 519
210 567
210 624
210 632
210 682
210 688
210 708
210 278
210 360
210 661
210 508
210 991
210 356
210 306
210 549
210 223
210 701
210 748
210 376
210 994
210 505
210 934
210 645
210 977
210 902
210 887
210 732
210 219
210 667
210 679
210 941
210 901
210 497
210 286
210 235
210 419
210 861
210 294
210 845
210 587
210 698
210 675
210 639
210 503
210 819
211 680
211 551
211 561
211 593
211 615
211 992
211 944
211 933
211 964
211 213
211 375
211 342
211 419
211 666
211 705
211 390
211 314
211 392
211 425
211 429
211 324
211 294
211 737
211 749
211 265
211 269
211 784
211 792
211 865
211 355
211 878
211 369
211 386
211 398
211 418
211 443
212 833
212 560
212 644
212 658
212 689
212 283
212 812
212 817
212 848
212 858
212 365
212 965
212 770
213 852
213 714
213 861
213 541
213 577
213 589
213 608
213 615
213 647
213 653
213 878
213 375
213 666
213 244
213 734
213 801
213 595
213 269
213 956
213 585
213 944
213 935
213 698
213 491
213 591
213 737
213 792
213 307
213 314
213 320
213 865
213 369
213 443
213 957
213 495
213 507
214 748
214 681
214 870
214 799
214 560
214 648
214 658
214 401
214 270
214 606
214 960
214 466
214 809
214 911
214 985
214 840
214 787
214 817
214 858
214 422
214 441
214 965
214 780
214 722
215 624
215 723
215 908
215 398
215 457
215 631
215 421
215 451
215 713
215 262
215 584
215 712
215 595
215 876
215 382
215 422
215 522
215 733
215 753
216 534
216 599
216 730
216 729
216 607
216 877
216 341
216 261
216 973
216 322
216 575
216 406
216 846
216 460
216 652
216 281
216 531
216 622
216 739
216 795
216 321
216 852
216 372
216 921
216 411
216 932
216 463
216 988
216 645
216 713
216 348
217 515
217 838
217 346
217 368
217 895
217 643
217 714
217 584
217 509
217 254
217 564
217 255
217 503
217 997
217 495
217 270
217 273
218 761
218 769
218 777
218 295
218 571
218 605
218 464
218 740
218 760
218 953
218 706
218 222
218 429
218 716
218 437
218 250
218 598
218 762
218 237
218 590
218 941
218 839
218 898
218 462
218 325
218 806
219 882
219 519
219 567
219 632
219 645
219 661
219 682
219 708
219 409
219 223
219 748
219 324
219 508
219 378
219 991
219 804
219 755
219 761
219 672
219 679
219 371
219 732
219 961
219 934
219 286
219 738
219 819
219 505
219 376
219 901
219 235
219 735
219 681
219 604
219 346
219 893
219 642
219 994
219 518
219 970
219 523
219 957
219 670
220 505
220 626
220 660
220 514
220 295
220 928
220 429
220 457
220 469
220 571
220 437
220 654
220 590
220 496
220 716
220 554
220 464
220 711
220 548
220 971
220 489
220 250
220 277
220 943
220 555
220 740
220 350
220 706
220 762
220 605
220 488
220 557
220 229
220 760
220 769
220 252
220 598
220 777
220 616
220 422
220 399
220 806
220 959
220 286
220 474
220 478
220 666
220 410
220 344
220 747
220 237
220 451
220 712
220 931
221 869
221 629
221 708
221 529
221 842
221 551
221 524
221 543
221 642
221 665
221 670
221 308
221 881
221 425
221 337
221 909
221 300
221 939
221 791
221 673
221 414
221 662
221 492
221 338
221 766
221 906
221 266
221 526
221 973
221 646
221 423
221 884
221 353
221 241
221 329
221 862
221 817
222 994
222 505
222 609
222 295
222 557
222 616
222 928
222 706
222 710
222 971
222 237
222 229
222 554
222 464
222 413
222 999
222 343
222 920
222 771
222 740
222 252
222 727
223 682
223 708
223 497
223 356
223 306
223 672
223 723
223 324
223 901
223 926
223 813
223 305
223 613
223 748
223 360
223 934
223 505
223 651
223 680
223 796
224 440
224 625
224 603
224 630
224 636
224 722
224 752
224 328
224 550
224 845
224 929
224 690
224 331
224 829
224 959
224 727
224 622
224 475
224 493
224 633
224 313
224 941
224 341
224 497
224 242
224 757
224 510
225 801
225 398
225 826
225 697
225 990
225 691
225 663
225 406
225 354
225 240
225 257
225 263
225 264
225 362
225 431
225 949
225 954
225 480
226 341
226 539
226 611
226 641
226 651
226 684
226 563
226 417
226 249
226 496
226 844
226 239
226 267
226 842
226 892
226 911
226 477
226 479
227 852
227 346
227 882
227 894
227 643
227 714
227 719
227 979
227 498
227 459
227 646
227 509
227 254
227 684
227 891
227 470
228 515
228 797
228 289
228 838
228 346
228 361
228 635
228 643
228 700
228 714
228 979
228 454
228 288
228 248
228 875
228 634
228 562
228 335
228 537
228 410
228 231
228 509
228 254
228 772
228 670
228 302
229 623
229 454
229 284
229 769
229 598
229 654
229 953
229 711
229 740
229 461
229 485
229 763
229 237
229 658
230 629
230 505
230 267
230 293
230 481
230 636
230 696
230 935
230 565
230 618
230 845
230 420
230 603
230 282
230 285
230 242
230 536
230 510
230 344
230 959
230 460
230 328
230 832
230 722
230 426
230 265
230 979
230 444
230 392
230 238
230 757
230 831
230 864
231 802
231 515
231 779
231 316
231 346
231 895
231 436
231 454
231 459
231 601
231 714
231 629
231 552
231 288
231 368
231 634
231 445
231 570
231 635
231 361
231 700
231 894
231 254
231 456
231 838
231 816
231 432
231 651
231 312
231 827
231 529
231 813
231 672
231 234
231 494
231 246
231 509
231 284
231 577
231 524
232 524
232 617
232 642
232 670
232 337
232 662
232 923
232 939
232 978
232 423
232 699
232 329
232 862
232 481
232 872
233 593
233 560
233 648
233 658
233 848
233 644
233 937
233 689
233 963
233 976
233 715
233 373
233 588
233 537
233 884
233 247
233 270
233 817
233 858
233 365
233 422
233 980
233 559
233 722
234 515
234 838
234 346
234 875
234 895
234 643
234 700
234 979
234 249
234 720
234 719
234 894
234 254
234 570
234 289
234 436
234 714
234 955
234 552
234 860
234 884
234 245
234 675
234 964
234 246
234 870
235 519
235 672
235 682
235 708
235 732
235 819
235 360
235 934
235 994
235 239
235 957
235 992
235 625
235 781
236 519
236 632
236 645
236 748
236 688
236 755
236 306
236 324
236 682
236 549
236 572
236 973
236 761
236 286
236 819
236 360
236 617
236 658
237 902
237 842
237 769
237 277
237 557
237 598
237 740
237 250
237 252
237 488
237 429
237 710
237 555
237 762
237 489
237 455
237 469
237 457
237 709
237 548
237 554
237 295
237 464
237 971
237 616
237 711
237 254
237 780
237 442
237 821
237 835
237 460
237 291
237 333
237 712
237 892
237 753
237 677
237 351
238 583
238 522
238 742
238 744
238 972
238 626
238 767
238 304
238 511
238 393
238 384
238 428
238 588
238 317
238 774
238 865
238 568
238 243
238 255
238 299
238 847
238 855
238 354
238 402
238 792
238 380
238 401
238 920
238 823
238 298
239 526
239 527
239 529
239 532
239 553
239 611
239 651
239 377
239 290
239 408
239 849
239 896
239 583
239 596
239 564
239 284
239 439
239 301
239 251
239 830
239 911
239 537
239 775
239 417
239 922
239 889
239 539
239 573
239 892
239 659
239 535
239 493
239 899
239 850
239 310
239 870
239 822
239 684
239 707
239 600
239 440
239 877
239 425
239 878
239 603
239 704
239 636
239 386
239 795
239 267
239 842
239 423
239 477
239 865
239 485
239 699
240 870
240 799
240 244
240 293
240 862
240 545
240 582
240 726
240 327
240 745
240 898
240 808
240 787
240 353
240 990
240 275
240 770
240 339
240 434
240 805
240 263
240 989
240 863
240 998
240 431
240 347
240 827
240 470
240 782
240 985
240 334
240 823
240 886
240 778
240 776
240 773
240 768
240 404
240 345
240 735
240 728
240 640
240 702
240 466
240 318
240 930
240 704
240 771
240 949
240 824
240 257
240 697
240 954
240 839
240 520
240 447
240 565
240 593
240 508
240 681
240 692
240 377
240 635
240 570
240 553
240 929
240 802
240 757
240 836
240 471
241 524
241 642
241 665
241 670
241 329
241 919
241 662
241 913
241 264
241 716
241 581
241 300
241 319
241 978
242 670
242 812
242 353
242 636
242 696
242 722
242 510
242 460
242 352
242 603
242 794
242 637
242 502
242 744
242 933
242 436
242 366
242 829
242 420
243 575
243 681
243 842
243 523
243 581
243 587
243 685
243 744
243 450
243 772
243 440
243 790
243 462
243 765
243 799
243 984
243 861
243 292
243 816
243 660
243 396
243 592
243 626
243 588
243 354
243 742
243 924
243 511
243 280
243 385
243 847
243 512
243 522
243 442
243 299
243 253
243 619
243 582
243 271
243 703
243 900
243 419
243 412
243 505
243 537
243 773
243 836
243 543
243 377
243 855
243 876
243 393
243 712
243 963
243 745
243 257
244 541
244 542
244 547
244 551
244 561
244 572
244 579
244 595
244 615
244 666
244 678
244 734
244 593
244 968
244 443
244 307
244 375
244 355
244 390
244 507
244 999
244 656
244 577
244 705
244 369
244 608
244 996
244 268
244 865
244 387
244 992
244 418
244 878
244 737
244 833
244 597
244 819
244 347
244 331
244 269
244 792
244 386
244 438
244 293
244 839
244 696
245 895
245 686
245 529
245 532
245 544
245 602
245 609
245 641
245 651
245 896
245 344
245 267
245 284
245 842
245 477
245 299
245 421
246 411
246 515
246 797
246 838
246 601
246 643
246 714
246 436
246 546
246 445
246 719
246 955
246 316
246 368
246 498
246 454
246 979
246 882
246 570
246 494
246 635
246 289
246 629
246 779
246 509
246 700
246 254
246 249
246 875
246 361
246 288
246 895
246 459
246 552
246 729
246 696
246 434
246 290
246 558
246 863
246 816
246 281
246 578
246 267
246 530
246 851
246 593
246 928
246 414
246 817
246 550
246 669
246 510
247 994
247 342
247 391
247 625
247 617
247 578
247 715
247 746
247 581
247 956
247 388
247 270
247 283
247 848
247 858
247 422
247 980
247 841
248 515
248 797
248 289
248 546
248 552
248 838
248 346
248 601
248 368
248 454
248 714
248 700
248 719
248 734
248 428
248 254
248 911
248 369
248 753
248 520
249 515
249 797
249 289
249 552
249 838
249 346
249 601
249 643
249 454
249 882
249 635
249 439
249 333
249 370
249 545
249 254
249 706
249 348
250 843
250 477
250 615
250 555
250 709
250 469
250 571
250 489
250 710
250 893
250 485
251 739
251 525
251 527
251 529
251 532
251 553
251 611
251 641
251 664
251 970
251 410
251 454
251 382
251 582
251 842
251 870
251 908
251 911
251 417
251 477
251 878
251 418
251 470
252 876
252 469
252 740
252 777
252 464
252 769
252 489
252 455
252 548
252 554
252 416
252 666
252 771
252 441
252 340
253 852
253 732
253 274
253 911
253 522
253 581
253 586
253 503
253 986
253 397
253 772
253 736
253 725
253 695
253 511
253 530
253 292
253 430
253 958
253 851
253 588
253 816
253 984
253 442
253 410
253 694
253 304
253 523
253 280
253 412
253 347
253 729
253 864
253 611
253 973
253 296
253 627
253 908
253 255
253 299
253 855
253 354
253 876
253 385
253 577
253 578
253 506
254 515
254 570
254 838
254 635
254 700
254 454
254 714
254 979
254 509
254 498
254 601
254 875
254 459
254 797
254 860
254 316
254 643
254 894
254 719
254 368
254 361
254 779
254 546
254 516
254 634
254 552
254 289
254 955
254 288
254 346
254 494
254 895
254 456
254 686
254 629
254 882
254 445
254 436
254 583
254 344
254 948
254 747
254 500
254 815
254 763
254 576
254 715
254 282
254 932
254 362
255 570
255 512
255 530
255 581
255 588
255 744
255 861
255 799
255 924
255 462
255 853
255 972
255 885
255 685
255 903
255 772
255 382
255 402
255 626
255 426
255 694
255 428
255 280
255 628
255 424
255 292
255 397
255 851
255 876
255 393
255 984
255 430
255 765
255 384
255 847
255 407
255 958
255 511
255 385
255 649
255 396
255 522
255 695
255 503
255 354
255 587
255 905
255 816
255 410
255 586
255 986
255 619
255 742
255 866
255 440
255 790
255 767
255 388
255 633
255 677
255 429
255 760
255 674
255 945
255 273
255 473
255 877
255 933
255 970
255 727
255 977
255 299
255 855
256 682
256 819
256 972
256 547
256 550
256 622
256 630
256 636
256 468
256 975
256 756
256 285
256 814
256 864
257 572
257 295
257 560
257 582
257 640
257 671
257 702
257 726
257 756
257 728
257 334
257 773
257 434
257 404
257 447
257 771
257 823
257 697
257 776
257 327
257 345
257 520
257 990
257 768
257 383
257 938
257 946
257 886
257 471
257 735
257 778
257 339
257 809
257 745
257 353
257 318
257 930
257 782
257 466
257 704
257 362
257 458
257 271
257 898
257 863
257 259
257 545
257 827
257 677
257 954
257 264
257 808
257 559
257 974
257 676
257 757
257 288
257 617
257 290
257 897
257 948
257 788
257 680
257 949
257 998
257 315
258 599
258 952
258 668
258 521
258 444
258 363
258 712
258 692
258 733
258 491
258 262
258 568
258 323
258 803
258 789
258 533
258 584
258 580
258 381
258 936
258 713
258 487
258 753
258 763
258 621
258 420
259 552
259 632
259 684
259 381
259 862
259 472
259 689
259 520
259 545
259 582
259 640
259 691
259 726
259 264
259 949
259 998
260 703
260 494
260 551
260 561
260 572
260 577
260 579
260 593
260 615
260 734
260 396
260 268
260 269
260 865
260 878
260 369
260 386
260 398
260 443
260 957
261 534
261 575
261 607
261 730
261 739
261 883
261 272
261 933
261 840
261 702
261 795
261 291
261 818
261 852
261 372
261 374
261 406
261 411
261 415
261 932
261 463
261 988
261 515
261 975
262 748
262 274
262 934
262 423
262 393
262 268
262 769
262 451
262 598
262 994
262 301
262 789
262 540
262 584
262 363
262 381
262 712
262 969
262 487
262 753
262 481
262 340
263 270
263 702
263 726
263 787
263 264
263 863
263 728
263 466
263 824
263 768
263 930
263 383
263 778
263 431
263 271
263 989
263 946
263 335
263 470
263 985
263 776
263 520
263 447
263 691
263 677
263 410
263 763
263 811
263 432
263 714
263 632
263 929
263 449
263 362
263 949
264 838
264 842
264 582
264 702
264 726
264 640
264 466
264 770
264 809
264 677
264 318
264 735
264 691
264 347
264 954
264 756
264 520
264 383
264 327
264 334
264 949
264 404
264 458
264 827
264 353
264 778
264 671
264 545
264 787
264 768
264 930
264 805
264 771
264 362
264 823
264 728
264 985
264 824
264 898
264 470
264 697
264 776
264 339
264 989
264 990
264 335
264 471
264 998
264 886
264 434
264 345
264 946
264 448
264 452
264 933
264 377
264 674
264 853
264 462
264 368
264 280
264 715
264 444
264 482
264 627
264 782
264 758
265 838
265 611
265 551
265 577
265 593
265 615
265 656
265 666
265 355
265 507
265 579
265 561
265 647
265 705
265 314
265 448
265 375
265 693
265 485
265 462
265 641
265 648
265 771
265 865
265 418
265 438
265 443
265 495
266 515
266 994
266 689
266 513
266 559
266 392
266 781
266 366
266 311
266 942
266 483
266 835
266 840
266 313
266 754
266 819
266 684
266 273
266 340
266 348
266 975
267 463
267 714
267 529
267 532
267 537
267 539
267 553
267 611
267 641
267 651
267 664
267 684
267 612
267 849
267 526
267 633
267 830
267 912
267 850
267 465
267 535
267 897
267 284
267 290
267 927
267 908
267 759
267 681
267 564
267 563
267 527
267 544
267 452
267 918
267 556
267 793
267 822
267 269
267 319
267 909
267 839
267 599
267 593
267 397
267 513
267 699
267 310
267 842
267 870
267 417
267 423
267 439
267 678
267 745
267 622
268 708
268 561
268 687
268 705
268 343
268 784
268 910
268 844
268 933
268 615
268 443
268 956
268 390
268 395
268 307
268 792
268 449
268 906
268 387
268 398
268 269
268 833
268 734
268 495
268 915
268 585
268 996
268 507
268 355
268 359
268 418
268 904
268 419
268 375
268 656
268 865
268 579
268 438
268 647
268 577
268 957
268 542
268 997
268 694
268 849
268 995
268 920
268 718
268 827
268 850
268 998
268 434
268 314
268 878
268 369
268 386
268 702
269 280
269 542
269 551
269 572
269 577
269 593
269 615
269 653
269 656
269 945
269 865
269 957
269 992
269 359
269 325
269 964
269 737
269 910
269 343
269 391
269 449
269 604
269 326
269 844
269 888
269 398
269 968
269 705
269 395
269 749
269 579
269 589
269 418
269 585
269 798
269 833
269 801
269 561
269 608
269 595
269 693
269 419
269 320
269 307
269 996
269 976
269 958
269 710
269 928
269 847
269 886
269 893
269 611
269 284
269 337
269 529
269 671
269 558
269 792
269 355
269 878
269 369
269 422
269 965
269 859
270 795
270 562
270 576
270 648
270 658
270 746
270 900
270 689
270 826
270 422
270 963
270 317
270 976
270 788
270 883
270 602
270 474
270 723
270 817
270 848
270 858
270 357
270 365
270 965
270 980
271 356
271 640
271 702
271 726
271 745
271 809
271 431
271 949
271 954
272 534
272 558
272 575
272 599
272 638
272 730
272 739
272 795
272 802
272 322
272 852
272 372
272 374
272 463
272 988
272 667
272 418
272 438
272 495
272 469
272 828
272 753
273 399
273 332
273 848
273 597
273 281
273 312
273 297
273 559
273 474
273 351
273 800
273 856
273 468
273 836
273 634
273 750
273 739
273 293
273 734
273 806
273 298
273 815
273 841
273 340
273 348
273 864
274 534
274 567
274 688
274 738
274 748
274 901
274 902
274 624
274 819
274 723
274 926
274 356
274 360
274 994
274 505
275 284
275 878
275 293
275 648
275 520
275 771
275 782
275 787
275 396
275 421
275 906
275 664
275 335
275 353
275 431
275 949
275 954
276 286
276 495
276 513
276 559
276 294
276 800
276 329
276 319
276 837
276 340
276 373
277 769
277 943
277 711
277 437
277 571
277 489
277 709
277 557
277 555
277 761
277 463
277 554
277 429
277 469
277 740
277 699
277 336
278 779
278 519
278 632
278 682
278 708
278 732
278 738
278 748
278 448
278 433
278 286
278 819
278 356
278 360
278 934
278 809
278 722
279 532
279 369
279 524
279 543
279 665
279 669
279 329
279 862
279 481
280 372
280 660
280 676
280 592
280 924
280 581
280 512
280 926
280 299
280 851
280 855
280 354
280 876
280 541
280 750
280 858
280 357
280 863
280 696
281 643
281 855
281 393
281 559
281 835
281 874
281 597
281 468
281 837
281 298
281 388
281 806
281 311
281 373
281 427
281 774
281 621
281 931
281 942
281 967
281 297
281 416
281 800
281 366
281 367
281 435
281 796
281 474
281 294
281 490
281 810
281 351
281 830
281 421
281 784
281 956
281 680
281 603
281 609
281 668
281 925
281 348
281 879
281 950
282 842
282 524
282 954
282 630
282 637
282 757
282 845
282 747
282 488
282 751
282 566
282 545
282 285
282 814
283 851
283 381
283 560
283 576
283 648
283 715
283 848
283 627
283 380
283 591
283 965
283 947
283 718
283 963
283 809
283 618
283 684
283 816
283 643
283 817
283 949
283 815
283 285
283 832
284 456
284 529
284 539
284 600
284 611
284 641
284 664
284 681
284 556
284 303
284 596
284 465
284 633
284 922
284 820
284 423
284 535
284 493
284 803
284 532
284 612
284 526
284 911
284 896
284 544
284 822
284 724
284 408
284 375
284 508
284 936
284 416
284 985
284 842
284 870
284 479
284 969
284 562
284 829
285 968
285 441
285 550
285 630
285 636
285 696
285 722
285 510
285 794
285 618
285 565
285 829
285 821
285 480
285 831
285 420
286 546
286 567
286 682
286 708
286 723
286 732
286 748
286 873
286 902
286 901
286 761
286 786
286 306
286 360
286 661
286 332
286 624
286 679
286 926
286 672
286 667
286 991
286 371
286 634
286 900
286 341
286 421
286 361
286 622
286 819
286 934
286 961
286 295
286 788
287 534
287 575
287 730
287 795
287 389
287 500
287 657
287 655
287 406
287 879
287 604
287 852
287 372
287 374
287 411
287 932
287 988
287 611
287 354
287 381
287 909
288 515
288 779
288 643
288 459
288 629
288 494
288 714
288 895
288 385
288 552
288 838
288 346
288 860
288 894
288 454
288 979
288 509
288 360
288 518
288 593
288 975
288 483
289 372
289 515
289 797
289 720
289 714
289 719
289 634
289 346
289 882
289 436
289 316
289 700
289 361
289 979
289 635
289 838
289 494
289 716
289 753
289 579
289 664
289 546
289 895
289 454
289 509
289 651
289 290
289 381
289 783
290 661
290 819
290 526
290 529
290 544
290 684
290 717
290 775
290 793
290 528
290 611
290 951
290 732
290 635
290 330
290 870
290 908
290 911
291 534
291 703
291 730
291 739
291 802
291 973
291 868
291 415
291 463
291 921
291 389
291 638
291 500
291 405
291 852
291 869
291 884
291 623
291 949
291 807
291 651
291 597
291 789
291 294
291 801
291 322
291 372
291 374
291 932
291 988
291 875
291 894
291 362
291 569
291 331
292 838
292 719
292 870
292 660
292 799
292 430
292 424
292 587
292 924
292 834
292 851
292 413
292 428
292 972
292 861
292 628
292 304
292 385
292 384
292 649
292 695
292 393
292 503
292 511
292 440
292 410
292 450
292 397
292 997
292 706
292 574
292 521
292 392
292 745
292 612
292 621
292 876
292 784
293 842
293 654
293 617
293 642
293 665
293 670
293 673
293 425
293 940
293 785
293 907
293 923
293 329
293 821
293 978
293 743
293 857
293 296
293 472
293 319
293 486
293 323
293 524
293 543
293 695
293 651
293 339
293 316
293 591
293 913
293 689
294 558
294 559
294 796
294 416
294 297
294 348
294 872
294 874
294 967
294 975
295 484
295 777
295 769
295 489
295 350
295 590
295 709
295 760
295 605
295 740
295 809
295 313
295 469
295 823
296 303
296 799
296 615
296 737
296 350
296 524
296 642
296 650
296 670
296 323
296 337
296 425
296 481
296 965
297 734
297 559
297 841
297 597
297 590
297 317
297 815
297 836
297 837
297 340
297 348
297 351
297 872
297 435
297 637
298 708
298 559
298 810
298 836
298 594
298 394
298 983
298 340
298 427
298 480
298 467
298 872
298 348
298 392
298 351
298 781
298 975
298 856
298 513
298 483
298 967
298 774
298 474
298 796
298 478
298 358
298 840
298 373
298 432
298 435
298 621
298 529
298 650
298 675
298 847
298 391
298 841
298 367
299 651
299 523
299 581
299 587
299 592
299 772
299 442
299 426
299 876
299 450
299 972
299 866
299 407
299 790
299 384
299 725
299 986
299 816
299 855
299 511
299 424
299 462
299 512
299 744
299 885
299 676
299 382
299 903
299 385
299 958
299 924
299 905
299 530
299 853
299 430
299 304
299 834
299 333
299 891
299 567
299 325
299 483
299 845
299 768
299 852
299 878
299 658
299 301
299 851
299 393
299 656
300 440
300 792
300 524
300 642
300 670
300 824
300 599
300 577
300 319
300 329
300 862
300 481
300 891
300 697
300 351
300 630
301 463
301 459
301 525
301 529
301 532
301 539
301 563
301 664
301 731
301 310
301 842
301 870
301 423
301 439
301 479
301 598
301 496
301 909
301 458
302 686
302 723
302 320
302 524
302 639
302 670
302 673
302 791
302 313
302 333
302 492
302 642
302 871
302 940
302 862
302 308
302 846
302 799
302 319
302 353
303 932
303 529
303 532
303 609
303 612
303 917
303 732
303 842
303 870
303 417
303 753
303 665
303 425
303 835
304 371
304 530
304 676
304 694
304 799
304 584
304 730
304 855
304 876
304 382
304 393
304 397
304 768
304 559
305 526
305 628
305 648
305 441
305 998
305 780
305 638
305 573
305 836
305 841
305 348
305 872
305 874
305 435
306 802
306 519
306 567
306 682
306 708
306 748
306 670
306 736
306 311
306 356
306 360
306 934
306 961
306 510
307 612
307 577
307 585
307 593
307 615
307 687
307 734
307 595
307 542
307 522
307 314
307 878
307 369
307 386
307 438
307 957
307 968
307 997
307 598
307 631
307 848
307 891
307 671
307 335
307 517
308 541
308 642
308 665
308 670
308 785
308 323
308 329
308 909
308 481
308 658
308 677
309 797
309 635
309 526
309 529
309 532
309 544
309 553
309 596
309 611
309 641
309 684
309 731
309 775
309 310
309 842
309 870
309 911
309 927
309 465
309 326
309 386
310 529
310 532
310 537
310 583
310 602
310 664
310 684
310 731
310 717
310 775
310 908
310 724
310 892
310 609
310 870
310 681
310 535
310 518
310 479
310 499
310 423
310 803
310 525
310 528
310 556
310 809
310 594
310 942
310 366
310 415
310 326
310 826
310 842
310 439
310 542
310 348
310 373
310 550
311 865
311 543
311 648
311 559
311 621
311 782
311 835
311 340
311 373
312 988
312 682
312 326
312 559
312 621
312 650
312 835
312 836
312 340
312 348
312 373
312 435
313 369
313 957
313 524
313 665
313 670
313 571
313 760
313 315
313 323
313 414
313 978
313 481
314 566
314 454
314 842
314 385
314 577
314 595
314 608
314 678
314 687
314 734
314 653
314 395
314 320
314 825
314 551
314 675
314 326
314 996
314 798
314 484
314 906
314 593
314 666
314 541
314 443
314 390
314 375
314 865
314 398
314 933
314 957
314 945
314 966
314 844
314 579
314 325
314 604
314 801
314 438
314 420
314 432
314 502
314 794
314 347
314 800
314 469
314 373
314 667
314 849
314 878
314 369
314 507
314 670
314 826
314 771
314 810
314 388
315 749
315 702
315 975
315 622
315 630
315 636
315 637
315 696
315 814
315 618
315 761
315 864
315 420
315 502
316 515
316 779
316 797
316 546
316 368
316 509
316 494
316 346
316 935
316 697
316 548
316 838
316 860
316 629
316 955
316 714
316 819
317 739
317 548
317 560
317 576
317 644
317 674
317 689
317 817
317 965
317 891
317 357
317 606
317 947
317 914
317 848
317 586
317 828
317 887
317 481
317 782
317 774
318 921
318 615
318 375
318 965
318 582
318 671
318 677
318 726
318 827
318 434
318 938
318 989
318 824
318 848
318 839
318 335
318 949
318 954
318 471
319 539
319 654
319 524
319 639
319 665
319 670
319 673
319 543
319 919
319 907
319 650
319 338
319 913
319 923
319 866
319 708
319 751
319 680
319 485
319 329
319 862
319 909
319 481
320 852
320 561
320 579
320 593
320 595
320 615
320 666
320 734
320 737
320 792
320 904
320 449
320 395
320 589
320 386
320 964
320 608
320 342
320 484
320 825
320 485
320 398
320 693
320 906
320 999
320 412
320 844
320 551
320 675
320 833
320 443
320 542
320 798
320 966
320 515
320 537
320 481
320 929
320 839
320 680
320 352
320 670
320 573
320 326
320 865
320 369
320 438
320 507
321 534
321 558
321 575
321 614
321 721
321 730
321 813
321 638
321 411
321 361
321 373
321 559
321 852
321 341
321 869
321 372
321 374
321 932
321 463
321 988
321 822
321 790
321 784
321 429
321 617
321 565
321 814
322 566
322 575
322 657
322 730
322 739
322 795
322 813
322 446
322 921
322 374
322 638
322 852
322 811
322 341
322 843
322 406
322 415
322 973
322 846
322 473
322 988
322 607
322 558
322 802
322 883
322 877
322 818
322 810
322 919
322 483
322 395
322 515
322 422
322 837
322 745
322 372
322 932
322 337
323 611
323 855
323 608
323 524
323 639
323 670
323 791
323 881
323 650
323 862
323 821
323 642
323 403
323 419
323 934
323 531
323 736
323 481
323 658
324 567
324 701
324 748
324 376
324 939
324 648
324 906
324 360
324 902
324 961
324 505
324 896
324 559
324 636
324 352
325 932
325 561
325 577
325 579
325 615
325 647
325 653
325 878
325 443
325 957
325 495
325 874
326 932
326 541
326 577
326 579
326 593
326 693
326 792
326 386
326 801
326 448
326 355
326 956
326 687
326 944
326 999
326 737
326 443
326 954
326 808
326 762
326 865
326 418
326 438
326 957
326 485
326 495
326 928
326 791
326 560
326 630
327 515
327 530
327 855
327 574
327 582
327 640
327 702
327 726
327 353
327 362
327 431
327 949
328 811
328 377
328 443
328 571
328 481
328 967
328 550
328 622
328 630
328 636
328 637
328 669
328 683
328 696
328 807
328 613
328 799
328 420
329 834
329 443
329 763
329 524
329 665
329 670
329 481
329 543
329 907
329 673
329 425
329 639
329 862
329 821
329 414
329 919
329 785
329 486
329 337
329 574
329 492
329 333
329 766
329 743
329 617
329 642
329 754
329 338
329 909
329 939
329 791
329 662
329 857
329 880
329 549
329 717
329 793
329 740
329 702
329 818
329 355
329 364
329 756
329 974
329 385
329 518
330 529
330 539
330 611
330 612
330 684
330 803
330 544
330 600
330 830
330 527
330 417
330 681
330 788
330 963
330 476
330 909
330 377
330 911
330 423
330 479
330 772
330 487
330 597
331 615
331 481
331 517
331 636
331 696
331 794
331 814
331 829
331 821
331 859
332 519
332 567
332 632
332 661
332 682
332 708
332 723
332 748
332 654
332 505
332 477
332 712
332 576
333 378
333 537
333 639
333 650
333 665
333 670
333 414
333 481
334 795
334 732
334 440
334 625
334 606
334 980
334 545
334 582
334 726
334 353
334 431
334 949
335 915
335 520
335 582
335 640
335 677
335 726
335 728
335 745
335 839
335 697
335 776
335 823
335 946
335 447
335 756
335 949
335 938
335 735
335 431
335 470
335 778
335 353
335 954
335 704
335 584
335 867
335 968
335 563
335 941
335 830
335 707
335 998
336 670
336 559
336 569
336 815
336 836
336 841
336 513
336 474
336 347
336 615
336 340
336 348
336 373
336 435
337 360
337 711
337 524
337 639
337 670
337 673
337 940
337 662
337 909
337 907
337 939
337 472
337 802
337 733
337 862
337 358
337 483
338 477
338 524
338 617
338 639
338 642
338 670
338 862
338 913
338 559
339 876
339 615
339 443
339 710
339 640
339 702
339 442
339 943
339 695
339 362
339 431
339 954
339 471
340 997
340 363
340 920
340 582
340 559
340 835
340 916
340 856
340 569
340 468
340 435
340 815
340 483
340 796
340 478
340 783
340 358
340 392
340 975
340 506
340 781
340 394
340 621
340 366
340 474
340 806
340 432
340 403
340 513
340 379
340 480
340 594
340 388
340 597
340 367
340 433
340 351
340 983
340 780
340 950
340 774
340 841
340 810
340 967
340 373
340 348
340 467
340 840
340 993
340 384
340 547
340 687
340 539
340 534
340 628
340 870
340 400
340 875
340 957
340 493
340 811
340 699
340 757
341 575
341 657
341 795
341 818
341 852
341 500
341 463
341 802
341 415
341 655
341 883
341 614
341 921
341 372
341 846
341 739
341 599
341 566
341 558
341 757
341 468
341 347
341 980
341 374
341 406
341 411
341 932
341 988
341 732
341 784
341 746
342 542
342 547
342 551
342 595
342 615
342 647
342 705
342 572
342 904
342 865
342 386
342 784
342 391
342 387
342 966
342 833
342 483
342 878
342 369
342 375
342 438
342 443
342 957
342 495
342 507
342 740
342 829
343 739
343 818
343 742
343 577
343 593
343 615
343 687
343 734
343 737
343 865
343 355
343 878
343 369
343 398
343 438
343 443
343 957
343 495
343 507
343 753
343 785
343 481
344 622
344 630
344 636
344 696
344 829
344 832
344 859
344 864
344 502
345 700
345 580
345 713
345 357
345 582
345 640
345 671
345 704
345 745
345 720
345 394
345 362
345 949
345 954
346 515
346 838
346 546
346 719
346 516
346 494
346 635
346 882
346 509
346 456
346 875
346 895
346 552
346 601
346 979
346 459
346 720
346 643
346 634
346 436
346 570
346 797
346 700
346 454
346 894
346 445
346 708
346 777
346 487
346 519
346 614
346 648
346 928
346 863
346 409
346 860
346 361
346 714
346 941
346 529
346 386
346 837
347 732
347 775
347 666
347 448
347 545
347 582
347 691
347 745
347 353
347 431
347 949
347 471
347 998
347 722
348 509
348 559
348 806
348 403
348 796
348 468
348 835
348 416
348 872
348 597
348 800
348 815
348 916
348 474
348 478
348 931
348 433
348 490
348 483
348 874
348 836
348 392
348 780
348 975
348 379
348 427
348 950
348 783
348 781
348 480
348 513
348 373
348 435
348 983
348 594
348 942
348 467
348 388
348 774
348 893
348 394
348 856
348 367
348 840
348 432
348 569
348 621
348 506
348 351
348 993
348 837
348 576
348 679
348 910
348 369
348 450
348 977
348 519
348 531
348 963
348 746
348 867
348 756
348 959
348 550
349 575
349 599
349 623
349 730
349 795
349 852
349 813
349 888
349 359
349 686
349 801
349 372
349 374
349 463
349 988
350 446
350 899
350 418
350 555
350 427
350 437
350 706
350 469
350 740
351 574
351 559
351 840
351 392
351 993
351 796
351 907
351 872
351 874
351 435
351 975
351 669
352 515
352 860
352 819
352 529
352 571
352 524
352 993
352 622
352 630
352 636
352 696
352 722
352 829
352 864
353 734
353 545
353 582
353 640
353 691
353 434
353 471
353 702
353 998
353 805
353 839
353 771
353 520
353 551
353 594
353 685
353 414
353 383
353 431
353 954
353 874
354 564
354 523
354 530
354 592
354 736
354 799
354 847
354 462
354 876
354 428
354 382
354 853
354 695
354 660
354 742
354 972
354 816
354 861
354 586
354 685
354 450
354 396
354 649
354 958
354 903
354 851
354 442
354 744
354 855
354 385
354 430
354 894
354 928
354 752
354 989
354 729
354 874
354 597
354 440
354 616
354 461
354 815
355 561
355 572
355 577
355 579
355 593
355 792
355 604
355 737
355 801
355 507
355 615
355 933
355 386
355 693
355 608
355 878
355 678
355 687
355 412
355 390
355 562
355 980
355 869
355 645
355 369
355 992
355 495
355 555
355 780
356 509
356 519
356 549
356 632
356 682
356 701
356 708
356 748
356 755
356 786
356 819
356 409
356 672
356 804
356 422
356 696
356 655
356 360
356 902
356 994
356 505
356 586
356 851
356 543
357 560
357 663
357 817
357 848
357 648
357 658
357 552
357 365
357 891
357 965
357 461
358 687
358 740
358 789
358 965
358 559
358 835
358 427
358 478
358 874
358 869
358 647
358 373
358 435
358 975
359 551
359 572
359 577
359 589
359 615
359 693
359 734
359 749
359 865
359 878
359 369
359 386
359 391
359 438
359 957
359 992
359 495
359 507
359 548
359 812
360 624
360 632
360 661
360 708
360 819
360 376
360 755
360 679
360 977
360 786
360 409
360 887
360 667
360 941
360 682
360 738
360 748
360 519
360 645
360 378
360 497
360 508
360 688
360 961
360 732
360 991
360 559
360 517
360 602
360 384
360 704
360 865
360 491
360 739
360 934
360 994
360 505
360 585
360 642
361 730
361 515
361 797
361 552
361 838
361 456
361 516
361 895
361 700
361 459
361 979
361 494
361 738
361 760
361 520
361 763
361 882
361 643
361 454
361 714
361 509
361 658
361 671
362 526
362 633
362 582
362 726
362 756
362 898
362 702
362 431
362 839
362 805
362 809
362 466
362 420
362 849
362 784
362 967
362 949
363 528
363 612
363 855
363 533
363 538
363 580
363 504
363 540
363 733
363 764
363 381
363 713
363 936
363 482
363 568
363 400
363 982
363 699
363 668
363 948
363 620
363 952
363 584
363 451
363 501
363 692
363 969
363 421
363 631
363 673
363 518
363 464
363 809
363 964
363 437
363 529
363 899
363 753
363 848
363 431
364 729
364 714
364 754
364 578
364 648
364 658
364 746
364 817
364 848
364 365
364 965
364 640
365 795
365 560
365 578
365 848
365 576
365 947
365 441
365 648
365 422
365 652
365 591
365 715
365 389
365 639
365 957
365 739
365 991
365 866
365 965
365 980
365 669
366 529
366 512
366 855
366 653
366 969
366 559
366 835
366 836
366 841
366 803
366 373
366 435
367 789
367 582
367 559
367 569
367 621
367 835
367 836
367 872
367 506
367 535
367 927
367 723
367 373
367 435
367 967
367 636
368 515
368 516
368 552
368 838
368 601
368 894
368 547
368 427
368 390
368 700
368 454
368 719
368 979
368 509
368 666
368 418
368 788
369 479
369 577
369 593
369 608
369 615
369 656
369 675
369 734
369 792
369 865
369 878
369 541
369 589
369 561
369 906
369 387
369 705
369 825
369 992
369 844
369 418
369 968
369 910
369 666
369 888
369 944
369 507
369 386
369 956
369 915
369 784
369 957
369 996
369 412
369 485
369 604
369 391
369 585
369 687
369 945
369 749
369 572
369 964
369 904
369 375
369 443
369 551
369 966
369 438
369 495
369 419
369 395
369 833
369 925
369 613
369 744
369 636
369 728
369 522
369 967
369 905
369 548
369 713
369 855
369 694
369 422
369 403
369 800
370 988
370 643
370 417
370 524
370 670
370 782
370 945
370 909
370 481
371 519
371 624
371 632
371 661
371 708
371 748
371 819
371 676
371 646
371 737
371 505
371 625
372 534
372 599
372 623
372 657
372 703
372 729
372 730
372 739
372 795
372 852
372 869
372 883
372 721
372 607
372 558
372 655
372 818
372 813
372 811
372 932
372 614
372 473
372 802
372 877
372 988
372 884
372 399
372 389
372 463
372 575
372 973
372 846
372 566
372 446
372 500
372 638
372 415
372 751
372 411
372 921
372 406
372 686
372 920
372 882
372 491
372 393
372 643
372 895
372 495
372 508
372 918
372 476
372 424
372 439
372 544
372 834
372 670
372 622
373 988
373 782
373 559
373 621
373 836
373 872
373 435
373 815
373 490
373 942
373 474
373 388
373 468
373 841
373 993
373 840
373 931
373 506
373 783
373 480
373 594
373 800
373 513
373 796
373 780
373 950
373 478
373 403
373 874
373 879
373 837
373 856
373 916
373 597
373 806
373 392
373 483
373 774
373 606
373 410
373 970
373 834
373 881
373 481
373 731
373 643
373 552
373 758
373 911
373 975
374 534
374 575
374 730
374 795
374 852
374 869
374 399
374 811
374 843
374 406
374 389
374 607
374 655
374 473
374 721
374 703
374 741
374 877
374 818
374 868
374 802
374 405
374 500
374 894
374 594
374 598
374 388
374 924
374 985
374 779
374 828
374 449
374 956
374 747
374 932
374 463
374 733
375 852
375 830
375 675
375 693
375 784
375 910
375 608
375 687
375 833
375 956
375 387
375 678
375 547
375 915
375 945
375 666
375 653
375 996
375 907
375 683
375 837
375 875
375 530
375 410
375 438
375 443
375 699
376 932
376 519
376 567
376 624
376 682
376 708
376 723
376 732
376 738
376 819
376 934
376 941
376 961
376 994
376 505
376 393
376 391
376 578
376 722
377 509
377 688
377 526
377 600
377 651
377 664
377 842
377 870
377 439
377 917
377 724
377 633
377 518
377 936
377 841
377 584
377 695
377 911
377 423
377 477
377 479
377 858
377 559
378 454
378 519
378 567
378 624
378 708
378 748
378 755
378 819
378 505
378 858
378 965
378 671
378 630
379 439
379 507
379 580
379 524
379 658
379 965
379 513
379 559
379 783
379 796
379 872
379 762
379 761
379 534
379 403
379 950
379 967
380 885
380 393
380 484
380 627
380 648
380 689
380 715
380 746
380 817
380 848
380 891
380 453
380 735
380 880
380 422
380 965
380 435
381 838
381 498
381 577
381 666
381 789
381 533
381 580
381 952
381 948
381 504
381 699
381 828
381 969
381 981
381 444
381 451
381 733
381 540
381 491
381 476
381 501
381 668
381 936
381 713
381 764
381 620
381 890
381 654
381 919
381 595
381 590
381 707
381 446
381 487
381 753
381 648
382 994
382 523
382 799
382 855
382 876
382 440
382 935
382 811
382 385
382 584
382 726
383 546
383 519
383 848
383 582
383 671
383 745
383 770
383 771
383 404
383 874
383 935
383 415
383 393
383 766
383 431
383 949
383 954
383 471
384 512
384 522
384 619
384 694
384 799
384 855
384 581
384 864
384 806
384 597
384 947
384 957
385 534
385 530
385 581
385 680
385 855
385 861
385 876
385 958
385 619
385 790
385 742
385 450
385 725
385 847
385 767
385 765
385 816
385 851
385 984
385 523
385 522
385 407
385 592
385 410
385 462
385 834
385 503
385 511
385 440
385 853
385 570
385 783
385 960
385 862
385 622
385 473
385 644
385 970
385 838
385 560
385 754
385 820
385 386
386 641
386 586
386 426
386 551
386 572
386 577
386 615
386 647
386 687
386 693
386 792
386 865
386 878
386 561
386 395
386 418
386 589
386 542
386 906
386 844
386 449
386 992
386 801
386 391
386 398
386 825
386 749
386 904
386 910
386 798
386 915
386 833
386 957
386 438
386 604
386 945
386 784
386 602
386 406
386 456
386 685
386 625
386 861
386 621
386 584
386 646
386 443
386 484
386 469
386 969
386 639
387 921
387 505
387 542
387 561
387 593
387 615
387 878
387 438
387 495
387 689
388 957
388 980
388 559
388 597
388 815
388 841
388 874
388 879
388 412
388 609
388 975
389 575
389 614
389 730
389 739
389 795
389 852
389 997
389 573
389 748
389 411
389 463
389 988
389 860
389 603
390 542
390 551
390 615
390 678
390 734
390 833
390 865
390 878
390 438
390 957
390 862
390 939
391 515
391 454
391 509
391 551
391 561
391 577
391 593
391 749
391 678
391 484
391 992
391 737
391 666
391 787
391 575
391 803
391 398
391 438
391 957
391 909
392 558
392 411
392 786
392 641
392 913
392 726
392 559
392 810
392 835
393 895
393 518
393 529
393 581
393 588
393 592
393 660
393 767
393 772
393 799
393 855
393 861
393 866
393 426
393 680
393 522
393 450
393 790
393 462
393 586
393 676
393 619
393 402
393 725
393 512
393 503
393 986
393 523
393 424
393 428
393 695
393 744
393 530
393 430
393 626
393 410
393 413
393 442
393 851
393 613
393 841
393 912
393 594
393 670
393 505
393 526
393 838
393 888
393 398
393 975
394 429
394 513
394 559
394 836
394 837
394 841
394 872
394 874
394 879
394 435
394 831
395 532
395 775
395 561
395 593
395 615
395 656
395 675
395 734
395 865
395 878
395 438
395 957
395 968
395 992
395 995
395 839
396 988
396 522
396 626
396 660
396 790
396 851
396 636
396 710
396 487
397 717
397 512
397 522
397 587
397 680
397 799
397 851
397 855
397 876
397 660
397 812
397 722
397 917
397 603
397 431
398 875
398 541
398 561
398 572
398 593
398 615
398 656
398 687
398 734
398 865
398 449
398 448
398 964
398 666
398 589
398 705
398 551
398 784
398 693
398 945
398 944
398 792
398 937
398 809
398 871
398 986
398 567
398 438
398 443
398 957
398 495
399 534
399 558
399 575
399 607
399 657
399 730
399 739
399 751
399 795
399 869
399 411
399 952
399 613
399 932
399 463
399 988
399 581
399 678
399 421
399 691
400 789
400 533
400 421
400 698
400 631
400 556
400 936
400 487
400 491
400 753
400 874
400 506
400 618
401 599
401 682
401 532
401 905
401 958
401 878
401 578
401 674
401 812
401 848
401 858
401 471
401 998
401 976
402 684
402 581
402 586
402 660
402 834
402 851
402 855
402 972
402 523
402 736
402 647
402 856
402 878
402 438
402 796
403 797
403 873
403 617
403 559
403 621
403 783
403 806
403 780
403 931
403 796
403 728
403 658
403 487
403 975
404 908
404 579
404 713
404 640
404 671
404 677
404 702
404 704
404 726
404 745
404 782
404 692
404 431
404 949
404 954
404 998
405 534
405 558
405 566
405 575
405 739
405 795
405 852
405 869
405 415
405 932
405 988
405 775
405 631
405 639
405 829
406 534
406 575
406 599
406 657
406 721
406 729
406 739
406 795
406 843
406 852
406 932
406 473
406 802
406 558
406 415
406 973
406 566
406 446
406 565
406 667
406 743
406 897
406 430
406 816
406 628
406 961
406 463
406 988
406 892
406 855
406 533
406 663
407 530
407 581
407 588
407 628
407 695
407 772
407 799
407 834
407 855
407 781
408 988
408 498
408 529
408 532
408 535
408 611
408 651
408 707
408 870
408 911
408 423
408 581
408 579
408 513
409 519
409 549
409 632
409 682
409 708
409 748
409 902
409 934
409 417
409 598
410 911
410 522
410 660
410 799
410 855
410 582
411 534
411 575
411 730
411 739
411 795
411 852
411 869
411 655
411 446
411 883
411 594
411 476
411 436
411 529
411 988
411 494
411 682
411 422
412 525
412 581
412 694
412 561
412 579
412 585
412 593
412 615
412 792
412 418
412 443
412 957
412 495
412 712
413 797
413 522
413 530
413 581
413 790
413 799
413 851
413 428
413 462
413 725
413 467
413 418
414 639
414 642
414 665
414 670
414 913
414 907
414 543
414 909
414 857
414 821
414 923
414 871
414 978
414 617
414 527
414 539
414 661
414 625
414 969
415 566
415 599
415 703
415 730
415 795
415 852
415 921
415 638
415 869
415 877
415 546
415 426
415 772
415 797
415 826
415 916
415 507
415 932
415 463
415 777
416 439
416 796
416 427
416 456
416 565
416 950
416 975
417 534
417 738
417 934
417 526
417 529
417 532
417 535
417 553
417 611
417 664
417 775
417 870
417 911
417 717
417 892
417 724
417 527
417 918
417 896
417 573
417 537
417 556
417 912
417 759
417 539
417 951
417 693
417 781
417 937
417 833
417 928
417 637
417 499
417 669
418 748
418 899
418 479
418 541
418 551
418 561
418 593
418 615
418 693
418 734
418 737
418 792
418 865
418 833
418 675
418 419
418 595
418 801
418 542
418 547
418 647
418 992
418 999
418 957
418 485
418 844
418 577
418 448
418 972
418 783
418 486
418 495
418 507
418 880
418 949
418 502
419 526
419 899
419 577
419 593
419 595
419 615
419 705
419 792
419 865
419 875
419 957
419 968
419 484
420 445
420 673
420 949
420 603
420 622
420 630
420 696
420 722
420 831
420 864
420 959
420 935
420 727
420 517
420 752
420 636
420 907
420 483
420 510
421 575
421 647
421 531
421 540
421 625
421 753
421 487
421 698
421 501
421 656
421 776
421 969
421 763
422 686
422 645
422 994
422 532
422 560
422 576
422 648
422 658
422 689
422 848
422 461
422 718
422 900
422 826
422 867
422 578
422 644
422 980
422 976
422 965
422 529
422 700
422 938
422 502
422 678
422 757
422 491
422 441
422 630
423 552
423 527
423 529
423 532
423 539
423 611
423 775
423 830
423 842
423 870
423 899
423 911
423 553
423 525
423 651
423 664
423 465
423 602
423 633
423 439
423 573
423 583
423 927
423 923
423 495
423 883
423 931
423 506
423 949
423 438
424 730
424 755
424 660
424 676
424 834
424 851
424 605
424 998
425 505
425 524
425 670
425 909
425 481
425 642
425 478
426 894
426 522
426 581
426 587
426 626
426 649
426 660
426 694
426 772
426 861
426 986
426 622
426 773
427 567
427 677
427 597
427 835
427 836
427 841
427 879
427 435
427 975
427 696
428 664
428 581
428 586
428 847
428 876
428 503
428 574
429 526
429 851
429 654
429 769
429 554
429 716
429 711
429 943
429 928
429 571
429 760
429 953
429 777
429 468
429 794
429 482
429 785
429 827
429 757
430 523
430 581
430 586
430 660
430 767
430 799
430 851
430 876
430 440
431 445
431 908
431 764
431 671
431 702
431 776
431 824
431 809
431 778
431 985
431 863
431 691
431 954
431 434
431 640
431 735
431 938
431 930
431 745
431 898
431 823
431 447
431 946
431 527
431 631
431 497
431 632
431 647
431 907
431 536
431 949
432 563
432 783
432 815
432 874
432 435
432 950
432 975
433 713
433 513
433 559
433 874
433 435
434 623
434 464
434 481
434 677
434 702
434 726
434 827
435 672
435 641
435 491
435 644
435 827
435 559
435 783
435 841
435 872
435 879
435 874
435 467
435 480
435 781
435 975
435 569
435 594
435 483
435 621
435 796
435 950
435 474
435 967
435 555
435 655
435 903
435 898
435 481
436 515
436 570
436 838
436 882
436 635
436 643
436 797
436 743
436 962
436 454
436 509
436 527
436 687
436 639
436 559
436 836
437 819
437 675
437 554
437 489
437 997
437 700
437 706
437 710
437 740
437 782
438 849
438 911
438 541
438 551
438 561
438 577
438 615
438 666
438 687
438 734
438 792
438 865
438 956
438 507
438 653
438 589
438 878
438 966
438 443
438 693
438 801
438 678
438 904
438 495
438 957
438 944
438 485
438 656
438 449
438 997
438 595
438 833
438 593
438 964
438 992
438 585
438 647
438 798
438 844
438 675
438 547
438 484
438 910
438 604
438 915
438 572
438 999
438 933
438 448
438 705
438 890
438 441
438 862
438 943
438 908
438 620
438 539
438 716
438 544
438 843
438 946
438 611
438 520
438 622
438 757
439 526
439 529
439 532
439 539
439 612
439 664
439 775
439 870
439 499
439 970
439 659
439 633
439 892
439 645
439 562
439 453
439 740
440 934
440 522
440 628
440 685
440 694
440 876
440 450
440 462
440 972
440 592
440 986
440 958
440 851
440 524
440 719
440 833
440 496
441 638
441 494
441 530
441 560
441 576
441 648
441 848
441 858
441 900
441 914
441 562
441 627
441 453
441 606
441 540
441 602
441 991
441 836
442 519
442 522
442 523
442 660
442 736
442 772
442 799
442 855
442 876
442 545
443 852
443 532
443 775
443 551
443 561
443 577
443 615
443 792
443 865
443 449
443 784
443 608
443 547
443 585
443 693
443 734
443 593
443 996
443 945
443 666
443 910
443 705
443 933
443 888
443 966
443 484
443 997
443 572
443 825
443 964
443 579
443 542
443 656
443 904
443 956
443 495
443 925
443 968
443 675
443 507
443 653
443 604
443 589
443 944
443 687
443 678
443 798
443 957
443 595
443 844
443 915
443 609
443 838
443 735
443 986
443 721
443 688
443 771
443 851
443 509
443 651
443 803
443 921
443 665
443 640
444 943
444 533
444 540
444 580
444 625
444 668
444 936
444 713
444 487
444 753
444 727
445 730
445 884
445 779
445 797
445 838
445 860
445 601
445 686
445 643
445 547
445 714
445 509
445 477
445 980
446 534
446 558
446 599
446 730
446 739
446 795
446 932
446 883
446 751
446 638
446 814
446 522
446 497
446 594
446 875
446 463
446 988
446 507
446 711
446 969
446 490
447 522
447 957
447 968
447 913
447 978
447 826
447 697
447 702
447 726
447 782
447 809
447 949
447 954
447 471
448 519
448 682
448 541
448 551
448 572
448 577
448 615
448 687
448 734
448 792
448 865
448 619
448 671
448 730
448 495
448 610
449 529
449 870
449 462
449 551
449 577
449 593
449 608
449 666
449 678
449 833
449 865
449 878
449 495
449 507
449 696
450 882
450 661
450 592
450 660
450 676
450 799
450 834
450 851
450 855
450 852
450 462
450 833
451 615
451 521
451 533
451 828
451 625
451 981
451 491
451 631
451 692
451 938
451 469
451 843
451 604
451 487
451 753
451 763
451 610
452 643
452 518
452 529
452 532
452 611
452 659
452 684
452 842
452 870
452 767
452 857
453 732
453 530
453 692
453 560
453 578
453 644
453 658
453 817
453 848
453 858
453 835
454 703
454 838
454 643
454 686
454 700
454 720
454 509
454 629
454 516
454 779
454 459
454 515
454 955
454 494
454 570
454 546
454 797
454 804
454 588
454 665
454 819
454 675
454 554
454 950
455 581
455 514
455 709
455 469
455 740
455 540
455 689
456 515
456 797
456 552
456 838
456 860
456 601
456 882
456 700
456 509
456 522
457 514
457 554
457 928
457 706
457 714
457 469
457 817
457 839
458 532
458 547
458 582
458 671
458 702
458 726
458 771
458 778
458 529
458 791
459 516
459 779
459 797
459 552
459 838
459 643
459 699
459 719
459 509
459 970
460 902
460 737
460 540
460 591
460 636
460 669
460 722
460 757
460 845
460 990
460 642
460 967
460 641
461 870
461 560
461 817
461 848
461 858
461 965
461 606
461 746
461 742
461 545
461 521
461 980
461 872
462 530
462 619
462 695
462 772
462 799
462 855
462 876
462 522
462 954
462 776
462 773
462 836
462 502
463 534
463 558
463 623
463 739
463 852
463 932
463 730
463 703
463 846
463 795
463 599
463 473
463 843
463 721
463 973
463 614
463 657
463 741
463 607
463 868
463 988
463 747
463 870
463 611
463 927
463 556
463 587
463 824
463 648
464 847
464 968
464 769
464 616
464 654
464 706
464 488
464 571
464 740
464 613
464 620
465 575
465 529
465 532
465 611
465 842
465 911
465 564
465 518
465 525
465 528
465 681
465 823
465 985
465 996
465 477
465 817
466 664
466 495
466 582
466 677
466 691
466 726
466 949
467 559
467 774
467 806
467 835
467 874
467 859
468 595
468 559
468 569
468 621
468 836
468 837
468 841
468 757
469 532
469 660
469 769
469 571
469 554
469 777
469 616
469 710
469 489
469 654
469 762
469 598
469 607
469 999
469 833
469 520
469 510
470 735
470 770
470 954
470 640
470 702
470 669
471 581
471 520
471 545
471 582
471 954
471 809
471 787
471 776
471 989
471 726
471 886
471 671
471 549
471 753
471 783
471 747
471 802
471 678
471 713
472 541
472 524
472 617
472 862
472 913
472 650
472 839
472 912
473 534
473 566
473 623
473 730
473 739
473 741
473 932
473 725
473 988
473 759
473 981
473 764
474 519
474 560
474 796
474 872
474 950
474 967
474 814
475 522
475 550
475 622
475 630
475 636
475 669
475 696
475 864
476 729
476 870
476 533
476 584
476 580
476 712
476 713
476 487
476 753
476 931
477 527
477 532
477 537
477 544
477 609
477 611
477 651
477 870
477 499
477 493
477 529
477 911
477 922
477 917
477 707
477 892
477 596
477 525
477 772
477 496
477 740
477 559
477 669
478 842
478 918
478 559
478 621
478 774
478 815
478 872
478 967
479 526
479 529
479 532
479 611
479 830
479 842
479 870
479 912
479 518
479 609
479 684
479 822
479 641
479 849
479 899
479 892
479 927
479 651
479 917
479 552
479 522
479 783
479 813
479 572
480 842
480 561
480 513
480 559
480 835
480 836
480 879
480 512
480 973
481 820
481 524
481 670
481 862
481 743
481 617
481 791
481 939
481 492
481 881
481 543
481 821
481 650
481 857
481 919
481 673
481 642
481 871
481 665
481 907
481 785
481 978
481 995
481 574
481 754
481 923
481 800
481 687
481 649
481 702
482 775
482 790
482 828
482 699
482 713
482 612
482 487
482 753
482 794
483 559
483 783
483 806
483 835
483 836
483 707
483 954
484 577
484 593
484 615
484 865
484 792
484 856
484 495
484 507
484 791
484 848
484 867
485 551
485 561
485 572
485 705
485 792
485 865
485 878
485 992
485 784
485 655
485 602
486 524
486 543
486 642
486 670
486 909
486 913
487 611
487 577
487 533
487 890
487 698
487 713
487 789
487 982
487 540
487 620
487 501
487 531
487 580
487 625
487 521
487 699
487 538
487 952
487 631
487 948
487 969
487 936
487 828
487 712
487 733
487 568
487 504
487 491
487 998
487 801
487 946
487 961
487 517
487 762
487 742
487 987
487 904
487 902
488 529
488 707
488 903
488 548
488 554
488 706
488 913
489 688
489 529
489 499
489 514
489 554
489 616
489 710
489 740
489 879
490 687
490 559
490 621
490 836
490 837
491 581
491 972
491 533
491 625
491 713
491 952
491 540
491 963
491 735
491 728
491 794
492 730
492 932
492 855
492 865
492 524
492 639
492 642
492 670
492 673
492 535
492 967
492 519
492 618
492 770
493 529
493 532
493 563
493 583
493 612
493 651
493 684
493 775
493 822
493 842
493 954
493 622
493 831
494 575
494 921
494 838
494 643
494 700
494 714
494 882
494 979
494 509
494 663
494 567
495 541
495 561
495 577
495 579
495 593
495 595
495 615
495 656
495 693
495 705
495 734
495 737
495 792
495 865
495 957
495 997
495 647
495 784
495 825
495 968
495 944
495 910
495 687
495 542
495 572
495 996
495 933
495 589
495 608
495 904
495 666
495 678
495 956
495 675
495 585
495 749
495 507
495 551
495 604
495 628
495 518
495 563
495 777
495 529
495 575
495 961
495 590
495 812
496 541
496 615
496 598
496 763
497 634
497 519
497 624
497 632
497 682
497 738
497 748
497 761
497 902
497 505
497 784
498 797
498 838
498 860
498 643
498 955
498 714
498 509
498 779
498 894
498 692
498 688
498 954
499 819
499 529
499 532
499 539
499 611
499 664
499 842
499 564
499 631
499 512
499 642
499 848
500 534
500 575
500 599
500 638
500 730
500 739
500 741
500 795
500 852
500 932
500 563
500 630
501 703
501 635
501 503
501 936
501 713
501 733
501 753
501 763
501 689
501 963
502 603
502 622
502 630
502 636
502 669
502 696
502 722
502 831
502 859
502 864
502 565
502 727
502 618
502 571
502 558
502 586
503 802
503 843
503 988
503 530
503 581
503 619
503 660
503 680
503 694
503 772
503 799
503 847
503 855
503 958
503 866
503 586
503 973
503 669
503 963
503 713
503 670
504 865
504 533
504 828
504 580
504 936
504 698
504 524
505 519
505 549
505 624
505 632
505 661
505 682
505 708
505 819
505 902
505 994
505 786
505 701
505 961
505 873
505 679
505 508
505 941
505 688
505 755
505 667
505 567
505 732
505 901
505 645
505 731
505 741
505 659
505 515
506 664
506 559
506 783
506 806
506 815
506 837
506 872
506 950
506 865
507 561
507 577
507 678
507 737
507 865
507 957
507 992
507 589
507 693
507 551
507 595
507 542
507 749
507 769
507 842
507 664
507 733
507 704
508 519
508 549
508 567
508 632
508 661
508 682
508 708
508 738
508 748
508 961
508 761
508 934
508 901
508 873
508 930
508 749
508 979
508 631
508 799
508 876
508 524
509 515
509 838
509 860
509 895
509 643
509 714
509 779
509 552
509 634
509 719
509 601
509 686
509 875
509 635
509 516
509 629
509 546
509 720
509 797
509 979
509 816
509 743
509 829
509 558
509 870
509 678
509 524
509 809
510 539
510 524
510 559
510 622
510 669
510 696
510 722
510 727
510 757
510 807
510 864
510 747
510 831
510 929
510 814
510 630
510 550
510 690
510 832
510 565
510 572
510 838
510 600
511 755
511 742
511 799
511 855
511 649
511 687
511 712
511 664
511 956
511 953
512 843
512 723
512 972
512 744
512 619
512 586
512 866
512 587
512 853
512 781
512 522
512 523
512 581
512 736
512 799
512 851
512 855
512 876
513 861
513 577
513 809
513 836
513 783
513 931
513 978
513 559
513 621
513 874
513 967
514 843
514 708
514 760
514 836
514 734
514 650
514 550
515 894
515 714
515 719
515 779
515 516
515 838
515 797
515 955
515 643
515 635
515 882
515 629
515 720
515 775
515 960
515 615
515 687
515 563
515 895
515 686
515 700
515 979
515 732
515 693
515 726
516 686
516 601
516 634
516 894
516 719
516 519
516 797
516 838
516 895
516 979
516 954
517 763
517 949
517 993
517 794
517 669
517 727
517 703
517 622
517 636
517 690
517 696
517 831
517 864
518 566
518 564
518 974
518 987
518 573
518 896
518 803
518 842
518 526
518 528
518 529
518 532
518 535
518 609
518 651
518 664
518 684
518 775
518 870
518 992
518 670
518 576
519 988
519 552
519 645
519 567
519 786
519 708
519 994
519 761
519 732
519 941
519 738
519 902
519 873
519 549
519 667
519 624
519 679
519 887
519 632
519 804
519 926
519 755
519 934
519 901
519 661
519 819
519 977
519 723
519 701
519 688
519 672
519 813
519 973
519 807
519 765
519 851
519 773
519 903
519 682
519 748
519 896
519 744
519 541
520 534
520 589
520 865
520 985
520 824
520 954
520 756
520 823
520 776
520 949
520 938
520 998
520 792
520 647
520 635
520 582
520 671
520 726
520 728
520 778
520 559
521 732
521 712
521 713
521 568
521 698
521 580
521 969
521 826
521 931
521 533
521 625
521 699
521 753
521 670
522 739
522 680
522 924
522 853
522 587
522 588
522 956
522 891
522 554
522 530
522 581
522 586
522 660
522 685
522 694
522 799
522 851
522 861
522 561
522 691
523 905
523 676
523 866
523 984
523 684
523 969
523 961
523 638
523 581
523 586
523 626
523 694
523 772
523 799
523 855
523 551
523 768
524 852
524 748
524 851
524 580
524 923
524 766
524 639
524 907
524 871
524 785
524 919
524 574
524 940
524 642
524 881
524 939
524 650
524 978
524 862
524 670
524 743
524 880
524 857
524 909
524 673
524 617
524 662
524 995
524 821
524 913
524 986
524 956
524 701
524 739
524 989
524 733
525 564
525 664
525 544
525 651
525 556
525 707
525 830
525 602
525 553
525 738
525 529
525 539
525 583
525 611
525 641
525 911
525 647
525 616
525 771
526 908
526 544
526 641
526 918
526 600
526 684
526 842
526 611
526 596
526 899
526 609
526 889
526 664
526 528
526 850
526 897
526 951
526 965
526 527
526 529
526 532
526 564
526 870
526 911
526 640
527 643
527 731
527 600
527 535
527 889
527 553
527 532
527 563
527 897
527 573
527 695
527 755
527 797
527 528
527 529
527 611
527 664
527 684
527 842
527 870
527 908
527 857
528 869
528 759
528 842
528 793
528 912
528 539
528 529
528 532
528 553
528 596
528 664
528 707
528 775
528 652
528 815
529 731
529 684
529 896
529 908
529 537
529 532
529 912
529 564
529 641
529 897
529 803
529 822
529 563
529 889
529 583
529 842
529 793
529 951
529 573
529 602
529 917
529 974
529 553
529 850
529 970
529 681
529 664
529 707
529 596
529 659
529 987
529 927
529 899
529 775
529 870
529 556
529 633
529 922
529 717
529 911
529 849
529 535
529 919
529 579
529 719
529 566
529 826
529 634
529 985
529 916
529 980
529 600
529 611
529 711
529 936
530 623
530 742
530 958
530 649
530 986
530 694
530 799
530 587
530 874
530 581
530 680
530 851
530 855
530 861
530 876
531 763
531 982
531 568
531 714
531 663
531 533
531 625
531 699
532 612
532 651
532 803
532 850
532 899
532 889
532 717
532 917
532 659
532 609
532 535
532 927
532 596
532 987
532 922
532 544
532 951
532 820
532 908
532 759
532 793
532 974
532 830
532 970
532 537
532 681
532 563
532 896
532 822
532 633
532 911
532 897
532 724
532 684
532 573
532 564
532 842
532 664
532 707
532 641
532 553
532 892
532 818
532 595
532 680
532 787
532 869
532 883
532 886
532 720
532 611
532 870
532 577
532 576
532 814
533 657
533 789
533 981
533 733
533 625
533 936
533 763
533 692
533 620
533 568
533 540
533 631
533 699
533 982
533 890
533 712
533 764
533 580
533 668
533 698
533 753
533 713
533 538
533 554
533 618
533 723
533 617
533 802
533 949
533 760
533 828
534 638
534 921
534 655
534 614
534 566
534 575
534 932
534 802
534 703
534 721
534 739
534 751
534 729
534 795
534 877
534 657
534 623
534 884
534 868
534 869
534 813
534 843
534 818
534 973
534 883
534 599
534 558
534 838
534 986
534 726
534 989
534 549
534 661
534 697
534 577
534 730
534 852
534 988
534 588
534 622
534 727
535 786
535 759
535 556
535 684
535 960
535 729
535 564
535 611
535 651
535 842
535 911
535 876
536 932
536 683
536 814
536 929
536 630
536 752
536 643
536 622
536 669
536 696
536 722
536 757
536 831
536 832
537 601
537 761
537 553
537 544
537 611
537 775
537 842
537 911
537 784
537 778
538 730
538 682
538 876
538 789
538 952
538 620
538 625
538 668
538 540
538 733
538 785
538 727
538 713
538 753
538 817
538 872
539 632
539 724
539 717
539 659
539 870
539 850
539 896
539 633
539 974
539 820
539 987
539 822
539 842
539 889
539 553
539 912
539 547
539 982
539 544
539 611
539 641
539 651
539 684
539 832
540 572
540 928
540 952
540 712
540 692
540 605
540 580
540 713
540 753
540 782
541 611
541 904
541 734
541 966
541 615
541 653
541 833
541 551
541 844
541 693
541 964
541 542
541 577
541 593
541 705
541 878
541 783
542 703
542 738
542 653
542 693
542 604
542 925
542 585
542 844
542 678
542 589
542 996
542 615
542 894
542 694
542 561
542 656
542 705
542 749
543 921
543 978
543 907
543 881
543 880
543 995
543 940
543 909
543 642
543 754
543 939
543 837
543 698
543 574
543 670
544 664
544 974
544 922
544 850
544 564
544 970
544 602
544 775
544 573
544 951
544 917
544 563
544 987
544 545
544 812
544 671
544 925
544 600
544 611
544 612
544 842
544 899
544 649
544 874
544 727
545 868
545 560
545 848
545 863
545 726
545 809
545 839
545 696
545 657
545 727
545 780
545 778
545 949
545 998
546 797
546 895
546 875
546 860
546 700
546 570
546 779
546 987
546 838
546 714
546 719
546 561
546 836
546 841
547 795
547 790
547 992
547 798
547 615
547 968
547 978
547 561
547 572
547 593
547 687
547 705
547 734
547 865
547 878
547 627
547 770
548 869
548 988
548 777
548 554
548 710
548 740
549 738
549 819
549 708
549 804
549 682
549 687
549 691
549 566
549 632
549 723
549 748
549 998
550 797
550 643
550 588
550 615
550 858
550 622
550 829
550 758
550 696
550 807
550 864
550 845
550 832
550 929
550 959
550 603
550 630
550 683
550 727
550 757
550 567
550 725
550 636
550 669
550 831
550 859
551 679
551 611
551 933
551 865
551 992
551 675
551 693
551 996
551 888
551 678
551 904
551 572
551 604
551 705
551 653
551 577
551 910
551 801
551 579
551 957
551 968
551 844
551 593
551 561
551 964
551 615
551 906
551 647
551 792
551 833
551 966
551 666
551 925
551 878
551 784
551 782
551 692
551 929
551 769
551 595
551 737
552 657
552 797
552 643
552 882
552 895
552 779
552 570
552 719
552 601
552 672
552 700
552 714
552 878
552 677
553 894
553 641
553 793
553 731
553 842
553 684
553 833
553 931
553 576
553 845
553 872
553 564
553 609
553 633
553 717
553 870
553 878
553 815
553 683
554 777
554 605
554 760
554 634
554 557
554 598
554 616
554 953
554 710
554 646
555 869
555 769
555 616
555 598
555 943
555 605
555 710
555 917
555 557
555 953
556 755
556 819
556 917
556 611
556 759
556 774
556 684
556 775
556 842
556 913
556 841
557 706
557 943
557 932
557 598
557 971
557 740
558 741
558 921
558 877
558 702
558 765
558 575
558 657
558 730
558 739
558 852
558 868
558 932
558 988
558 799
558 565
559 852
559 597
559 781
559 993
559 594
559 815
559 774
559 950
559 569
559 836
559 942
559 810
559 806
559 872
559 796
559 975
559 783
559 780
559 800
559 879
559 660
559 563
559 897
559 745
559 712
559 621
559 837
559 758
560 693
560 718
560 963
560 937
560 788
560 750
560 891
560 962
560 578
560 674
560 591
560 689
560 646
560 648
560 980
560 914
560 947
560 812
560 576
560 920
560 644
560 627
560 715
560 663
560 900
560 746
560 817
560 606
560 960
560 610
560 867
560 658
560 563
560 687
560 985
560 873
560 564
560 800
560 805
560 848
560 858
560 965
561 869
561 772
561 604
561 792
561 945
561 675
561 784
561 734
561 999
561 878
561 996
561 925
561 589
561 933
561 653
561 906
561 888
561 957
561 844
561 593
561 915
561 585
561 992
561 904
561 705
561 833
561 801
561 824
561 815
561 726
561 931
561 794
561 696
561 954
561 577
561 579
561 608
561 615
561 647
561 737
561 865
561 673
562 733
562 867
562 920
562 606
562 576
562 718
562 954
562 648
562 689
562 858
562 965
562 980
563 632
563 918
563 611
563 911
563 822
563 819
563 564
563 583
563 600
563 641
563 651
563 717
563 842
563 847
563 851
563 949
564 721
564 600
564 918
564 892
564 641
564 912
564 820
564 896
564 951
564 581
564 594
564 833
564 573
564 611
564 612
564 633
564 651
564 842
564 899
564 749
564 782
564 814
564 831
565 660
565 713
565 940
565 832
565 722
565 630
565 958
565 622
565 636
565 669
565 696
565 727
565 757
565 829
565 864
566 795
566 655
566 645
566 623
566 730
566 739
566 813
566 852
566 988
566 997
566 848
567 714
567 941
567 761
567 682
567 961
567 672
567 804
567 873
567 977
567 679
567 994
567 926
567 755
567 624
567 674
567 989
567 641
567 630
567 632
567 708
567 656
567 582
568 601
568 830
568 737
568 580
568 698
568 713
568 753
568 836
568 636
569 911
569 593
569 662
569 874
569 796
569 879
569 841
569 621
569 823
569 842
569 815
569 835
570 779
570 838
570 895
570 643
570 700
570 714
570 726
571 865
571 605
571 740
571 760
571 583
571 866
571 616
571 788
571 980
572 910
572 593
572 687
572 749
572 666
572 933
572 968
572 589
572 579
572 904
572 906
572 801
572 957
572 608
572 798
572 734
572 996
572 997
572 865
572 595
572 737
572 656
572 784
572 667
572 859
572 695
572 723
572 615
572 705
572 878
572 949
573 883
573 982
573 717
573 842
573 870
573 911
573 855
574 670
574 662
574 881
574 673
574 913
574 995
574 998
574 617
574 785
574 862
574 909
574 648
575 657
575 741
575 813
575 973
575 751
575 721
575 795
575 988
575 843
575 729
575 877
575 655
575 607
575 818
575 638
575 703
575 613
575 901
575 634
575 715
575 879
575 608
575 918
575 674
575 599
575 614
575 852
575 932
576 934
576 972
576 620
576 713
576 750
576 715
576 914
576 788
576 962
576 718
576 960
576 652
576 896
576 817
576 858
577 729
577 903
577 653
577 798
577 968
577 996
577 945
577 992
577 825
577 904
577 647
577 957
577 604
577 693
577 956
577 792
577 933
577 999
577 801
577 608
577 910
577 878
577 833
577 593
577 820
577 954
577 735
577 589
577 595
577 656
577 666
577 675
577 737
577 865
577 828
578 591
578 900
578 891
578 610
578 963
578 817
578 613
578 657
578 697
578 658
578 689
578 812
578 848
578 965
578 980
578 735
578 757
579 910
579 996
579 833
579 585
579 734
579 705
579 589
579 945
579 906
579 999
579 678
579 629
579 615
579 666
579 687
579 693
579 792
579 878
579 997
579 867
579 829
580 748
580 626
580 828
580 753
580 764
580 969
580 631
580 713
580 982
580 654
580 756
580 849
580 625
580 699
580 712
580 733
580 763
580 837
581 588
581 736
581 855
581 866
581 744
581 790
581 984
581 986
581 695
581 972
581 885
581 680
581 592
581 676
581 799
581 626
581 685
581 903
581 649
581 853
581 742
581 948
581 692
581 883
581 694
581 872
581 690
582 612
582 799
582 851
582 990
582 702
582 863
582 671
582 697
582 886
582 776
582 827
582 898
582 691
582 773
582 704
582 728
582 938
582 989
582 745
582 787
582 778
582 824
582 809
582 768
582 756
582 930
582 742
582 997
582 674
582 811
582 978
582 993
582 942
582 640
582 726
582 770
582 771
582 949
582 832
583 731
583 911
583 822
583 609
583 834
583 664
583 775
583 842
583 908
583 864
584 593
584 828
584 936
584 948
584 777
584 780
584 625
584 712
584 763
584 976
585 624
585 887
585 705
585 647
585 919
585 593
585 615
585 656
585 693
586 955
586 866
586 853
586 799
586 694
586 736
586 619
586 685
586 742
586 772
586 851
586 855
586 876
587 664
587 685
587 914
587 646
587 764
587 874
587 649
587 855
587 876
587 865
588 628
588 765
588 885
588 847
588 986
588 985
588 660
588 851
588 763
589 958
589 996
589 722
589 593
589 615
589 693
589 865
589 950
590 599
590 961
590 740
590 844
590 752
590 616
590 706
590 848
591 751
591 689
591 674
591 980
591 950
591 648
591 817
591 848
591 965
592 984
592 660
592 790
592 687
592 744
592 799
592 834
592 855
592 876
592 621
592 872
593 795
593 961
593 870
593 647
593 687
593 945
593 904
593 996
593 653
593 999
593 888
593 705
593 957
593 737
593 792
593 678
593 944
593 604
593 933
593 608
593 825
593 878
593 801
593 844
593 833
593 693
593 914
593 620
593 718
593 918
593 848
593 709
593 725
593 995
593 656
593 675
593 784
593 639
593 817
594 623
594 783
594 856
594 874
594 993
595 742
595 944
595 992
595 996
595 792
595 604
595 737
595 945
595 734
595 910
595 933
595 768
595 895
595 615
595 675
595 678
595 865
595 878
595 957
595 817
596 951
596 970
596 917
596 945
596 611
596 612
596 641
596 681
596 793
596 842
596 911
596 958
596 735
597 836
597 622
598 838
598 706
598 605
598 740
598 928
598 769
598 836
598 858
599 795
599 869
599 802
599 751
599 843
599 883
599 932
599 638
599 818
599 655
599 811
599 679
599 635
599 626
599 823
599 607
599 623
599 657
599 739
599 813
599 852
599 868
599 734
600 609
600 899
600 849
600 717
600 918
600 898
600 928
600 650
600 651
600 788
601 838
601 860
601 700
601 629
601 979
601 894
601 927
602 918
602 870
602 738
602 968
602 611
602 684
602 842
602 911
603 700
603 708
603 758
603 874
603 716
603 630
603 636
603 696
603 722
603 829
604 934
604 895
604 954
604 615
604 647
604 705
604 734
604 737
604 865
604 878
604 967
605 777
605 709
605 699
605 989
605 616
606 684
606 705
606 788
606 934
606 644
606 674
606 746
606 848
606 726
607 729
607 838
607 703
607 730
607 739
607 795
607 852
607 932
607 988
608 932
608 661
608 784
608 964
608 650
608 799
608 663
608 615
608 734
608 878
608 992
608 997
608 980
608 814
609 970
609 987
609 951
609 766
609 966
609 611
609 641
609 684
609 870
609 653
609 728
609 949
609 837
610 684
610 900
610 613
610 718
610 652
610 648
610 867
610 918
610 627
610 689
610 715
610 817
610 848
610 858
610 965
610 980
610 950
611 657
611 870
611 820
611 897
611 803
611 917
611 659
611 849
611 822
611 759
611 987
611 651
611 842
611 724
611 641
611 974
611 896
611 850
611 922
611 664
611 735
611 749
611 884
611 904
611 617
611 853
611 914
611 707
611 775
611 911
612 633
612 842
612 987
612 908
612 897
612 651
612 681
612 684
612 775
612 870
612 911
612 878
612 740
612 771
613 913
613 648
613 689
613 817
613 848
613 867
613 965
614 846
614 623
614 850
614 747
614 657
614 730
614 739
614 852
614 932
614 855
614 666
615 892
615 945
615 957
615 825
615 798
615 693
615 906
615 675
615 997
615 968
615 966
615 878
615 956
615 996
615 888
615 734
615 705
615 933
615 647
615 784
615 737
615 910
615 833
615 666
615 904
615 999
615 678
615 724
615 650
615 766
615 760
615 721
615 789
615 923
615 749
615 648
615 669
616 623
616 792
616 769
616 711
616 716
616 706
616 762
616 971
616 928
616 709
616 760
616 777
616 654
616 692
616 881
616 801
616 784
616 740
616 768
617 818
617 838
617 748
617 717
617 909
617 785
617 821
617 650
617 923
617 978
617 880
617 871
617 642
617 634
617 680
617 639
617 670
617 754
617 913
618 741
618 795
618 870
618 989
618 622
618 630
618 636
618 696
618 727
618 757
618 829
618 832
618 864
619 741
619 855
619 736
619 725
619 853
619 876
619 816
619 902
619 639
619 799
619 851
619 734
619 957
619 713
619 636
620 876
620 792
620 865
620 789
620 713
621 741
621 873
621 922
621 673
621 872
621 942
621 893
621 841
621 950
621 815
621 776
621 809
621 721
621 836
621 975
622 858
622 758
622 929
622 690
622 959
622 636
622 831
622 747
622 722
622 854
622 794
622 696
622 829
622 752
622 725
622 705
622 856
622 675
622 832
622 864
623 721
623 846
623 703
623 877
623 751
623 921
623 869
623 813
623 884
623 655
623 730
623 811
623 852
623 868
623 796
623 928
623 924
623 739
623 795
623 932
623 988
624 941
624 723
624 786
624 819
624 804
624 679
624 708
624 894
624 868
624 956
624 632
624 738
624 748
624 887
624 994
624 836
625 708
625 855
625 763
625 952
625 712
625 828
625 794
625 713
626 994
626 986
626 853
626 660
626 680
626 847
626 851
626 855
626 876
626 673
626 640
626 949
627 795
627 812
627 748
627 966
627 648
627 689
627 817
627 848
627 867
627 920
628 739
628 847
628 799
628 772
628 639
628 629
628 736
628 851
629 797
629 894
629 634
629 643
629 714
629 903
629 737
629 769
629 867
630 676
630 678
630 829
630 683
630 864
630 854
630 727
630 637
630 959
630 859
630 845
630 752
630 757
630 696
630 723
630 779
630 780
630 644
630 648
630 636
630 669
631 680
631 699
631 969
631 713
631 981
631 913
632 813
632 732
632 723
632 902
632 701
632 873
632 804
632 738
632 994
632 679
632 887
632 672
632 645
632 934
632 748
632 977
632 926
632 661
632 991
632 667
632 786
632 761
632 633
632 726
632 730
632 967
632 729
632 923
632 682
632 708
632 755
632 941
632 789
632 978
633 970
633 934
633 662
633 775
633 870
633 911
633 948
633 658
634 797
634 838
634 875
634 894
634 643
634 955
634 714
634 979
634 941
635 797
635 838
635 882
635 979
635 857
635 861
635 895
635 714
636 814
636 832
636 752
636 690
636 845
636 669
636 722
636 637
636 854
636 864
636 727
636 929
636 757
636 683
636 935
636 829
636 696
636 758
636 794
636 831
636 767
636 927
636 640
636 711
636 852
636 771
636 705
637 651
637 753
637 835
637 794
637 727
637 769
637 922
637 657
637 669
637 696
637 722
637 757
637 814
637 829
637 831
638 739
638 725
638 730
638 741
638 795
638 802
638 818
638 852
638 988
638 836
638 950
639 791
639 821
639 857
639 913
639 881
639 978
639 673
639 995
639 871
639 662
639 693
639 642
639 665
639 670
639 862
640 795
640 934
640 685
640 984
640 968
640 782
640 998
640 930
640 809
640 756
640 989
640 946
640 770
640 726
640 671
640 776
640 773
640 702
640 823
640 954
640 824
640 704
640 697
640 805
640 677
640 894
640 660
640 822
640 949
641 802
641 731
641 820
641 849
641 918
641 717
641 908
641 897
641 978
641 716
641 775
641 842
642 724
642 821
642 670
642 907
642 650
642 978
642 673
642 662
642 766
642 685
642 675
642 795
642 954
642 806
642 665
642 862
642 836
642 727
643 838
643 860
643 875
643 686
643 895
643 979
643 775
643 729
643 749
643 924
643 714
643 719
643 969
643 954
644 698
644 663
644 980
644 937
644 826
644 689
644 848
644 718
644 976
644 900
644 699
644 802
644 744
644 780
644 769
644 817
644 858
644 920
644 965
645 730
645 732
645 708
645 873
645 755
645 682
645 748
645 819
645 782
646 852
646 858
646 914
646 689
646 663
646 817
646 848
646 920
646 965
647 933
647 906
647 687
647 825
647 945
647 925
647 737
647 784
647 718
647 754
647 820
647 734
647 865
647 878
647 836
647 829
648 748
648 731
648 848
648 962
648 960
648 980
648 858
648 689
648 674
648 826
648 788
648 663
648 920
648 652
648 843
648 694
648 817
648 965
649 695
649 834
649 861
649 868
649 660
649 680
649 851
649 855
649 876
649 670
649 771
650 667
650 809
650 793
650 784
650 670
650 673
650 862
651 850
651 892
651 912
651 759
651 717
651 970
651 951
651 731
651 820
651 889
651 681
651 718
651 761
651 824
651 973
651 775
651 842
651 870
651 978
651 835
651 836
652 682
652 817
652 848
652 963
652 965
652 980
653 687
653 933
653 955
653 678
653 734
653 878
653 957
653 992
654 769
654 711
654 954
655 739
655 741
655 852
655 921
655 988
656 748
656 934
656 870
656 944
656 705
656 678
656 906
656 737
656 758
656 740
656 693
656 792
656 878
656 957
657 852
657 739
657 741
657 729
657 795
657 932
657 988
657 723
657 803
658 739
658 953
658 812
658 914
658 788
658 750
658 947
658 689
658 960
658 817
658 965
659 892
659 908
659 802
659 664
659 842
659 870
659 911
659 832
660 680
660 924
660 861
660 736
660 744
660 765
660 816
660 676
660 674
660 839
660 783
660 799
660 851
660 855
661 994
661 688
661 783
661 672
661 682
661 701
661 708
661 748
661 755
661 819
661 805
662 670
662 954
663 992
663 997
663 943
663 862
663 937
663 998
663 706
663 746
663 817
663 848
663 858
663 920
663 965
664 889
664 870
664 922
664 850
664 951
664 717
664 899
664 724
664 917
664 822
664 842
664 830
664 987
664 684
664 775
664 716
664 780
665 743
665 907
665 909
665 754
665 670
665 857
665 806
665 914
665 811
665 738
665 978
665 841
666 734
666 801
666 933
666 997
666 705
666 675
666 687
666 865
666 878
666 957
666 874
667 932
667 761
667 679
667 708
667 688
667 732
667 738
667 748
667 755
667 934
667 994
667 972
667 670
667 949
667 807
668 709
668 803
668 699
668 969
669 695
669 788
669 696
669 864
669 814
669 752
669 832
669 831
669 758
669 959
669 829
669 747
669 859
669 854
669 956
669 733
669 757
670 765
670 919
670 821
670 907
670 754
670 913
670 939
670 880
670 923
670 673
670 978
670 995
670 791
670 743
670 909
670 785
670 766
670 871
670 862
670 940
670 681
670 672
670 835
671 870
671 848
671 898
671 989
671 949
671 745
671 865
671 815
671 702
671 726
671 782
671 839
671 696
672 739
672 965
672 682
672 708
672 748
672 819
672 934
672 994
672 685
672 905
672 706
673 899
673 693
673 939
674 826
674 854
674 878
674 848
674 783
674 967
675 895
675 933
675 784
675 906
675 692
675 711
675 687
675 734
675 957
675 954
676 751
676 742
676 753
676 806
676 769
676 694
676 855
676 861
676 858
676 810
676 757
677 999
677 746
677 976
677 770
677 778
677 809
677 827
677 691
677 823
677 726
677 782
677 702
677 922
677 797
677 919
677 949
677 954
677 998
677 993
678 945
678 888
678 997
678 734
678 878
678 721
678 687
678 792
678 865
678 957
678 968
678 992
678 881
678 726
679 932
679 682
679 708
679 732
679 748
679 755
679 786
679 819
679 934
679 994
679 918
680 911
680 853
680 847
680 742
680 851
680 694
680 958
680 876
680 792
680 943
680 799
680 855
681 917
681 724
681 970
681 918
681 959
681 793
681 830
681 842
681 911
681 950
682 795
682 714
682 991
682 941
682 804
682 688
682 755
682 701
682 887
682 934
682 819
682 723
682 873
682 786
682 977
682 738
682 761
682 902
682 732
682 708
682 994
682 901
682 961
682 987
682 897
682 904
682 956
682 936
682 840
682 894
682 958
682 748
682 858
683 753
683 702
683 752
683 845
683 839
683 696
683 722
683 757
683 829
684 793
684 987
684 803
684 974
684 849
684 897
684 911
684 717
684 951
684 724
684 870
684 725
684 750
684 999
684 800
684 767
684 834
684 865
685 730
685 736
685 799
685 847
685 851
685 855
685 881
685 965
686 797
686 838
686 860
686 895
686 745
686 911
687 724
687 844
687 798
687 925
687 933
687 878
687 992
687 693
687 945
687 999
687 997
687 906
687 957
687 910
687 956
687 839
687 739
687 908
687 767
687 907
687 824
687 796
688 804
688 732
688 760
688 875
688 708
688 723
688 819
688 749
689 795
689 965
689 817
689 963
689 718
689 715
689 858
689 750
689 980
689 891
689 834
689 826
689 848
689 920
690 865
690 854
690 722
690 919
690 696
690 757
690 814
690 829
690 831
690 864
691 743
691 756
691 954
691 728
691 946
691 771
691 702
691 735
691 726
691 814
691 745
691 778
691 949
691 774
692 699
692 712
692 969
692 713
692 733
692 848
693 852
693 819
693 775
693 956
693 865
693 968
693 966
693 784
693 844
693 996
693 933
693 801
693 910
693 707
693 705
693 817
694 719
694 695
694 767
694 950
694 859
694 888
694 772
694 851
694 855
694 876
694 805
695 853
695 866
695 725
695 840
695 799
695 855
695 777
695 785
696 702
696 807
696 935
696 959
696 757
696 832
696 854
696 722
696 727
696 747
696 929
696 758
696 864
696 859
696 752
696 783
696 768
696 948
696 931
696 906
697 943
697 936
697 782
697 954
697 938
697 756
697 702
697 814
697 982
697 726
697 839
697 949
698 936
698 764
698 712
698 897
698 736
698 713
698 733
698 763
699 969
699 753
699 763
699 733
699 936
699 764
699 739
699 946
699 926
699 712
699 965
700 779
700 838
700 882
700 894
700 719
700 797
700 714
700 895
700 875
700 859
700 844
700 933
700 827
700 830
701 902
701 819
701 804
701 926
701 987
701 803
701 708
701 732
701 748
701 862
701 807
702 808
702 954
702 938
702 946
702 823
702 773
702 827
702 824
702 805
702 839
702 985
702 898
702 704
702 763
702 878
702 920
702 724
702 747
702 726
703 869
703 868
703 751
703 730
703 739
703 795
703 932
703 988
703 819
703 919
703 726
703 840
704 989
704 898
704 730
704 726
704 827
704 949
705 741
705 861
705 801
705 925
705 936
705 965
705 898
705 750
705 865
705 878
705 957
705 992
705 997
706 709
706 803
707 917
707 965
707 842
707 870
707 911
707 918
707 737
707 957
707 733
707 967
708 804
708 761
708 902
708 961
708 732
708 934
708 819
708 926
708 786
708 873
708 977
708 991
708 887
708 723
708 748
708 755
708 738
708 941
708 787
708 828
708 808
708 849
708 953
708 831
709 943
709 715
709 977
709 858
710 953
710 711
711 921
711 769
712 936
712 753
712 764
712 969
712 967
712 713
712 733
712 763
712 949
713 876
713 969
713 890
713 952
713 936
713 789
713 948
713 753
713 981
713 989
713 759
713 862
714 797
714 838
714 895
714 955
714 875
714 719
714 882
714 860
714 933
714 787
714 928
714 901
714 979
714 775
715 788
715 853
715 841
715 972
715 958
715 817
715 848
715 858
715 965
715 976
715 726
716 955
716 902
716 943
716 740
717 917
717 724
717 870
717 788
717 851
717 775
717 842
718 926
718 788
718 817
718 848
718 858
718 965
719 797
719 838
719 955
719 780
719 867
719 727
720 869
720 838
720 882
720 895
720 967
721 868
721 795
721 852
721 869
721 932
721 988
721 772
721 909
722 807
722 727
722 829
722 757
722 758
722 845
722 832
722 814
722 929
722 959
722 752
722 859
722 864
722 984
722 739
722 792
722 963
723 887
723 873
723 926
723 901
723 732
723 748
723 786
723 819
723 861
724 775
724 842
724 870
724 911
725 744
725 861
725 818
725 906
725 799
725 851
726 865
726 936
726 938
726 886
726 778
726 787
726 998
726 827
726 782
726 863
726 990
726 989
726 756
726 735
726 805
726 823
726 771
726 773
726 839
726 808
726 930
726 954
726 776
726 770
726 915
726 794
726 878
726 760
726 857
726 801
726 949
727 854
727 814
727 757
727 829
728 778
728 771
728 886
728 808
728 839
728 949
728 954
729 811
729 739
729 795
729 730
729 852
729 869
729 932
730 751
730 813
730 741
730 921
730 739
730 846
730 795
730 883
730 988
730 802
730 884
730 869
730 932
730 843
730 852
730 973
730 811
730 877
730 818
730 755
730 876
730 917
730 817
730 992
730 826
730 878
731 887
731 970
731 775
731 897
731 819
731 817
731 849
731 870
731 908
731 918
731 753
732 819
732 977
732 755
732 738
732 837
733 833
733 789
733 969
733 982
733 981
733 952
733 804
734 956
734 910
734 801
734 997
734 933
734 992
734 906
734 904
734 829
734 975
734 784
734 792
734 865
734 878
734 957
734 841
735 819
735 949
735 757
736 866
736 739
736 852
737 904
737 792
737 844
737 888
737 878
737 915
737 957
737 848
738 932
738 926
738 804
738 887
738 786
738 873
738 773
738 875
738 764
738 748
738 819
738 934
738 941
739 884
739 811
739 883
739 852
739 869
739 877
739 741
739 846
739 802
739 813
739 921
739 988
739 752
739 785
739 966
739 920
739 795
739 932
739 748
739 992
740 818
740 971
740 760
740 928
740 777
740 968
740 860
740 794
741 988
741 868
741 923
741 813
741 932
741 895
741 793
741 790
741 947
742 803
742 822
742 866
742 770
742 915
742 799
742 847
742 851
742 836
742 967
743 907
743 862
744 799
744 984
744 755
744 834
744 851
744 878
744 874
745 936
745 830
745 945
745 924
745 949
745 954
746 896
746 848
746 858
746 808
746 889
746 817
746 920
746 965
746 980
746 949
747 920
747 757
747 814
747 829
748 934
748 761
748 902
748 804
748 819
748 786
748 994
748 991
748 977
748 941
748 873
748 842
748 780
748 859
748 954
749 887
749 799
749 906
749 825
749 880
749 792
749 865
749 878
749 957
750 847
750 817
750 965
750 980
751 795
751 852
751 988
752 911
752 757
752 814
752 829
752 864
753 936
753 981
753 948
753 764
753 890
753 952
753 982
753 828
753 878
753 762
754 881
754 862
754 950
755 977
755 953
755 987
755 895
755 819
755 934
755 911
755 981
756 981
756 817
756 805
756 949
756 998
757 927
757 957
757 931
757 829
757 864
757 831
757 929
757 807
757 845
757 814
757 937
758 829
758 831
758 832
759 821
759 775
759 842
759 870
759 911
759 957
760 777
761 852
761 961
761 940
761 769
761 819
761 994
762 979
762 769
762 828
762 874
763 988
763 838
763 890
763 981
763 828
763 969
763 963
763 776
763 835
764 969
764 882
765 870
765 936
765 772
765 851
766 995
766 941
766 882
766 913
767 852
767 799
767 834
767 851
768 868
768 876
768 782
768 778
768 949
768 954
769 971
769 840
769 846
769 928
769 953
770 920
770 839
770 949
770 850
770 998
771 990
771 863
771 788
772 838
772 853
772 799
772 855
773 994
773 805
773 949
773 954
774 998
774 942
774 872
774 874
774 967
775 912
775 899
775 892
775 922
775 889
775 917
775 974
775 830
775 824
775 842
776 932
776 992
776 949
776 954
776 975
777 980
777 943
777 807
778 787
778 886
778 998
778 782
778 874
778 854
778 799
778 909
778 809
778 949
778 806
779 875
779 838
779 895
779 880
779 797
779 894
779 979
780 942
780 967
780 810
780 835
780 836
780 841
781 902
781 916
781 815
781 836
781 841
781 874
781 975
782 808
782 863
782 929
782 805
783 796
783 874
783 950
783 993
783 810
783 942
783 983
783 801
783 835
783 836
784 945
784 910
784 906
784 792
784 878
784 957
784 965
785 919
786 813
786 941
786 982
786 819
786 934
786 961
786 822
787 793
787 949
787 954
788 932
788 819
788 812
788 960
788 875
788 848
788 920
788 965
789 895
789 969
789 828
789 882
789 840
790 799
790 851
790 855
790 878
790 993
791 862
791 919
792 910
792 798
792 801
792 825
792 925
792 833
792 865
792 999
792 933
792 906
792 937
792 953
792 886
792 988
792 867
792 854
792 878
793 842
793 870
793 911
794 895
794 831
795 973
795 852
795 877
795 988
795 884
795 883
795 818
795 921
795 868
795 813
795 843
795 811
795 802
795 932
795 846
795 869
795 890
795 915
795 894
795 954
795 854
795 971
795 832
796 836
796 835
796 841
796 874
796 879
796 967
797 979
797 875
797 882
797 968
797 838
798 992
798 999
798 915
798 954
798 878
799 955
799 885
799 853
799 958
799 855
799 866
799 834
799 903
799 876
799 905
799 847
799 891
799 863
799 956
799 860
799 851
799 864
800 843
800 970
800 957
800 959
800 815
801 992
801 906
801 947
801 865
801 878
801 957
801 856
802 818
802 973
802 932
802 988
803 898
803 842
803 851
803 944
804 894
804 819
804 934
804 958
805 809
805 998
805 990
805 989
805 940
805 954
806 949
806 835
806 874
806 879
808 999
808 839
808 949
808 998
808 950
809 898
809 839
809 844
809 975
809 949
809 954
810 963
810 916
810 983
810 841
810 816
810 836
810 874
810 879
811 813
811 843
811 852
811 988
812 962
812 848
812 920
812 965
812 976
813 818
813 852
813 921
813 932
813 988
813 851
813 909
814 827
814 832
814 980
814 848
814 831
814 864
815 888
815 916
815 899
815 914
815 835
815 874
815 950
816 851
816 876
816 878
817 934
817 848
817 920
817 937
817 891
817 947
817 960
817 980
817 826
817 867
817 858
818 988
818 852
818 869
819 934
819 961
819 887
819 902
819 994
819 831
819 878
820 905
820 842
820 870
820 858
821 862
821 881
821 863
822 842
822 859
823 949
824 949
824 954
825 957
825 874
826 945
826 848
826 920
826 963
826 965
826 980
827 906
827 860
827 954
828 969
829 845
829 854
829 833
829 832
829 864
830 951
830 917
830 842
830 954
831 838
831 957
831 832
831 859
831 976
831 911
831 864
832 854
832 910
832 859
832 864
833 966
833 925
833 906
833 941
833 865
833 878
833 839
834 861
834 853
834 855
834 890
834 935
834 847
834 851
834 876
834 954
835 950
835 836
835 840
835 967
835 952
835 872
835 874
835 975
836 841
836 975
836 856
836 874
836 931
836 942
836 850
836 872
836 864
837 860
837 997
837 919
837 976
837 983
837 967
837 893
837 841
837 950
837 975
838 894
838 895
838 979
838 875
838 955
838 860
838 896
838 935
839 949
839 989
839 863
839 954
840 872
841 872
841 931
841 967
841 927
841 879
841 975
842 850
842 974
842 892
842 896
842 927
842 908
842 889
842 987
842 918
842 911
842 917
842 899
842 870
842 922
842 970
842 898
842 871
842 962
842 966
842 921
842 942
843 852
843 988
843 932
844 865
844 957
844 874
845 852
845 999
845 859
845 864
846 852
846 932
846 988
847 984
848 960
848 900
848 920
848 914
848 937
848 947
848 891
848 965
848 980
848 963
848 962
848 922
848 983
849 870
850 911
851 903
851 905
851 853
851 972
851 986
851 885
851 861
851 855
851 866
851 967
852 884
852 877
852 869
852 973
852 988
852 883
852 921
852 932
852 964
852 916
852 926
852 878
852 992
854 864
855 876
855 972
855 986
855 903
855 885
855 861
855 924
855 971
856 984
856 872
856 967
858 970
858 962
858 980
858 963
858 867
858 914
858 900
858 947
858 920
859 933
860 884
860 883
860 894
861 932
861 876
861 978
861 879
862 978
862 871
862 980
863 949
863 954
864 935
864 959
864 949
864 932
865 944
865 904
865 878
865 956
865 964
865 999
865 996
865 957
865 997
865 992
865 945
865 949
865 961
865 886
865 940
865 998
866 876
867 988
867 953
867 900
867 886
867 965
867 980
867 949
868 932
868 988
869 877
869 924
869 921
869 932
869 988
870 988
870 974
870 899
870 922
870 908
870 897
870 889
870 917
870 896
870 911
870 970
870 892
870 927
870 991
870 990
871 909
871 913
872 997
872 893
872 975
872 879
872 903
872 962
872 874
873 949
874 903
874 909
874 916
874 893
874 975
874 983
874 931
874 879
874 993
874 942
874 891
875 957
876 903
876 885
876 972
876 958
876 905
876 882
877 932
877 988
878 925
878 966
878 945
878 992
878 957
878 997
878 904
878 915
878 910
878 964
878 989
878 882
878 982
879 915
879 942
879 887
879 987
879 950
879 967
881 950
882 928
882 894
882 895
882 961
883 921
883 988
883 965
884 988
885 918
885 972
886 949
887 926
887 934
887 941
887 919
888 965
889 911
890 899
891 965
891 980
893 975
894 988
894 909
895 955
897 911
898 949
899 911
900 936
900 965
901 988
901 972
902 941
902 926
902 991
902 961
904 997
905 950
906 957
906 999
908 912
908 982
908 954
909 919
909 940
909 939
909 965
911 927
911 922
911 951
911 996
911 957
911 949
912 918
912 922
912 915
913 923
913 940
913 949
914 988
915 933
915 997
920 963
920 976
920 937
920 962
920 927
920 965
921 988
922 976
923 979
926 934
929 941
930 988
930 954
931 933
932 988
932 973
932 974
932 962
933 957
934 991
934 994
934 941
934 977
934 961
935 936
936 948
936 982
936 969
937 965
938 949
938 954
940 986
940 978
940 949
941 994
944 963
946 949
946 954
947 965
948 957
948 953
949 999
949 990
949 985
949 989
949 954
949 992
950 967
950 975
954 985
954 998
954 991
954 988
956 957
956 997
957 999
957 997
957 964
957 966
957 968
957 996
957 992
957 994
957 980
960 965
961 991
961 971
962 988
962 965
965 976
965 980
968 984
968 992
969 982
973 988
975 993
975 996
975 980
976 998
979 988
991 994
