0 612
0 545
0 360
0 739
0 975
0 419
0 806
0 938
0 376
0 788
0 322
0 457
0 277
0 635
0 40
0 558
0 85
0 629
0 151
0 698
0 735
0 738
0 754
0 800
0 293
0 820
0 354
0 877
0 919
0 413
0 289
0 308
0 515
1 519
1 169
1 181
1 863
1 161
1 21
1 985
1 139
1 409
1 540
1 784
1 692
1 924
1 189
1 274
1 929
1 159
1 66
1 498
1 76
1 299
1 434
1 811
1 627
1 337
1 907
1 292
1 86
1 547
1 644
1 894
1 727
1 426
2 563
2 530
2 232
2 69
2 89
2 832
2 593
2 622
2 533
2 857
2 388
2 724
2 331
2 287
2 424
2 431
2 41
2 16
2 488
2 341
2 434
2 329
2 520
2 620
2 310
2 377
2 197
2 507
2 923
2 535
2 528
2 577
2 497
2 44
2 907
2 245
2 426
2 282
2 378
2 905
2 777
2 821
2 783
2 384
2 492
2 237
2 839
2 587
2 651
2 992
2 33
2 567
2 618
2 107
2 215
2 109
2 588
2 543
2 325
2 969
2 589
2 387
2 509
2 536
2 64
2 727
2 223
2 234
2 755
2 756
2 813
2 824
2 371
2 386
2 933
2 73
3 771
3 70
3 996
3 576
3 602
3 147
3 446
3 68
3 269
3 421
3 999
3 484
3 519
3 266
3 530
3 307
3 62
3 193
3 464
3 721
3 98
3 7
4 411
4 264
4 786
4 712
4 752
4 410
4 228
4 154
4 668
4 914
4 850
4 193
4 6
4 143
4 804
4 834
4 609
4 777
5 945
5 543
5 433
5 717
5 676
5 754
5 497
5 303
5 686
5 823
5 215
5 249
5 818
5 295
5 320
5 51
5 330
5 986
5 564
5 73
5 595
5 932
5 730
6 149
6 838
6 752
6 582
6 995
6 76
6 721
6 738
6 304
6 636
6 609
6 403
6 651
6 243
6 143
6 103
6 317
6 548
6 51
6 357
6 893
6 482
6 236
6 112
6 55
6 680
6 185
6 693
6 16
6 645
6 619
6 940
6 203
6 89
6 227
6 932
6 790
6 670
6 834
7 761
7 82
7 229
7 942
7 581
7 46
7 160
7 754
7 800
7 770
7 552
7 793
7 747
7 296
7 8
7 327
7 930
7 648
7 564
7 208
8 505
8 169
8 368
8 90
8 627
8 967
8 49
8 963
8 263
8 122
8 448
8 27
8 522
8 19
8 26
8 29
8 555
8 592
8 229
8 814
8 850
8 342
8 369
8 886
8 949
8 454
8 457
8 465
8 995
8 495
8 501
8 406
8 85
9 364
9 229
9 342
9 244
9 398
9 521
9 476
9 150
9 766
9 812
9 332
9 130
9 574
9 221
9 620
10 589
10 695
10 810
10 452
10 973
10 277
10 988
10 312
10 301
10 782
10 672
10 458
10 165
10 594
10 964
10 17
10 370
10 667
10 190
10 864
10 941
10 578
10 119
10 183
10 323
10 168
10 599
10 451
10 702
10 533
10 160
10 828
10 916
10 385
10 634
10 936
10 472
10 99
10 335
10 395
10 157
10 311
10 918
10 199
10 352
10 423
10 889
10 316
10 908
10 390
10 772
10 366
10 406
10 146
10 436
10 713
10 84
10 635
10 400
10 250
10 811
10 812
10 597
10 777
10 11
10 867
10 568
10 824
10 384
10 274
10 784
10 978
10 603
10 397
10 399
10 428
10 683
10 827
10 531
10 65
10 981
10 124
10 677
10 550
10 186
10 859
10 46
10 573
10 67
10 77
10 644
10 154
10 721
10 103
10 542
10 234
10 507
10 491
11 149
11 899
11 52
11 484
11 624
11 95
11 623
11 645
11 527
11 461
11 60
11 868
11 368
11 111
11 805
11 145
11 397
11 250
11 965
11 401
11 455
11 551
11 320
11 713
11 546
11 184
11 61
11 598
11 230
11 510
11 468
11 705
11 298
11 906
12 307
12 433
12 297
12 911
12 700
12 437
12 123
12 842
12 247
12 397
12 830
12 490
12 642
12 178
12 195
12 977
12 840
12 357
12 418
12 455
12 756
12 641
12 947
12 23
12 550
12 637
12 696
12 728
12 744
12 233
12 761
12 779
12 348
12 867
12 401
12 427
12 428
12 76
12 157
12 704
12 260
12 834
12 372
12 824
12 854
12 552
13 669
13 516
13 246
13 898
13 252
13 66
13 690
13 814
13 465
13 593
13 676
13 554
13 16
13 707
13 197
13 223
13 234
13 756
13 259
13 777
13 813
13 824
13 854
13 367
13 371
13 885
13 378
13 386
13 909
13 933
13 488
14 654
14 37
14 920
14 337
14 82
14 206
14 499
14 479
14 94
14 381
14 871
14 470
14 92
14 611
14 441
14 101
14 736
14 791
14 199
14 125
14 856
14 166
14 725
14 339
14 63
14 579
14 846
14 220
14 97
14 252
14 514
14 56
14 38
14 79
14 151
14 155
14 754
14 790
14 609
14 528
14 223
14 208
15 848
15 111
15 191
15 900
15 285
15 750
15 224
15 467
15 803
15 27
15 213
15 883
15 203
15 962
15 593
15 456
15 211
15 124
15 198
15 452
15 753
15 987
15 108
15 512
15 144
15 508
15 166
15 981
15 740
15 514
15 705
15 643
15 664
15 237
15 96
15 186
15 207
15 258
15 669
15 936
15 270
15 210
15 348
15 533
15 830
15 744
15 283
15 532
15 300
15 866
15 117
15 142
15 404
15 201
15 352
15 937
15 652
15 223
16 48
16 554
16 999
16 107
16 993
16 782
16 492
16 310
16 743
16 821
16 64
16 751
16 331
16 488
16 907
16 502
16 777
16 727
16 783
16 478
16 474
16 388
16 923
16 377
16 393
16 460
16 577
16 756
16 329
16 259
16 925
16 477
16 462
16 755
16 647
16 431
16 386
16 270
16 227
16 245
16 520
16 885
16 197
16 859
16 98
16 341
16 261
16 660
16 44
16 858
16 905
16 384
16 862
16 463
16 505
16 73
16 607
16 139
16 721
16 801
16 894
16 832
16 680
16 572
16 565
16 621
16 138
16 781
16 34
16 895
16 233
16 60
16 943
16 159
16 543
16 454
16 327
16 535
16 41
16 813
16 824
16 367
16 278
17 758
17 868
17 624
17 841
17 924
17 594
17 391
17 84
17 672
17 416
17 988
17 918
17 400
17 998
17 902
17 661
17 139
17 272
17 502
17 46
17 102
17 165
17 217
17 241
17 301
17 312
17 864
17 366
17 938
17 790
17 746
18 765
18 758
18 585
18 946
18 228
18 285
18 980
18 481
18 200
18 874
18 453
18 163
18 978
18 393
18 64
18 653
18 644
18 642
18 998
18 792
18 835
18 582
18 605
18 992
18 878
18 71
18 806
18 730
18 494
19 607
19 59
19 62
19 23
19 123
19 752
19 967
19 524
19 50
19 839
19 468
19 601
19 485
19 496
19 592
19 439
19 133
19 28
19 495
19 995
19 31
19 850
19 791
19 230
19 434
19 998
19 561
19 381
19 749
19 453
19 611
19 388
19 463
19 26
19 555
19 87
19 618
19 627
19 132
19 690
19 716
19 225
19 229
19 814
19 926
19 419
19 454
19 465
19 501
19 803
19 551
20 180
20 975
20 728
20 284
20 325
20 594
20 119
20 538
20 154
20 828
20 644
20 235
20 497
20 723
20 571
20 792
20 46
20 578
20 77
20 199
20 721
20 298
20 301
20 864
20 366
20 370
20 906
20 935
20 458
20 331
20 492
21 176
21 944
21 760
21 274
21 409
21 985
21 540
21 292
21 395
21 303
21 290
21 429
21 570
21 924
21 692
21 313
21 66
21 86
21 342
21 551
21 76
21 207
22 69
22 726
22 714
22 551
22 964
22 591
22 780
22 914
22 458
22 490
22 434
22 267
22 654
22 536
22 578
22 67
22 586
22 606
22 119
22 154
22 199
22 298
22 311
22 312
22 864
22 395
22 918
22 128
23 167
23 505
23 253
23 230
23 195
23 449
23 373
23 122
23 209
23 665
23 867
23 841
23 760
23 483
23 272
23 550
23 437
23 934
23 843
23 325
23 990
23 700
23 164
23 712
23 901
23 744
23 401
23 799
23 380
23 397
23 429
23 969
23 297
23 306
23 931
23 486
23 677
23 642
23 490
23 810
23 830
23 320
23 247
23 921
23 473
23 728
23 972
23 428
23 415
23 410
23 358
23 388
23 798
23 326
23 596
23 919
23 37
23 492
23 370
23 333
23 310
23 742
23 627
23 269
23 664
23 812
23 725
23 215
23 653
23 855
23 313
23 181
23 233
23 752
23 761
23 284
23 348
23 433
23 605
23 540
23 690
23 281
23 435
23 371
24 295
24 523
24 646
24 972
24 883
24 314
24 829
24 865
24 680
24 817
24 443
24 541
24 35
24 566
24 963
24 87
24 759
24 318
24 529
24 348
24 52
24 57
24 960
24 79
24 800
24 595
25 204
25 254
25 72
25 596
25 148
25 214
25 543
25 43
25 518
25 994
25 34
25 281
25 410
25 428
25 835
25 369
25 485
25 998
25 668
25 260
25 44
26 123
26 522
26 126
26 342
26 457
26 50
26 29
26 926
26 555
26 58
26 485
26 592
26 501
26 439
26 679
26 952
26 942
26 850
26 132
26 814
26 330
26 993
26 419
26 976
26 986
26 886
26 836
26 133
26 965
26 839
26 31
26 967
26 87
26 242
26 468
26 28
26 716
26 827
26 454
26 963
26 887
26 425
26 369
26 334
26 949
26 465
26 229
26 690
26 832
26 627
26 997
26 451
26 754
26 605
26 111
26 99
26 922
26 119
26 92
26 708
26 985
26 932
26 717
26 530
26 380
26 819
26 709
26 882
26 72
26 547
26 256
26 420
26 693
26 601
26 995
26 722
26 877
26 413
26 259
26 497
26 686
27 575
27 83
27 869
27 401
27 716
27 512
27 514
27 262
27 532
27 300
27 124
27 866
27 29
27 893
27 398
27 767
27 240
27 593
27 108
27 884
27 142
27 192
27 962
27 467
27 981
27 897
27 906
27 785
28 576
28 838
28 255
28 228
28 976
28 926
28 791
28 133
28 49
28 832
28 949
28 457
28 601
28 229
28 29
28 993
28 225
28 334
28 522
28 126
28 627
28 974
28 839
28 158
28 354
28 630
28 991
28 971
28 507
28 678
28 954
28 137
28 871
28 339
28 303
28 87
28 814
28 369
28 454
28 967
28 468
28 995
28 485
28 495
28 501
28 77
28 906
28 680
28 698
29 205
29 786
29 794
29 95
29 348
29 132
29 495
29 592
29 627
29 555
29 850
29 485
29 836
29 334
29 986
29 886
29 965
29 342
29 679
29 597
29 253
29 957
29 466
29 981
29 106
29 493
29 738
29 560
29 940
29 31
29 50
29 87
29 690
29 225
29 814
29 832
29 949
29 465
29 884
29 142
29 366
29 812
29 289
29 39
30 411
30 264
30 481
30 274
30 468
30 290
30 165
30 93
30 135
30 583
30 809
30 450
30 324
30 333
30 668
30 439
30 296
30 972
30 516
30 458
30 639
30 241
30 151
30 671
30 698
30 722
30 244
30 800
30 398
30 919
30 51
30 234
30 756
30 460
31 412
31 589
31 248
31 123
31 585
31 228
31 836
31 485
31 690
31 50
31 839
31 465
31 993
31 501
31 425
31 330
31 352
31 819
31 147
31 636
31 852
31 918
31 185
31 433
31 555
31 592
31 87
31 618
31 627
31 716
31 814
31 850
31 369
31 949
31 454
31 967
31 457
31 995
31 586
31 311
31 935
31 534
31 738
31 574
31 141
32 288
32 142
32 40
32 289
32 652
32 127
32 639
32 857
32 405
32 872
32 488
32 438
32 308
32 876
33 567
33 744
33 722
33 244
33 402
33 673
33 625
33 962
33 102
33 966
33 68
33 308
33 876
33 377
33 556
34 516
34 405
34 152
34 202
34 432
34 88
34 167
34 723
34 420
34 549
34 844
34 327
34 805
34 656
34 532
34 894
34 713
34 291
34 682
34 177
34 569
34 338
34 315
34 480
34 145
34 886
34 998
34 406
34 365
34 507
34 932
35 845
35 176
35 555
35 133
35 217
35 633
35 534
35 960
35 421
35 557
35 733
35 566
35 829
35 402
35 197
35 904
36 517
36 913
36 411
36 544
36 545
36 870
36 237
36 351
36 412
36 295
36 699
36 130
36 360
36 251
36 394
36 881
36 589
36 917
36 430
36 984
36 673
36 170
36 884
36 551
36 607
36 355
36 80
36 675
36 688
36 563
36 568
36 81
36 608
36 109
36 246
36 922
36 962
36 323
37 519
37 268
37 530
37 732
37 590
37 307
37 266
37 531
37 505
37 258
37 296
37 597
37 329
37 62
37 68
37 602
37 347
37 656
37 674
37 193
37 464
37 54
37 123
37 401
37 139
37 398
37 727
37 777
38 174
38 407
38 927
38 596
38 867
38 832
38 117
38 467
38 458
38 983
38 940
38 332
38 398
38 953
38 260
38 704
38 333
38 339
38 583
38 93
38 671
38 226
38 939
38 659
38 324
38 738
38 787
38 511
38 686
38 611
38 534
38 150
38 948
38 915
38 264
38 252
38 958
38 449
38 559
38 40
38 658
38 722
38 735
38 736
38 754
38 281
38 413
38 367
39 786
39 811
39 408
39 867
39 981
39 812
39 515
39 273
39 494
39 789
39 215
39 730
39 207
39 173
39 73
39 343
39 686
39 491
39 208
39 47
39 748
39 191
39 833
39 608
39 41
39 654
39 797
39 818
39 564
39 595
39 932
40 266
40 176
40 978
40 132
40 165
40 708
40 738
40 326
40 244
40 558
40 860
40 445
40 435
40 186
40 293
40 785
40 85
40 376
40 332
40 281
40 809
40 940
40 691
40 324
40 151
40 583
40 722
40 498
40 671
40 339
40 703
40 265
40 873
40 661
40 155
40 788
40 693
40 93
40 668
40 731
40 413
40 333
40 489
40 877
40 939
40 659
40 216
40 766
40 800
40 919
40 776
40 354
40 398
40 704
40 820
40 983
40 951
40 959
40 812
40 698
40 663
40 774
40 953
40 511
40 318
40 648
40 284
40 806
40 245
40 253
40 892
40 455
40 52
40 802
40 750
40 605
40 81
40 747
40 888
40 676
40 499
40 316
40 913
40 972
40 290
40 201
40 396
40 573
40 448
40 84
40 745
40 652
40 845
40 867
40 924
41 43
41 139
41 814
41 986
41 547
41 311
41 629
41 800
41 660
41 707
41 331
41 393
41 925
41 783
41 777
41 474
41 859
41 577
41 909
41 904
41 821
41 388
41 424
41 371
41 44
41 386
41 462
41 520
41 507
41 756
41 426
41 245
41 64
41 497
41 261
41 283
41 341
41 234
41 933
41 431
41 975
41 438
41 52
41 254
41 943
41 640
41 306
41 764
41 763
41 921
41 352
41 385
41 207
41 704
41 246
41 874
41 211
41 796
41 197
41 259
41 367
41 384
41 488
41 492
42 688
42 565
42 696
42 752
42 139
42 50
42 967
42 224
42 46
42 800
42 218
42 877
42 333
42 324
42 693
42 895
42 81
42 928
42 366
42 913
42 724
42 501
42 135
42 151
42 698
42 754
42 873
42 919
42 953
42 854
43 833
43 614
43 688
43 505
43 596
43 422
43 72
43 214
43 629
43 911
43 447
43 810
43 337
43 292
43 967
43 884
43 774
43 834
44 699
44 568
44 571
44 156
44 174
44 867
44 380
44 92
44 187
44 691
44 474
44 492
44 223
44 783
44 824
44 367
44 727
44 813
44 341
44 907
44 858
44 577
44 331
44 925
44 460
44 384
44 755
44 462
44 756
44 743
44 287
44 733
44 923
44 620
44 885
44 707
44 377
44 227
44 431
44 497
44 957
44 473
44 981
44 753
44 256
44 427
44 740
44 184
44 975
44 913
44 220
44 480
44 214
44 700
44 569
44 352
44 667
44 234
44 777
44 386
44 933
44 488
45 971
45 321
45 442
45 209
45 58
45 454
45 705
45 591
45 770
45 330
45 746
45 580
45 68
45 47
45 818
45 595
45 932
46 65
46 979
46 401
46 551
46 67
46 76
46 183
46 146
46 708
46 336
46 634
46 536
46 702
46 400
46 323
46 451
46 964
46 961
46 217
46 77
46 154
46 298
46 395
46 973
46 599
46 594
46 586
46 782
46 889
46 906
46 825
46 687
46 714
46 635
46 312
46 157
46 672
46 573
46 908
46 591
46 311
46 578
46 102
46 277
46 721
46 780
46 726
46 864
46 280
46 472
46 84
46 160
46 199
46 713
46 538
46 690
46 247
46 414
46 913
46 484
46 765
46 58
46 147
46 465
46 741
46 321
46 115
46 983
46 364
46 925
46 766
46 865
46 862
46 939
46 701
46 945
46 447
46 563
46 499
46 606
46 119
46 165
46 777
46 595
47 587
47 53
47 485
47 346
47 244
47 801
47 556
47 55
47 319
47 823
47 932
47 173
47 278
47 494
47 818
47 960
47 904
47 56
47 781
47 416
47 344
47 242
47 380
47 564
47 215
48 796
48 412
48 669
48 545
48 295
48 688
48 563
48 81
48 130
48 91
48 913
48 237
48 565
48 132
48 382
48 497
48 832
48 568
48 589
48 487
48 363
48 109
48 898
48 547
48 57
48 818
49 185
49 464
49 65
49 744
49 522
49 496
49 555
49 457
49 132
49 291
49 305
49 467
49 893
49 895
49 50
49 87
49 601
49 616
49 618
49 690
49 229
49 836
49 949
49 967
49 468
49 485
49 501
49 591
49 406
49 877
49 651
49 535
50 351
50 176
50 179
50 758
50 984
50 700
50 348
50 949
50 974
50 716
50 555
50 592
50 616
50 229
50 522
50 496
50 690
50 454
50 887
50 369
50 942
50 419
50 967
50 963
50 814
50 465
50 926
50 342
50 133
50 679
50 425
50 142
50 77
50 960
50 175
50 936
50 678
50 535
50 721
50 553
50 390
50 443
50 598
50 933
50 947
50 323
50 87
50 618
50 832
50 995
50 485
50 501
50 155
51 174
51 179
51 536
51 128
51 804
51 651
51 78
51 353
51 746
51 609
51 482
51 112
51 834
51 795
51 844
51 598
51 264
51 74
51 991
51 103
51 876
51 477
52 899
52 263
52 561
52 769
52 982
52 60
52 623
52 696
52 247
52 638
52 547
52 184
52 598
52 868
52 484
52 111
52 368
52 510
52 977
52 584
52 98
52 777
52 384
52 925
52 491
53 669
53 565
53 638
53 646
53 769
53 830
53 479
53 471
53 846
53 71
53 82
53 252
53 840
53 101
53 948
53 381
53 611
53 759
53 345
53 469
53 63
53 206
53 97
53 203
53 610
53 372
53 790
53 109
53 89
53 118
53 936
53 337
53 579
53 967
53 234
54 765
54 315
54 523
54 954
54 718
54 758
54 869
54 912
54 819
54 349
54 440
54 641
54 902
54 87
54 656
54 522
54 690
54 568
54 571
54 575
54 83
54 646
54 666
54 169
54 174
54 175
54 179
54 205
54 254
54 786
54 296
54 321
54 838
54 361
54 920
54 408
54 442
54 410
54 189
54 555
54 501
54 124
54 606
54 406
54 151
54 244
54 670
55 81
55 91
55 550
55 101
55 448
55 533
55 280
55 216
55 813
55 278
55 801
55 564
55 566
55 92
55 733
55 215
55 730
56 83
56 972
56 292
56 495
56 884
56 981
56 312
56 865
56 960
56 443
56 314
56 541
56 534
56 680
56 806
56 201
56 838
56 958
56 564
56 538
56 551
56 57
56 829
56 365
56 648
56 735
56 488
57 640
57 504
57 918
57 566
57 188
57 534
57 865
57 539
57 443
57 806
57 541
57 817
57 955
57 454
57 525
57 559
57 433
57 505
57 187
57 960
57 413
57 909
58 358
58 330
58 965
58 886
58 679
58 132
58 850
58 986
58 419
58 126
58 248
58 81
58 685
58 859
58 74
58 627
58 690
58 229
58 814
58 827
58 369
58 949
58 454
58 967
58 465
58 995
58 485
58 501
58 586
58 436
58 371
59 125
59 519
59 268
59 798
59 553
59 307
59 446
59 147
59 847
59 232
59 505
59 964
59 343
59 931
59 712
59 576
59 68
59 590
59 602
59 347
59 674
59 193
59 464
59 69
59 965
59 452
59 143
59 625
59 755
60 699
60 653
60 145
60 805
60 554
60 561
60 623
60 461
60 484
60 263
60 375
60 896
60 158
60 868
60 922
60 967
60 993
60 428
60 790
60 325
60 111
60 510
60 370
60 680
60 354
60 983
60 128
60 234
60 777
61 193
61 769
61 899
61 645
61 653
61 527
61 184
61 763
61 868
61 561
61 632
61 484
61 546
61 118
61 510
61 982
61 598
61 767
61 535
61 310
61 722
61 907
61 693
61 812
61 996
61 77
61 230
61 95
61 368
61 178
61 211
62 519
62 530
62 531
62 798
62 248
62 590
62 68
62 268
62 771
62 134
62 656
62 162
62 266
62 327
62 756
62 579
62 145
62 97
62 880
62 70
62 446
62 193
62 734
62 505
62 169
62 863
62 592
62 67
62 197
63 948
63 441
63 697
63 92
63 71
63 840
63 252
63 381
63 82
63 821
63 924
63 546
63 912
63 816
63 579
63 313
63 369
63 154
63 85
63 221
64 786
64 850
64 457
64 302
64 528
64 535
64 813
64 925
64 478
64 905
64 751
64 386
64 460
64 647
64 492
64 755
64 197
64 223
64 234
64 620
64 261
64 727
64 431
64 378
64 859
64 270
64 497
64 282
64 426
64 367
64 858
64 371
64 284
64 65
64 863
64 552
64 627
64 168
64 325
64 551
64 919
64 542
64 944
64 938
64 244
64 87
64 267
64 784
64 743
64 756
64 245
64 259
64 824
64 329
64 331
64 341
64 933
64 488
65 180
65 530
65 523
65 575
65 709
65 922
65 681
65 811
65 802
65 930
65 175
65 869
65 808
65 179
65 641
65 797
65 176
65 640
65 182
65 666
65 362
65 253
65 898
65 169
65 657
65 428
65 97
65 687
65 599
65 108
65 590
65 245
65 658
65 249
65 105
65 621
65 156
65 174
65 758
65 254
65 786
65 288
65 838
65 356
65 358
65 407
65 920
65 298
65 259
65 492
66 360
66 553
66 748
66 179
66 408
66 401
66 784
66 274
66 409
66 159
66 292
66 313
66 929
66 86
66 863
66 161
66 758
66 902
66 277
66 502
66 418
66 864
66 581
66 703
66 894
66 662
66 686
66 215
67 572
67 847
67 862
67 716
67 705
67 547
67 391
67 533
67 84
67 961
67 190
67 551
67 509
67 918
67 199
67 436
67 702
67 370
67 336
67 708
67 538
67 396
67 154
67 634
67 687
67 780
67 217
67 672
67 280
67 635
67 472
67 157
67 323
67 988
67 241
67 941
67 828
67 77
67 782
67 676
67 667
67 312
67 914
67 916
67 150
67 98
67 805
67 473
67 848
67 989
67 764
67 276
67 113
67 838
67 188
67 349
67 720
67 894
67 637
67 173
67 565
67 920
67 696
67 854
67 586
67 165
67 298
67 366
67 935
67 458
67 151
68 411
68 152
68 519
68 268
68 531
68 798
68 553
68 266
68 530
68 307
68 463
68 70
68 315
68 212
68 560
68 232
68 347
68 193
68 630
68 989
68 260
68 343
68 852
68 880
68 421
68 695
68 290
68 341
68 129
68 221
68 134
68 147
68 444
68 446
68 464
68 248
68 505
68 83
68 156
68 618
68 157
68 217
68 906
68 558
68 813
68 331
69 382
69 571
69 176
69 288
69 944
69 179
69 872
69 930
69 628
69 83
69 661
69 188
69 120
69 646
69 137
69 666
69 685
69 264
69 786
69 797
69 826
69 321
69 838
69 358
69 898
69 920
69 975
69 306
69 163
69 485
69 864
69 509
69 919
69 223
69 564
70 892
70 258
70 519
70 268
70 530
70 798
70 553
70 307
70 446
70 134
70 734
70 414
70 147
70 597
70 524
70 440
70 439
70 197
70 274
70 178
70 444
70 193
70 464
70 174
70 321
70 356
70 627
70 501
70 586
70 367
71 948
71 697
71 742
71 846
71 97
71 101
71 82
71 94
71 891
71 206
71 871
71 92
71 470
71 471
71 345
71 759
71 441
71 579
71 220
71 228
71 725
71 312
71 776
71 339
71 478
71 421
71 994
71 469
71 684
72 544
72 363
72 689
72 299
72 725
72 140
72 90
72 214
72 984
72 613
72 437
72 243
72 957
72 596
72 148
72 206
72 644
72 241
72 85
73 307
73 105
73 979
73 896
73 543
73 486
73 891
73 234
73 813
73 770
73 801
73 564
73 170
73 196
73 319
73 686
73 728
73 322
73 783
73 205
73 707
73 563
73 825
73 595
73 932
73 207
73 215
74 669
74 266
74 523
74 582
74 133
74 993
74 229
74 132
74 524
74 465
74 963
74 342
74 129
74 806
74 453
74 951
74 893
74 766
74 690
74 832
74 850
74 926
74 419
74 949
74 454
74 967
74 995
74 485
74 501
74 738
74 341
75 833
75 706
75 683
75 537
75 848
75 614
75 610
75 149
75 650
75 607
75 989
75 347
75 974
75 578
75 275
75 612
75 159
75 102
75 824
76 193
76 842
76 322
76 814
76 967
76 593
76 573
76 509
76 250
76 396
76 988
76 889
76 634
76 672
76 438
76 918
76 328
76 906
76 146
76 687
76 916
76 335
76 533
76 352
76 160
76 961
76 190
76 536
76 772
76 721
76 436
76 400
76 183
76 726
76 599
76 964
76 713
76 391
76 635
76 241
76 478
76 679
76 872
76 963
76 885
76 377
76 590
76 267
76 401
76 184
76 890
76 480
76 550
76 901
76 663
76 77
76 591
76 606
76 165
76 301
76 311
76 366
76 812
76 482
76 426
76 515
77 212
77 826
77 761
77 199
77 298
77 84
77 918
77 961
77 119
77 312
77 392
77 406
77 606
77 277
77 533
77 472
77 591
77 400
77 772
77 964
77 551
77 385
77 301
77 864
77 396
77 154
77 906
77 168
77 391
77 828
77 538
77 635
77 594
77 335
77 423
77 782
77 416
77 99
77 366
77 721
77 328
77 573
77 941
77 336
77 586
77 390
77 343
77 437
77 663
77 671
77 791
77 752
77 614
77 930
77 410
77 313
77 444
77 987
77 502
77 460
77 207
77 650
77 325
77 984
77 608
77 399
77 712
77 817
77 599
77 157
77 676
77 165
77 395
77 935
77 458
77 988
77 566
77 619
77 789
78 88
78 898
78 975
78 233
78 301
78 877
78 372
78 790
78 143
78 103
78 741
78 243
78 353
78 804
78 609
78 663
78 183
78 734
78 514
78 728
78 943
78 682
78 206
78 223
79 958
79 519
79 523
79 123
79 146
79 877
79 788
79 216
79 445
79 85
79 735
79 658
79 951
79 339
79 691
79 309
79 703
79 736
79 939
79 629
79 959
79 671
79 151
79 722
79 940
79 903
79 661
79 321
79 576
79 804
79 472
79 715
79 841
79 125
79 881
79 993
79 135
79 155
79 684
79 698
79 244
79 800
79 812
79 354
79 919
79 435
79 953
79 983
80 675
80 349
80 752
80 867
80 993
80 495
80 897
80 290
80 447
80 584
80 485
80 998
80 622
81 683
81 130
81 517
81 394
81 669
81 295
81 430
81 563
81 699
81 568
81 589
81 861
81 412
81 913
81 364
81 870
81 917
81 608
81 508
81 828
81 96
81 323
81 433
81 355
81 539
81 450
81 91
81 374
81 111
81 760
81 272
81 224
81 584
81 727
81 384
81 801
82 286
82 838
82 948
82 846
82 97
82 219
82 479
82 92
82 891
82 94
82 101
82 232
82 703
82 942
82 507
82 287
82 742
82 391
82 649
83 149
83 295
83 523
83 575
83 480
83 408
83 955
83 786
83 321
83 120
83 802
83 137
83 169
83 504
83 970
83 745
83 475
83 361
83 105
83 880
83 288
83 797
83 927
83 254
83 849
83 944
83 182
83 758
83 794
83 176
83 646
83 628
83 296
83 954
83 440
83 356
83 898
83 621
83 271
83 246
83 838
83 204
83 640
83 418
83 174
83 121
83 455
83 831
83 826
83 352
83 181
83 674
83 482
83 663
83 917
83 777
83 428
83 128
83 589
83 163
83 567
83 88
83 841
83 717
83 328
83 488
83 560
83 416
83 666
83 179
83 811
83 358
83 407
83 920
83 922
83 401
83 836
83 454
83 457
83 939
83 737
84 732
84 505
84 571
84 169
84 174
84 984
84 136
84 284
84 697
84 578
84 586
84 298
84 828
84 764
84 272
84 900
84 829
84 739
84 537
84 426
84 654
84 606
84 119
84 644
84 154
84 165
84 199
84 241
84 301
84 370
84 458
84 498
84 885
84 595
85 147
85 597
85 524
85 132
85 154
85 370
85 151
85 489
85 244
85 738
85 376
85 736
85 785
85 309
85 333
85 860
85 93
85 788
85 498
85 659
85 851
85 983
85 800
85 293
85 260
85 413
85 435
85 216
85 939
85 629
85 648
85 812
85 766
85 281
85 326
85 354
85 332
85 339
85 324
85 735
85 809
85 558
85 937
85 787
85 663
85 512
85 687
85 755
85 950
85 350
85 870
85 656
85 143
85 600
85 446
85 337
85 901
85 328
85 948
85 189
85 502
85 372
85 661
85 671
85 684
85 704
85 722
85 754
85 398
85 919
86 553
86 811
86 409
86 692
86 313
86 159
86 189
86 161
86 292
86 924
86 985
86 139
86 784
86 145
86 926
86 629
86 526
86 512
86 621
86 464
86 873
86 548
86 888
86 756
87 666
87 718
87 811
87 596
87 555
87 942
87 986
87 524
87 886
87 132
87 836
87 126
87 419
87 425
87 342
87 457
87 791
87 993
87 592
87 974
87 495
87 439
87 850
87 967
87 814
87 454
87 963
87 522
87 369
87 334
87 839
87 465
87 501
87 229
87 690
87 679
87 949
87 995
87 468
87 976
87 827
87 887
87 496
87 926
87 616
87 832
87 589
87 523
87 710
87 120
87 247
87 738
87 968
87 516
87 510
87 93
87 777
87 384
87 147
87 557
87 253
87 364
87 434
87 562
87 639
87 328
87 912
87 908
87 561
87 601
87 618
87 627
87 485
87 301
87 395
87 460
88 152
88 420
88 682
88 816
88 432
88 844
88 291
88 202
88 167
88 338
88 654
88 815
88 521
88 550
88 214
88 107
88 995
88 318
88 176
88 195
88 415
88 229
88 668
89 575
89 401
89 285
89 294
89 453
89 327
89 585
89 228
89 597
89 807
89 188
89 483
89 136
89 605
89 862
89 126
89 593
89 722
89 141
89 925
90 432
90 446
90 709
90 567
90 580
90 140
90 596
90 725
90 148
90 812
90 208
90 998
90 774
91 517
91 529
91 913
91 412
91 675
91 688
91 563
91 565
91 589
91 116
91 545
91 430
91 374
91 699
91 870
91 411
91 696
91 831
91 327
91 711
91 961
91 939
91 478
91 597
91 351
91 360
91 109
91 175
91 419
91 648
91 809
91 498
92 607
92 575
92 579
92 846
92 469
92 220
92 870
92 986
92 462
92 412
92 97
92 101
92 742
92 252
92 814
92 438
92 604
92 488
93 963
93 710
93 754
93 939
93 957
93 398
93 389
93 873
93 903
93 151
93 435
93 937
93 877
93 499
93 147
93 479
93 369
93 306
93 758
93 282
93 629
93 659
93 722
93 738
93 244
93 774
93 800
93 809
93 812
93 953
94 688
94 553
94 206
94 469
94 470
94 219
94 220
94 595
94 927
94 848
94 174
94 761
94 611
94 618
94 132
94 229
94 501
94 536
94 354
94 660
94 426
95 798
95 571
95 666
95 769
95 645
95 527
95 546
95 554
95 868
95 484
95 899
95 510
95 177
95 810
95 957
95 851
95 186
95 111
95 368
95 118
95 712
95 415
95 457
95 340
95 615
95 370
95 756
95 793
96 256
96 525
96 526
96 172
96 945
96 185
96 180
96 238
96 330
96 335
96 769
96 776
96 367
96 892
96 685
96 920
96 812
96 781
97 917
97 576
97 674
97 523
97 872
97 231
97 948
97 441
97 846
97 499
97 611
97 469
97 252
97 871
97 751
97 265
97 255
97 349
97 593
97 667
97 941
97 527
97 214
97 197
97 341
97 378
98 147
98 174
98 321
98 442
98 975
98 878
98 618
98 547
98 217
98 738
98 812
98 911
98 237
98 355
98 411
98 197
98 743
98 371
98 378
98 386
98 925
98 933
98 497
99 669
99 178
99 593
99 536
99 591
99 606
99 312
99 667
99 391
99 819
99 130
99 140
99 592
99 226
99 154
99 157
99 160
99 165
99 714
99 217
99 406
99 988
99 671
99 367
99 384
99 215
100 826
100 433
100 911
100 779
100 830
100 181
100 348
100 247
100 373
100 607
100 474
100 477
100 127
100 642
100 178
100 195
100 712
100 744
100 233
100 284
100 841
100 867
100 401
100 415
100 427
100 532
100 834
100 476
100 197
101 575
101 969
101 469
101 220
101 759
101 758
101 473
101 831
101 620
101 791
101 383
101 672
101 738
101 774
102 432
102 296
102 920
102 677
102 761
102 228
102 536
102 573
102 578
102 606
102 311
102 916
102 825
102 864
102 301
102 713
102 672
102 390
102 918
102 168
102 936
102 961
102 241
102 472
102 547
102 708
102 199
102 323
102 423
102 406
102 335
102 509
102 190
102 208
102 128
102 685
102 308
102 216
102 309
102 656
102 326
102 211
102 358
102 253
102 514
102 947
102 712
102 154
102 157
102 160
102 165
102 395
102 647
102 259
102 904
103 210
103 147
103 123
103 217
103 785
103 128
103 143
103 790
103 834
103 357
103 636
103 236
103 548
103 112
103 741
103 670
103 372
103 304
103 804
103 317
103 276
103 243
103 288
103 415
103 600
103 938
103 735
103 784
103 499
103 399
103 208
103 996
103 110
103 729
103 762
104 523
104 927
104 546
104 867
104 555
104 906
104 398
104 269
104 476
104 649
104 781
104 853
104 852
104 888
104 626
104 364
104 163
104 818
104 740
104 613
104 979
105 134
105 571
105 575
105 966
105 621
105 944
105 657
105 641
105 204
105 970
105 638
105 808
105 358
105 440
105 902
105 975
105 838
105 296
105 831
105 175
105 271
105 646
105 174
105 872
105 640
105 387
105 797
105 408
105 802
105 442
105 890
105 758
105 955
105 880
105 288
105 826
105 179
105 361
105 628
105 930
105 254
105 685
105 570
105 349
105 786
105 407
105 898
105 475
105 137
105 718
105 321
105 794
105 927
105 362
105 418
105 213
105 129
105 994
105 490
105 773
105 987
105 548
105 730
105 502
105 674
105 567
105 206
105 820
105 699
105 508
105 422
105 350
105 583
105 903
105 917
105 215
105 941
105 536
105 142
105 666
105 156
105 169
105 205
105 264
105 811
105 920
105 348
105 585
105 274
105 814
105 836
105 425
105 465
105 239
105 701
105 781
105 507
105 494
106 994
106 205
106 838
106 123
106 181
106 695
106 842
106 284
106 427
106 934
106 255
106 306
106 629
106 984
106 269
106 246
106 679
106 637
106 191
106 712
106 744
106 233
106 841
106 348
106 867
106 900
106 901
106 401
106 921
106 415
106 428
106 540
106 941
106 829
106 435
106 755
107 602
107 580
107 140
107 596
107 725
107 148
107 422
107 984
107 214
107 901
107 353
107 250
107 599
107 219
107 782
107 370
107 754
107 873
107 234
107 492
108 248
108 745
108 407
108 300
108 593
108 740
108 884
108 192
108 198
108 866
108 514
108 213
108 750
108 705
108 711
108 452
108 144
108 262
108 166
108 203
108 981
108 643
108 222
108 456
108 532
108 224
108 201
108 512
108 404
108 883
108 991
108 508
108 962
108 211
108 239
108 467
108 518
108 717
108 351
108 689
108 619
108 485
108 205
108 964
108 355
108 387
108 490
108 882
108 849
108 837
108 942
108 850
108 605
108 217
108 971
108 713
108 937
108 117
108 124
108 142
108 864
108 671
108 834
108 655
108 367
109 517
109 917
109 411
109 412
109 669
109 545
109 565
109 699
109 589
109 861
109 363
109 364
109 568
109 563
109 529
109 870
109 608
109 116
109 251
109 765
109 913
109 881
109 295
109 796
109 130
109 430
109 218
109 689
109 158
109 188
109 792
109 776
109 442
109 640
109 742
109 797
109 154
109 935
109 666
109 358
109 744
109 410
109 644
109 311
109 234
109 341
109 662
110 288
110 136
110 784
110 615
110 276
110 521
110 269
110 542
110 626
110 243
110 519
110 514
110 921
110 888
110 341
110 488
111 896
111 645
111 546
111 805
111 567
111 868
111 184
111 461
111 623
111 624
111 999
111 598
111 899
111 769
111 375
111 561
111 653
111 230
111 145
111 510
111 118
111 632
111 263
111 554
111 493
111 850
111 603
111 283
111 681
111 771
111 457
111 924
111 903
111 591
111 630
111 846
111 906
111 964
111 249
112 631
112 137
112 786
112 838
112 220
112 457
112 160
112 128
112 795
112 804
112 834
112 609
112 746
112 491
113 464
113 358
113 178
113 779
113 978
113 784
113 578
113 663
113 785
113 131
113 834
113 357
114 124
114 509
114 693
114 774
114 143
114 790
114 795
114 834
114 609
114 831
114 397
114 430
114 893
115 666
115 233
115 161
115 160
115 541
115 187
115 829
115 960
115 573
115 688
115 898
115 711
115 429
115 787
115 535
116 394
116 529
116 412
116 669
116 544
116 563
116 568
116 861
116 608
116 360
116 208
116 961
116 152
116 258
116 646
116 174
116 898
116 606
116 906
116 757
117 798
117 174
117 849
117 902
117 191
117 992
117 159
117 300
117 883
117 884
117 643
117 664
117 512
117 508
117 192
117 866
117 753
117 124
117 768
117 915
117 532
117 514
117 962
117 166
117 717
117 467
117 198
117 991
117 213
117 452
117 142
117 705
117 478
117 287
117 663
117 437
117 272
117 708
117 807
117 976
117 922
117 403
117 442
117 763
117 253
117 211
117 224
117 740
117 644
117 793
118 896
118 645
118 653
118 554
118 484
118 632
118 598
118 230
118 158
118 546
118 376
118 792
118 679
118 961
118 678
118 547
118 510
118 322
118 454
118 964
118 649
119 638
119 744
119 846
119 485
119 547
119 551
119 423
119 713
119 335
119 726
119 906
119 825
119 606
119 538
119 910
119 165
119 864
119 451
119 634
119 389
119 605
119 718
119 875
119 382
119 461
119 659
119 360
119 427
119 903
119 626
119 154
119 199
119 714
119 721
119 312
119 406
119 988
119 354
119 208
120 688
120 523
120 570
120 621
120 826
120 641
120 849
120 504
120 361
120 681
120 927
120 182
120 264
120 475
120 418
120 838
120 598
120 796
120 220
120 263
120 701
120 275
120 887
120 141
120 156
120 205
120 718
120 794
120 288
120 296
120 356
120 869
120 358
120 890
120 920
120 457
120 452
120 211
121 699
121 464
121 523
121 575
121 621
121 641
121 920
121 638
121 253
121 321
121 966
121 288
121 169
121 137
121 174
121 246
121 361
121 472
121 563
121 877
121 706
121 957
121 875
121 716
121 666
121 176
121 758
121 811
121 826
121 356
121 869
121 407
121 408
121 975
121 428
121 878
121 208
122 575
122 136
122 799
122 466
122 429
122 700
122 728
122 867
122 373
122 427
122 449
122 843
122 911
122 284
122 178
122 761
122 350
122 276
122 663
122 989
122 748
122 649
122 499
122 123
122 637
122 695
122 191
122 744
122 233
122 255
122 779
122 841
122 348
122 901
122 401
122 404
122 241
122 371
122 462
123 267
123 628
123 767
123 320
123 677
123 397
123 466
123 842
123 380
123 427
123 760
123 325
123 195
123 779
123 191
123 373
123 348
123 990
123 550
123 433
123 830
123 449
123 399
123 911
123 977
123 799
123 695
123 233
123 209
123 415
123 178
123 284
123 437
123 272
123 822
123 483
123 490
123 843
123 972
123 306
123 381
123 731
123 784
123 412
123 125
123 472
123 623
123 844
123 471
123 356
123 630
123 694
123 637
123 642
123 744
123 761
123 841
123 867
123 401
123 518
123 676
123 698
123 626
123 854
123 564
124 407
124 624
124 841
124 901
124 428
124 457
124 514
124 518
124 300
124 593
124 866
124 883
124 884
124 803
124 201
124 981
124 634
124 485
124 270
124 343
124 608
124 150
124 801
124 142
124 452
124 211
124 370
125 513
125 171
125 689
125 958
125 719
125 350
125 882
125 500
125 994
125 382
125 950
125 240
125 559
125 664
125 494
125 337
125 673
125 464
125 606
125 777
125 885
125 507
126 519
126 758
126 555
126 592
126 627
126 465
126 679
126 995
126 976
126 559
126 190
126 505
126 244
126 297
126 132
126 690
126 832
126 369
126 886
126 949
126 454
126 967
126 457
126 485
126 740
126 606
127 358
127 442
127 475
127 990
127 991
127 864
127 391
127 436
127 652
127 141
127 359
127 876
127 234
128 296
128 592
128 791
128 814
128 369
128 406
128 353
128 243
128 894
128 737
128 651
128 548
128 317
128 670
128 609
128 236
128 482
128 790
128 131
128 277
128 523
128 362
128 144
128 407
128 809
128 251
128 209
128 834
128 520
129 523
129 972
129 486
129 592
129 995
129 981
129 813
129 329
129 770
129 801
129 556
129 564
129 932
129 215
130 237
130 870
130 563
130 517
130 430
130 861
130 364
130 669
130 796
130 895
130 734
130 583
130 462
130 510
130 529
130 917
130 411
130 412
130 675
130 295
130 688
130 565
130 699
130 589
130 351
130 608
130 374
130 598
130 914
131 237
131 268
131 169
131 484
131 547
131 298
131 151
131 498
131 834
131 236
131 651
131 893
131 372
131 548
131 147
131 533
131 183
131 666
131 391
131 923
131 617
131 790
131 386
131 492
131 662
132 867
132 878
132 618
132 616
132 133
132 229
132 514
132 296
132 606
132 879
132 690
132 814
132 850
132 369
132 886
132 926
132 454
132 967
132 465
132 995
132 485
132 495
132 883
132 386
132 497
133 480
133 191
133 272
133 206
133 616
133 627
133 312
133 573
133 166
133 632
133 229
133 814
133 832
133 850
133 369
133 419
133 949
133 454
133 967
133 501
133 467
133 301
133 435
133 933
133 273
134 771
134 519
134 268
134 531
134 307
134 315
134 576
134 847
134 347
134 560
134 630
134 444
134 945
134 606
134 154
134 304
134 346
134 486
134 147
134 446
134 193
134 505
134 575
134 841
134 555
134 974
134 436
134 458
134 151
134 684
134 860
134 482
135 848
135 612
135 563
135 765
135 177
135 786
135 868
135 255
135 969
135 551
135 684
135 947
135 398
135 851
135 511
135 216
135 450
135 903
135 324
135 226
135 800
135 819
135 490
135 143
135 312
135 424
135 881
135 442
135 207
135 598
135 251
135 648
135 659
135 151
135 698
135 722
135 736
135 738
135 809
135 435
136 870
136 646
136 418
136 637
136 799
136 642
136 191
136 449
136 972
136 901
136 921
136 178
136 164
136 696
136 752
136 209
136 841
136 887
136 162
136 824
136 386
136 945
136 599
136 500
136 712
136 233
136 779
136 348
136 401
136 415
136 977
136 990
136 918
136 722
136 354
136 413
137 523
137 570
137 575
137 628
137 640
137 631
137 407
137 176
137 288
137 954
137 621
137 271
137 246
137 400
137 486
137 353
137 805
137 921
137 543
137 156
137 685
137 179
137 786
137 794
137 811
137 826
137 849
137 356
137 358
137 761
137 841
137 165
137 708
137 366
137 386
138 374
138 745
138 288
138 358
138 979
138 967
138 406
138 973
138 781
138 521
138 542
138 888
138 221
138 853
138 626
138 649
138 575
138 342
138 204
138 940
138 665
138 990
138 680
138 755
139 744
139 428
139 486
139 863
139 540
139 292
139 161
139 189
139 935
139 152
139 409
139 159
139 313
139 606
139 370
139 820
139 928
139 639
139 384
140 568
140 240
140 580
140 725
140 214
140 148
140 785
140 366
140 797
140 656
140 446
140 596
140 229
140 536
140 906
140 257
140 925
141 363
141 513
141 786
141 790
141 402
141 559
141 157
141 470
141 359
142 519
142 232
142 575
142 254
142 768
142 593
142 753
142 981
142 518
142 262
142 866
142 991
142 201
142 452
142 514
142 456
142 467
142 750
142 987
142 915
142 705
142 144
142 717
142 213
142 711
142 883
142 198
142 224
142 166
142 643
142 404
142 664
142 684
142 775
142 786
142 656
142 702
142 187
142 419
142 190
142 778
142 478
142 743
142 413
142 881
142 540
142 481
142 342
142 165
142 241
142 535
142 660
143 405
143 576
143 205
143 356
143 486
143 157
143 668
143 877
143 670
143 651
143 317
143 236
143 372
143 737
143 482
143 741
143 305
143 338
143 632
143 906
143 213
143 256
143 921
143 985
143 790
143 304
143 609
143 746
143 289
143 215
144 531
144 176
144 758
144 481
144 262
144 532
144 593
144 866
144 884
144 705
144 452
144 224
144 935
144 661
145 771
145 653
145 561
145 645
145 899
145 767
145 756
145 815
145 418
145 546
145 184
145 484
145 368
145 886
145 395
145 613
145 801
146 537
146 719
146 631
146 296
146 874
146 993
146 536
146 586
146 606
146 280
146 908
146 910
146 916
146 599
146 472
146 400
146 906
146 672
146 241
146 459
146 994
146 976
146 215
146 541
146 314
146 815
146 514
146 909
146 649
146 157
146 676
146 165
146 199
146 782
146 301
146 311
146 370
146 406
146 458
146 988
146 511
147 608
147 945
147 519
147 267
147 268
147 553
147 560
147 307
147 576
147 590
147 347
147 748
147 212
147 771
147 656
147 463
147 798
147 162
147 732
147 996
147 734
147 989
147 266
147 425
147 362
147 881
147 229
147 689
147 969
147 512
147 403
147 918
147 800
147 193
147 464
147 248
147 505
147 571
147 522
147 813
148 596
148 725
148 422
148 543
148 171
148 491
148 390
148 420
148 900
148 926
148 737
149 833
149 706
149 588
149 848
149 275
149 610
149 614
149 607
149 650
149 537
149 683
149 921
149 182
149 612
149 646
149 321
149 582
149 535
150 291
150 177
150 899
150 554
150 230
150 696
150 760
150 161
150 419
150 995
150 873
150 521
150 269
150 853
151 775
151 659
151 324
151 663
151 736
151 318
151 951
151 766
151 959
151 339
151 309
151 684
151 435
151 186
151 809
151 398
151 754
151 903
151 788
151 354
151 333
151 698
151 860
151 938
151 583
151 983
151 873
151 511
151 957
151 260
151 919
151 489
151 671
151 648
151 661
151 939
151 558
151 226
151 787
151 800
151 738
151 693
151 668
151 265
151 820
151 704
151 445
151 218
151 389
151 159
151 294
151 193
151 749
151 392
151 330
151 246
151 689
151 551
151 977
151 283
151 240
151 506
151 321
151 320
151 967
151 875
151 609
151 539
151 858
151 290
151 722
151 244
151 774
151 497
152 516
152 177
152 549
152 682
152 654
152 291
152 971
152 723
152 569
152 587
152 432
152 815
152 624
152 374
152 978
152 672
152 316
152 420
152 338
152 794
152 900
152 807
152 995
152 482
152 777
152 207
153 706
153 256
153 526
153 525
153 180
153 694
153 238
153 172
153 892
153 460
153 700
153 518
153 416
153 185
153 760
153 242
153 995
153 644
153 372
154 263
154 195
154 313
154 536
154 547
154 586
154 578
154 199
154 438
154 335
154 634
154 190
154 825
154 241
154 780
154 538
154 916
154 277
154 687
154 936
154 606
154 772
154 713
154 280
154 667
154 714
154 436
154 160
154 910
154 941
154 406
154 672
154 390
154 291
154 501
154 856
154 880
154 768
154 455
154 252
154 682
154 302
154 234
154 282
154 394
154 934
154 940
154 974
154 820
154 311
154 680
154 497
154 507
155 464
155 229
155 629
155 511
155 226
155 671
155 754
155 903
155 757
155 698
155 785
155 499
155 286
155 377
155 778
155 722
155 735
155 244
155 398
155 919
155 983
156 523
156 575
156 646
156 504
156 890
156 174
156 966
156 666
156 819
156 869
156 778
156 571
156 271
156 898
156 175
156 288
156 685
156 205
156 797
156 955
156 387
156 922
156 794
156 831
156 838
156 480
156 657
156 204
156 286
156 709
156 408
156 954
156 880
156 758
156 296
156 811
156 356
156 475
156 493
156 343
156 572
156 697
156 338
156 552
156 833
156 274
156 951
156 435
156 438
156 561
156 496
156 619
156 889
156 213
156 169
156 176
156 253
156 254
156 786
156 321
156 358
156 920
156 927
156 425
156 557
156 722
156 738
156 812
156 207
157 589
157 630
157 264
157 761
157 427
157 547
157 586
157 591
157 606
157 714
157 676
157 316
157 936
157 538
157 961
157 406
157 280
157 672
157 391
157 366
157 311
157 509
157 726
157 780
157 634
157 594
157 400
157 472
157 964
157 573
157 183
157 914
157 328
157 782
157 551
157 772
157 864
157 536
157 396
157 301
157 160
157 416
157 451
157 713
157 165
157 935
157 635
157 445
157 401
157 368
157 748
157 822
157 530
157 348
157 962
157 611
157 819
157 943
157 926
157 441
157 777
157 900
157 327
157 565
157 449
157 662
157 627
157 199
157 721
157 217
157 241
157 298
157 312
157 906
157 477
158 432
158 899
158 645
158 527
158 484
158 999
158 868
158 375
158 247
158 762
158 297
158 567
158 230
158 763
158 510
158 725
158 985
158 518
158 717
158 438
159 193
159 826
159 920
159 900
159 784
159 409
159 313
159 189
159 161
159 274
159 924
159 863
159 929
159 915
159 167
159 934
159 391
159 186
159 745
159 438
160 575
160 819
160 826
160 510
160 862
160 536
160 606
160 635
160 241
160 451
160 316
160 889
160 390
160 547
160 436
160 713
160 964
160 190
160 906
160 573
160 392
160 916
160 936
160 586
160 918
160 289
160 163
160 584
160 596
160 932
160 622
160 276
160 515
160 297
160 291
160 769
160 165
160 217
160 298
160 301
160 311
160 312
160 366
160 406
160 935
160 988
160 743
160 492
161 575
161 681
161 233
161 274
161 409
161 540
161 863
161 784
161 692
161 801
161 664
161 624
161 292
161 313
161 606
161 165
161 953
162 258
162 519
162 267
162 531
162 798
162 553
162 560
162 590
162 347
162 674
162 981
162 567
162 193
162 464
162 264
162 313
162 340
162 165
162 270
163 706
163 628
163 900
163 285
163 874
163 322
163 807
163 231
163 591
163 682
163 730
163 294
163 582
163 585
163 481
163 228
163 784
163 404
163 539
164 295
164 181
164 972
164 677
164 466
164 843
164 665
164 218
164 391
164 943
164 460
164 195
164 728
164 744
164 233
164 761
164 841
164 348
164 867
164 401
164 428
164 977
164 585
164 804
164 625
164 377
165 358
165 533
165 551
165 578
165 644
165 436
165 586
165 312
165 190
165 536
165 599
165 538
165 910
165 336
165 916
165 941
165 702
165 301
165 864
165 352
165 780
165 782
165 217
165 370
165 423
165 828
165 395
165 672
165 406
165 772
165 825
165 416
165 199
165 396
165 280
165 914
165 391
165 708
165 634
165 961
165 385
165 918
165 547
165 594
165 726
165 879
165 988
165 183
165 438
165 451
165 591
165 964
165 323
165 573
165 248
165 799
165 320
165 252
165 959
165 855
165 990
165 775
165 902
165 259
165 247
165 549
165 434
165 819
165 833
165 485
165 394
165 318
165 791
165 633
165 940
165 749
165 202
165 649
165 366
165 906
165 458
165 957
165 270
165 170
166 728
166 512
166 300
166 593
166 884
166 736
166 408
166 944
166 962
166 467
166 224
166 676
166 820
167 487
167 240
167 516
167 405
167 420
167 815
167 299
167 971
167 682
167 432
167 844
167 561
167 607
167 856
167 955
167 569
167 440
167 284
167 967
167 774
167 293
167 809
167 789
168 699
168 444
168 628
168 644
168 406
168 906
168 769
168 548
168 505
168 655
168 199
168 721
168 217
168 301
168 311
168 312
168 864
168 366
168 458
168 259
168 564
168 215
169 420
169 523
169 571
169 575
169 628
169 358
169 296
169 321
169 922
169 912
169 955
169 179
169 205
169 264
169 442
169 288
169 480
169 641
169 890
169 253
169 831
169 709
169 387
169 356
169 685
169 898
169 407
169 869
169 349
169 504
169 638
169 640
169 362
169 246
169 646
169 326
169 750
169 492
169 668
169 516
169 943
169 399
169 203
169 798
169 617
169 453
169 929
169 174
169 718
169 758
169 254
169 794
169 797
169 811
169 838
169 920
169 979
169 698
169 735
169 743
170 794
170 898
170 284
170 453
170 714
170 391
170 722
170 893
170 257
170 824
170 818
170 595
170 421
170 207
170 793
170 678
170 203
170 548
170 404
170 435
170 344
170 682
170 423
170 208
171 845
171 235
171 382
171 513
171 719
171 689
171 950
171 882
171 500
171 520
171 678
171 365
171 649
171 350
171 994
171 240
171 734
171 979
171 846
171 293
171 341
172 688
172 945
172 525
172 526
172 238
172 256
172 180
172 572
172 828
172 424
172 827
172 543
172 876
172 920
172 284
172 425
172 457
172 290
172 676
173 374
173 464
173 718
173 178
173 883
173 458
173 788
173 919
173 953
173 770
173 515
173 789
173 801
173 818
173 595
173 932
173 686
173 215
174 210
174 560
174 646
174 666
174 681
174 504
174 831
174 640
174 970
174 408
174 440
174 869
174 802
174 286
174 480
174 418
174 321
174 794
174 811
174 349
174 819
174 246
174 930
174 975
174 379
174 709
174 685
174 758
174 739
174 570
174 657
174 944
174 979
174 641
174 631
174 621
174 718
174 204
174 358
174 455
174 826
174 780
174 342
174 807
174 655
174 600
174 929
174 967
174 336
174 763
174 406
174 725
174 848
174 931
174 179
174 205
174 254
174 264
174 786
174 838
174 356
174 890
174 922
174 927
174 415
174 592
174 583
174 707
174 743
174 234
174 462
175 640
175 646
175 666
175 681
175 657
175 826
175 571
175 362
175 575
175 811
175 794
175 912
175 920
175 504
175 455
175 718
175 356
175 786
175 927
175 349
175 179
175 326
175 295
175 519
175 512
175 730
175 211
175 366
175 503
175 915
175 614
175 191
175 176
175 254
175 264
175 869
175 979
175 978
175 597
175 324
175 877
175 227
176 575
176 646
176 666
176 685
176 758
176 920
176 811
176 869
176 407
176 631
176 205
176 296
176 204
176 480
176 362
176 819
176 442
176 970
176 709
176 657
176 570
176 361
176 979
176 966
176 831
176 286
176 890
176 254
176 808
176 898
176 271
176 718
176 922
176 455
176 641
176 246
176 523
176 830
176 705
176 901
176 752
176 691
176 673
176 559
176 400
176 680
176 311
176 682
176 764
176 386
176 179
176 264
176 778
176 826
176 321
176 358
176 975
176 331
177 654
177 549
177 291
177 682
177 299
177 816
177 432
177 587
177 202
177 210
177 516
177 569
177 338
177 844
177 600
177 224
177 492
177 798
177 296
177 922
177 598
177 233
177 841
177 864
177 964
177 372
177 329
178 519
178 922
178 550
178 637
178 760
178 415
178 921
178 969
178 830
178 677
178 466
178 810
178 437
178 665
178 799
178 900
178 700
178 209
178 972
178 272
178 752
178 841
178 273
178 998
178 920
178 189
178 453
178 554
178 212
178 933
178 696
178 191
178 744
178 255
178 779
178 284
178 348
178 867
178 401
178 427
178 433
178 522
178 591
178 309
178 670
178 521
178 885
179 275
179 360
179 734
179 523
179 570
179 575
179 628
179 264
179 631
179 922
179 571
179 912
179 786
179 745
179 361
179 638
179 811
179 954
179 955
179 475
179 709
179 826
179 802
179 927
179 504
179 379
179 902
179 838
179 890
179 254
179 898
179 681
179 182
179 343
179 715
179 974
179 285
179 556
179 901
179 965
179 614
179 774
179 184
179 639
179 699
179 636
179 757
179 235
179 945
179 205
179 794
179 288
179 356
179 358
179 407
179 920
179 953
180 256
180 525
180 526
180 945
180 572
180 238
180 892
180 463
180 981
180 251
180 185
180 927
180 555
180 188
180 639
181 590
181 575
181 637
181 901
181 752
181 520
181 493
181 899
181 195
181 209
181 728
181 284
181 841
181 348
181 900
181 401
181 415
181 427
181 977
181 454
181 877
181 707
181 909
181 506
182 523
182 570
182 640
182 718
182 723
182 225
182 648
182 454
182 254
182 264
182 786
182 794
182 288
182 296
182 826
182 869
182 358
182 920
182 927
182 979
182 199
182 743
183 530
183 307
183 681
183 407
183 536
183 551
183 578
183 316
183 190
183 538
183 994
183 552
183 717
183 897
183 917
183 885
183 199
183 301
183 366
183 906
183 406
183 935
183 436
183 757
183 197
184 563
184 531
184 838
184 645
184 653
184 527
184 546
184 567
184 624
184 561
184 510
184 368
184 375
184 598
184 461
184 896
184 554
184 982
184 769
184 623
184 868
184 763
184 937
184 765
184 698
184 716
184 772
184 880
184 416
184 423
184 317
184 947
184 887
184 885
184 508
184 484
184 230
184 211
184 773
184 551
184 573
184 817
184 671
184 738
184 249
185 256
185 525
185 526
185 238
185 572
185 710
185 340
185 748
185 553
185 446
185 758
185 642
185 665
185 441
185 846
185 518
185 684
185 756
185 386
185 515
186 407
186 664
186 659
186 362
186 807
186 995
186 704
186 722
186 757
186 800
186 809
186 873
186 431
187 779
187 918
187 829
187 344
187 534
187 600
187 541
187 310
187 343
187 303
187 960
187 365
188 394
188 575
188 621
188 867
188 298
188 566
188 848
188 930
188 448
188 922
188 829
188 365
188 698
188 367
189 315
189 989
189 794
189 920
189 540
189 313
189 784
189 409
189 431
189 999
189 590
189 566
189 618
189 419
189 452
190 394
190 351
190 288
190 849
190 561
190 375
190 454
190 533
190 644
190 511
190 298
190 301
190 366
190 438
190 244
191 913
191 718
191 550
191 665
191 677
191 696
191 830
191 449
191 901
191 490
191 761
191 712
191 842
191 911
191 284
191 921
191 427
191 841
191 255
191 486
191 433
191 660
191 234
191 305
191 344
191 833
191 722
191 984
191 610
191 461
191 195
191 744
191 233
191 306
191 822
191 325
191 867
191 401
191 485
191 482
192 646
192 407
192 428
192 518
192 300
192 866
192 883
192 884
192 532
192 981
192 803
192 503
192 472
192 259
192 372
192 612
192 660
192 211
192 756
193 360
193 553
193 307
193 576
193 734
193 656
193 414
193 248
193 771
193 464
193 315
193 847
193 989
193 530
193 268
193 630
193 602
193 212
193 732
193 267
193 560
193 748
193 463
193 505
193 519
193 266
193 444
193 258
193 232
193 798
193 446
193 916
193 760
193 956
193 337
193 309
193 566
193 909
193 214
193 326
193 202
193 435
193 712
193 489
193 579
193 687
193 598
193 195
193 252
193 452
193 217
193 684
193 788
193 636
194 653
194 792
194 582
194 749
194 648
194 820
194 324
194 355
194 951
194 577
194 682
194 834
194 459
194 905
194 595
195 844
195 637
195 642
195 695
195 990
195 380
195 483
195 490
195 677
195 233
195 397
195 473
195 427
195 810
195 728
195 842
195 272
195 700
195 843
195 209
195 911
195 921
195 969
195 934
195 373
195 255
195 752
195 449
195 830
195 665
195 399
195 931
195 779
195 841
195 429
195 320
195 284
195 900
195 760
195 348
195 712
195 932
195 556
195 250
195 585
195 338
195 376
195 525
195 974
195 650
195 596
195 723
195 493
195 579
195 592
195 954
195 225
195 347
195 744
195 867
195 901
195 401
195 972
195 252
195 522
195 329
196 596
196 714
196 298
196 370
196 918
196 515
196 801
196 818
196 564
196 933
196 327
196 825
196 333
196 541
196 207
196 215
196 494
197 240
197 797
197 408
197 948
197 225
197 964
197 372
197 542
197 310
197 378
197 923
197 259
197 245
197 577
197 756
197 783
197 477
197 377
197 535
197 660
197 925
197 227
197 223
197 431
197 520
197 270
197 384
197 329
197 507
197 821
197 424
197 492
197 620
197 393
197 282
197 873
197 667
197 879
197 696
197 965
197 730
197 973
197 706
197 397
197 421
197 787
197 441
197 769
197 743
197 234
197 777
197 813
197 854
197 885
197 933
197 488
198 669
198 811
198 313
198 262
198 518
198 883
198 884
198 705
198 452
198 211
198 224
198 988
198 960
198 648
199 315
199 902
199 967
199 533
199 606
199 644
199 312
199 918
199 714
199 423
199 538
199 941
199 241
199 935
199 973
199 395
199 438
199 335
199 687
199 828
199 594
199 721
199 301
199 551
199 447
199 762
199 830
199 682
199 544
199 212
199 607
199 497
199 444
199 770
199 741
199 976
199 771
199 730
199 239
199 564
199 217
199 366
199 738
199 809
199 354
199 660
199 223
199 283
199 492
200 307
200 758
200 263
200 294
200 453
200 582
200 856
200 978
200 337
200 788
200 232
200 738
200 466
200 993
200 585
200 228
200 206
200 217
200 333
200 488
201 641
201 768
201 518
201 300
201 593
201 883
201 705
201 452
201 717
201 915
201 222
201 203
201 643
201 514
201 564
201 575
201 674
201 586
201 922
201 323
201 760
201 601
201 220
201 224
201 998
201 606
201 635
201 312
201 877
201 925
201 477
202 405
202 420
202 549
202 291
202 682
202 816
202 432
202 569
202 923
202 465
202 844
202 338
202 325
202 252
202 926
202 949
202 302
202 722
202 852
202 331
203 768
203 705
203 452
203 866
203 991
203 514
203 472
203 641
203 908
203 380
203 446
203 224
203 740
203 770
204 917
204 523
204 575
204 628
204 640
204 826
204 808
204 898
204 938
204 658
204 524
204 807
204 830
204 205
204 811
204 321
204 838
204 890
204 407
204 920
204 408
204 442
204 369
204 635
204 562
205 575
205 646
205 666
205 628
205 970
205 442
205 831
205 890
205 794
205 920
205 253
205 349
205 475
205 523
205 504
205 621
205 631
205 975
205 902
205 418
205 321
205 361
205 930
205 849
205 944
205 362
205 246
205 912
205 408
205 640
205 254
205 683
205 432
205 620
205 238
205 485
205 417
205 751
205 884
205 364
205 663
205 775
205 415
205 497
205 437
205 490
205 264
205 778
205 296
205 811
205 838
205 358
205 407
205 927
205 942
205 584
205 542
206 526
206 441
206 742
206 579
206 469
206 611
206 219
206 948
206 252
206 278
206 443
206 766
206 470
206 220
206 891
206 627
206 436
206 600
206 359
206 756
207 811
207 233
207 810
207 485
207 573
207 668
207 770
207 801
207 818
207 564
207 595
207 932
207 678
207 303
207 686
207 298
207 774
207 368
207 803
207 483
207 644
207 539
208 627
208 850
208 659
208 873
208 770
208 801
208 818
208 686
208 823
208 793
208 515
208 789
208 343
208 319
208 593
208 250
208 415
208 388
208 535
208 687
208 491
209 944
209 637
209 255
209 483
209 841
209 247
209 779
209 931
209 901
209 799
209 934
209 911
209 427
209 410
209 810
209 761
209 320
209 665
209 654
209 780
209 778
209 242
209 231
209 270
209 594
209 430
209 766
209 848
209 744
209 233
209 284
209 867
209 380
209 401
209 921
209 886
209 926
209 962
209 615
209 547
209 488
209 932
210 405
210 420
210 682
210 299
210 432
210 516
210 569
210 291
210 757
210 784
210 338
210 321
210 585
210 782
210 885
211 553
211 601
211 926
211 514
211 532
211 803
211 300
211 593
211 884
211 987
211 740
211 222
211 705
211 768
211 664
211 512
211 224
211 213
211 822
211 361
211 281
211 824
211 813
211 861
211 823
211 699
211 981
211 804
211 783
212 719
212 519
212 798
212 590
212 847
212 630
212 444
212 446
212 727
212 243
212 869
212 898
212 527
212 624
212 585
212 886
212 547
213 266
213 530
213 347
213 512
213 768
213 532
213 300
213 593
213 883
213 884
213 705
213 224
213 281
213 613
214 295
214 442
214 596
214 580
214 581
214 643
214 532
214 784
214 984
214 369
214 300
214 884
214 298
214 396
214 957
215 870
215 768
215 770
215 818
215 932
215 421
215 793
215 789
215 249
215 343
215 762
215 823
215 515
215 678
215 595
215 319
215 491
215 801
215 662
215 730
215 494
215 747
215 303
215 686
215 891
215 311
215 371
215 333
215 522
215 938
215 761
215 496
215 536
215 226
215 241
215 357
216 361
216 645
216 470
216 503
216 722
216 951
216 943
216 479
216 551
216 956
216 738
216 774
216 281
216 800
216 293
216 860
216 919
216 413
216 953
216 371
216 386
216 730
217 608
217 363
217 892
217 656
217 839
217 551
217 578
217 599
217 676
217 908
217 782
217 635
217 721
217 825
217 250
217 336
217 280
217 436
217 591
217 988
217 370
217 392
217 726
217 509
217 889
217 964
217 458
217 606
217 241
217 596
217 340
217 344
217 836
217 866
217 844
217 724
217 760
217 627
217 359
217 595
217 301
217 311
217 312
217 395
217 406
217 935
217 625
217 933
217 492
218 549
218 555
218 967
218 658
218 659
218 671
218 698
218 704
218 489
218 672
218 301
218 769
218 510
218 412
218 468
218 736
218 738
218 244
218 809
218 354
218 877
218 953
218 378
218 925
219 441
219 579
219 846
219 381
219 220
219 759
219 469
219 479
219 559
219 791
219 785
219 264
219 252
219 627
219 768
219 447
220 296
220 546
220 948
220 697
220 579
220 846
220 742
220 471
220 469
220 611
220 252
220 891
220 479
220 345
220 759
220 871
220 381
220 499
220 840
220 473
220 700
220 922
220 657
220 675
220 258
220 890
220 819
220 317
220 283
220 850
220 684
220 738
220 324
220 932
221 838
221 988
221 698
221 738
221 649
221 542
221 476
221 853
221 855
221 626
221 465
221 568
221 467
221 808
221 888
222 950
222 356
222 300
222 593
222 883
222 884
222 452
222 467
222 308
222 541
222 750
222 436
222 671
222 492
223 881
223 268
223 826
223 379
223 592
223 601
223 852
223 620
223 727
223 751
223 377
223 310
223 388
223 502
223 660
223 905
223 283
223 854
223 756
223 431
223 885
223 329
223 813
223 577
223 528
223 933
223 474
223 821
223 331
223 925
223 261
223 733
223 393
223 859
223 234
223 259
223 460
223 585
223 354
223 272
223 760
223 260
223 867
223 855
223 471
223 819
223 657
223 947
223 703
223 475
223 774
223 783
223 824
223 341
223 371
223 462
223 497
224 641
224 593
224 883
224 884
224 962
224 452
224 514
224 981
224 262
224 664
224 717
224 753
224 987
224 300
224 643
224 404
224 991
224 750
224 915
224 532
224 467
224 803
224 866
224 478
224 702
224 428
224 792
224 540
224 802
224 538
224 677
224 741
224 344
224 926
224 346
224 605
224 312
224 704
224 755
224 770
224 818
225 621
225 579
225 470
225 522
225 616
225 627
225 690
225 974
225 832
225 242
225 369
225 967
225 425
225 496
225 342
225 850
225 902
225 712
225 554
225 710
225 538
225 565
225 638
225 896
225 666
225 229
225 926
225 949
225 454
225 465
225 995
225 485
225 698
225 774
225 559
225 497
226 248
226 325
226 884
226 659
226 698
226 833
226 845
226 800
226 812
226 873
226 919
226 413
226 953
226 834
226 824
227 902
227 348
227 935
227 534
227 731
227 620
227 727
227 234
227 756
227 259
227 813
227 824
227 329
227 341
227 371
227 885
227 933
227 492
227 497
227 507
227 801
228 571
228 797
228 453
228 585
228 862
228 493
228 992
228 322
228 874
228 878
228 231
228 597
228 978
228 481
228 946
228 835
228 327
228 285
228 856
228 337
228 702
228 559
228 297
228 752
228 339
228 565
228 742
228 346
228 919
228 562
228 378
228 506
228 494
229 580
229 867
229 555
229 627
229 690
229 832
229 995
229 419
229 501
229 926
229 952
229 425
229 334
229 949
229 887
229 242
229 974
229 886
229 827
229 976
229 496
229 454
229 716
229 524
229 839
229 457
229 836
229 468
229 439
229 465
229 495
229 330
229 814
229 616
229 967
229 592
229 993
229 942
229 601
229 369
229 679
229 963
229 965
229 986
229 342
229 898
229 818
229 692
229 279
229 647
229 702
229 322
229 287
229 346
229 362
229 420
229 806
229 434
229 236
229 871
229 615
229 978
229 423
229 658
229 508
229 366
229 983
229 824
230 811
230 896
230 899
230 645
230 527
230 554
230 461
230 982
230 598
230 868
230 484
230 510
230 368
230 805
230 375
230 905
230 947
230 822
230 657
230 723
230 952
230 637
230 574
231 807
231 294
231 946
231 835
231 453
231 585
231 481
231 746
231 671
231 995
231 236
231 386
232 258
232 519
232 530
232 553
232 307
232 656
232 674
232 464
232 266
232 648
232 372
232 289
232 505
232 637
232 931
232 800
232 904
233 360
233 235
233 296
233 637
233 677
233 712
233 744
233 972
233 284
233 373
233 348
233 320
233 977
233 841
233 272
233 415
233 399
233 830
233 696
233 842
233 429
233 483
233 921
233 990
233 931
233 473
233 397
233 255
233 695
233 911
233 401
233 247
233 490
233 428
233 486
233 437
233 846
233 816
233 716
233 257
233 820
233 824
233 317
233 581
233 370
233 418
233 590
233 837
233 485
233 937
233 682
233 752
233 761
233 867
233 900
233 901
234 296
234 761
234 704
234 269
234 528
234 535
234 707
234 751
234 426
234 477
234 577
234 875
234 431
234 502
234 727
234 905
234 378
234 388
234 507
234 393
234 743
234 854
234 341
234 417
234 777
234 813
234 506
234 310
234 270
234 783
234 367
234 933
234 282
234 478
234 821
234 245
234 497
234 287
234 460
234 755
234 261
234 434
234 386
234 647
234 724
234 331
234 424
234 660
234 259
234 499
234 629
234 494
234 295
234 263
234 481
234 586
234 237
234 581
234 708
234 482
234 496
234 962
234 257
234 874
234 731
234 824
234 371
234 885
234 909
234 925
234 488
234 770
235 950
235 958
235 845
235 719
235 350
235 994
235 955
235 347
235 257
235 882
235 856
235 995
235 485
235 241
235 918
235 820
235 413
235 925
235 462
235 494
236 841
236 433
236 929
236 419
236 795
236 609
236 482
236 856
236 536
236 371
236 683
236 354
236 885
237 412
237 669
237 295
237 430
237 688
237 563
237 699
237 568
237 589
237 861
237 608
237 360
237 504
237 460
237 771
237 590
237 931
237 479
237 813
237 933
238 256
238 525
238 526
238 391
238 361
238 261
238 694
238 347
238 758
238 407
238 325
238 931
238 692
238 627
238 245
239 571
239 401
239 300
239 705
239 452
239 981
239 711
239 396
239 691
239 818
239 770
240 513
240 950
240 958
240 719
240 994
240 882
240 689
240 350
240 382
240 896
240 931
240 500
240 920
240 877
240 371
240 933
241 349
241 252
241 622
241 536
241 547
241 578
241 586
241 591
241 606
241 721
241 277
241 644
241 406
241 423
241 726
241 458
241 436
241 533
241 395
241 335
241 702
241 714
241 935
241 667
241 298
241 782
241 973
241 451
241 396
241 713
241 551
241 328
241 676
241 594
241 280
241 941
241 336
241 828
241 635
241 914
241 370
241 352
241 573
241 311
241 366
241 835
241 637
241 669
241 742
241 583
241 768
241 361
241 967
241 881
241 314
241 690
241 453
241 759
241 698
241 872
241 767
241 327
241 898
241 977
241 840
241 918
241 309
241 367
241 885
242 565
242 642
242 555
242 592
242 690
242 716
242 794
242 979
242 814
242 832
242 369
242 886
242 419
242 949
242 454
242 967
242 465
242 485
242 501
242 413
242 756
242 801
243 779
243 433
243 454
243 897
243 749
243 244
243 795
243 804
243 834
243 603
244 565
244 254
244 664
244 586
244 599
244 782
244 558
244 659
244 698
244 754
244 959
244 629
244 851
244 800
244 265
244 704
244 691
244 766
244 903
244 735
244 376
244 860
244 281
244 260
244 873
244 757
244 324
244 957
244 445
244 413
244 332
244 545
244 990
244 927
244 864
244 638
244 672
244 750
244 532
244 881
244 890
244 955
244 744
244 785
244 877
244 919
244 435
244 953
244 609
244 777
245 487
245 570
245 321
245 814
245 860
245 535
245 707
245 755
245 756
245 907
245 923
245 813
245 502
245 492
245 388
245 909
245 462
245 507
245 329
245 373
245 842
245 810
245 398
245 880
245 344
245 588
245 490
245 968
245 461
245 259
245 777
245 824
245 933
245 426
245 488
246 519
246 523
246 575
246 621
246 628
246 640
246 646
246 685
246 758
246 657
246 786
246 648
246 659
246 400
246 855
246 505
246 281
246 264
246 811
246 321
246 869
246 407
246 920
246 927
246 573
246 280
246 738
247 922
247 677
247 744
247 728
247 539
247 499
247 319
247 346
247 701
247 841
247 348
247 867
247 433
247 555
247 883
247 698
248 351
248 971
248 266
248 530
248 531
248 798
248 464
248 674
248 732
248 463
248 989
248 734
248 576
248 602
248 630
248 446
248 583
248 972
248 612
248 378
248 605
248 643
248 523
248 744
248 995
248 997
248 438
248 738
248 333
249 264
249 778
249 427
249 746
249 619
249 770
249 801
249 818
249 595
249 686
249 730
249 491
249 558
249 301
249 388
249 617
249 695
250 483
250 409
250 452
250 586
250 606
250 924
250 767
250 906
250 935
250 458
250 988
250 909
250 474
251 517
251 913
251 917
251 411
251 675
251 295
251 688
251 563
251 568
251 589
251 351
251 608
251 364
251 920
251 744
251 841
251 690
251 827
251 711
251 817
251 736
251 354
251 507
252 917
252 826
252 325
252 948
252 846
252 470
252 479
252 611
252 469
252 345
252 499
252 579
252 381
252 471
252 441
252 871
252 891
252 759
252 697
252 732
252 728
252 513
252 329
252 289
252 925
252 418
252 671
252 919
252 813
252 378
253 523
253 571
253 575
253 585
253 772
253 992
253 264
253 288
253 811
253 869
253 922
253 927
253 311
253 370
253 906
253 659
253 492
253 818
254 563
254 571
254 575
254 631
254 666
254 758
254 811
254 966
254 955
254 927
254 794
254 657
254 685
254 819
254 930
254 640
254 442
254 912
254 570
254 296
254 361
254 646
254 718
254 681
254 954
254 727
254 433
254 265
254 824
254 587
254 462
254 372
254 967
254 752
254 650
254 295
254 714
254 828
254 264
254 786
254 321
254 838
254 407
254 920
254 408
254 979
254 325
254 901
254 555
254 509
254 443
254 834
255 630
255 464
255 927
255 637
255 642
255 744
255 761
255 677
255 373
255 486
255 410
255 508
255 623
255 998
255 494
255 685
255 632
255 779
255 284
255 325
255 841
255 401
255 427
255 428
255 977
255 784
255 485
255 536
255 795
255 492
256 892
256 525
256 694
256 378
256 410
256 313
256 478
256 526
256 572
256 553
256 570
256 802
256 869
256 437
256 609
256 853
256 331
256 933
257 360
257 900
257 886
257 485
257 988
257 658
257 877
257 968
257 715
257 459
257 617
257 354
257 520
257 923
257 604
257 331
258 266
258 519
258 505
258 268
258 798
258 315
258 590
258 560
258 410
258 548
258 454
258 332
258 307
258 674
258 446
258 464
258 935
258 273
258 762
259 653
259 712
259 744
259 465
259 883
259 606
259 756
259 377
259 647
259 282
259 858
259 925
259 384
259 474
259 497
259 434
259 310
259 707
259 424
259 331
259 904
259 813
259 660
259 426
259 909
259 492
259 502
259 923
259 751
259 777
259 386
259 783
259 329
259 283
259 462
259 854
259 905
259 478
259 388
259 907
259 733
259 341
259 417
259 477
259 743
259 869
259 776
259 575
259 638
259 656
259 868
259 546
259 521
259 375
259 664
259 264
259 591
259 978
259 689
259 596
259 639
259 900
259 414
259 542
259 299
259 736
259 367
259 885
259 933
259 488
260 927
260 836
260 659
260 698
260 704
260 722
260 703
260 684
260 800
260 682
260 697
260 383
260 881
260 788
260 809
260 860
260 877
260 919
260 413
260 756
260 885
261 368
261 348
261 465
261 512
261 520
261 620
261 743
261 756
261 712
261 356
261 813
261 824
261 329
261 367
261 371
261 885
261 386
261 925
261 488
262 992
262 883
262 750
262 508
262 717
262 705
262 568
262 474
262 317
262 470
262 404
262 467
262 740
262 366
262 365
262 788
262 715
262 426
263 568
263 958
263 567
263 653
263 763
263 690
263 986
263 527
263 546
263 805
263 561
263 598
263 868
263 368
263 510
263 580
263 294
263 942
264 523
264 571
264 575
264 628
264 631
264 666
264 745
264 758
264 778
264 361
264 979
264 955
264 808
264 966
264 927
264 288
264 819
264 970
264 802
264 387
264 286
264 271
264 954
264 831
264 902
264 898
264 826
264 797
264 880
264 455
264 739
264 362
264 912
264 440
264 321
264 890
264 320
264 881
264 678
264 830
264 471
264 484
264 373
264 537
264 482
264 946
264 520
264 623
264 297
264 791
264 905
264 789
264 786
264 296
264 838
264 920
264 922
264 645
264 294
264 995
264 783
265 299
265 286
265 598
265 900
265 659
265 671
265 698
265 722
265 800
265 812
265 873
265 413
265 953
266 771
266 519
266 531
266 505
266 315
266 576
266 734
266 732
266 463
266 921
266 742
266 267
266 268
266 798
266 307
266 464
266 822
266 722
266 877
266 359
267 519
267 414
267 464
267 315
267 656
267 444
267 602
267 734
267 771
267 268
267 590
267 798
267 650
267 311
267 282
267 833
267 413
267 530
267 553
267 847
267 674
267 446
267 505
267 646
267 975
267 593
267 960
267 482
267 932
267 762
268 519
268 576
268 771
268 734
268 307
268 602
268 674
268 347
268 531
268 630
268 530
268 464
268 444
268 769
268 388
268 581
268 598
268 801
268 768
268 365
268 752
268 553
268 446
268 463
268 869
268 867
268 792
268 627
268 750
268 354
268 492
269 307
269 901
269 926
269 468
269 521
269 626
269 649
269 652
269 400
269 434
269 394
269 402
269 542
269 574
269 755
270 794
270 979
270 889
270 535
270 756
270 329
270 905
270 507
270 598
270 420
270 536
270 758
270 824
270 885
270 384
270 925
270 488
271 571
271 575
271 646
271 666
271 758
271 707
271 345
271 887
271 548
271 794
271 296
271 811
271 358
271 407
271 920
271 979
271 744
271 967
271 279
271 578
271 668
271 873
272 610
272 602
272 637
272 399
272 712
272 901
272 354
272 615
272 529
272 284
272 822
272 325
272 841
272 348
272 867
272 401
272 410
272 427
272 398
273 847
273 484
273 312
273 438
273 783
273 331
273 378
273 769
273 426
273 801
273 494
274 694
274 920
274 761
274 415
274 784
274 313
274 448
274 752
274 414
274 812
274 854
275 650
275 588
275 848
275 833
275 537
275 683
275 607
275 706
275 610
275 775
275 823
275 944
275 431
275 612
275 614
275 892
275 983
275 956
276 765
276 516
276 640
276 758
276 524
276 395
276 668
276 735
276 354
276 834
276 548
276 741
276 756
276 739
276 923
276 390
276 639
276 795
276 609
276 482
276 341
277 545
277 920
277 995
277 533
277 536
277 547
277 551
277 412
277 301
277 311
277 312
277 328
277 366
277 395
277 458
277 873
277 777
278 773
278 809
278 756
278 777
278 770
278 595
278 491
278 686
278 678
278 818
278 932
278 386
278 585
278 545
278 769
278 759
278 762
279 568
279 682
279 571
279 321
279 897
279 775
279 701
279 346
279 749
279 773
279 383
279 448
279 581
279 710
279 998
279 615
279 704
279 754
279 426
279 472
279 917
279 944
279 290
279 557
279 447
279 800
279 919
279 813
279 341
279 730
280 674
280 285
280 716
280 465
280 993
280 536
280 578
280 606
280 997
280 836
280 298
280 312
280 366
280 964
280 988
280 558
280 698
280 953
280 724
280 801
281 505
281 794
281 396
281 558
281 698
281 722
281 326
281 684
281 953
281 939
281 757
281 494
281 702
281 826
281 965
281 346
281 656
281 877
281 919
281 413
282 697
282 701
282 528
282 743
282 755
282 777
282 813
282 824
282 854
282 885
282 384
282 386
282 904
282 933
282 488
283 325
283 884
283 606
283 626
283 535
283 756
283 933
283 492
283 506
283 371
283 707
283 417
283 706
283 831
283 420
283 646
283 843
283 898
283 456
283 341
283 462
283 488
283 770
284 519
284 444
284 712
284 744
284 761
284 473
284 779
284 642
284 728
284 830
284 490
284 428
284 931
284 410
284 427
284 429
284 799
284 320
284 752
284 843
284 972
284 437
284 900
284 373
284 911
284 297
284 466
284 550
284 822
284 696
284 401
284 486
284 306
284 867
284 700
284 399
284 665
284 637
284 677
284 842
284 934
284 397
284 433
284 760
284 977
284 841
284 631
284 425
284 933
284 710
284 492
284 806
284 488
284 816
284 956
284 361
284 883
284 609
284 808
284 441
284 787
284 759
284 308
284 476
284 746
284 798
284 832
284 877
284 824
284 378
284 564
285 430
285 628
285 358
285 992
285 605
285 585
285 322
285 980
285 946
285 582
285 856
285 423
285 867
285 473
285 444
285 453
285 862
285 547
285 312
285 817
286 420
286 523
286 628
286 758
286 786
286 794
286 299
286 350
286 977
286 811
286 838
286 849
286 356
286 890
286 920
286 665
286 931
286 601
286 963
286 967
287 405
287 296
287 690
287 468
287 535
287 756
287 367
287 431
287 923
287 856
287 573
287 719
287 962
287 683
287 990
287 329
287 341
287 371
287 885
287 933
287 462
287 488
287 497
287 507
288 523
288 571
288 575
288 628
288 638
288 758
288 440
288 321
288 930
288 408
288 778
288 358
288 455
288 794
288 797
288 975
288 979
288 349
288 715
288 945
288 783
288 427
288 485
288 556
288 865
288 425
288 466
288 452
288 296
288 811
288 356
288 869
288 407
288 927
288 442
288 696
288 298
288 790
288 670
288 378
288 904
289 689
289 591
289 721
289 312
289 406
289 511
289 684
289 562
289 813
290 517
290 464
290 830
290 348
290 814
290 897
290 773
290 775
290 302
290 503
290 615
290 581
290 346
290 710
290 701
290 351
290 923
290 952
290 795
290 461
290 441
290 457
290 557
290 698
291 796
291 405
291 420
291 815
291 587
291 682
291 797
291 907
291 390
291 843
291 432
291 569
291 844
291 358
291 927
291 479
291 556
292 568
292 561
292 784
292 409
292 540
292 313
292 886
292 919
292 572
292 366
292 435
292 371
293 545
293 656
293 464
293 665
293 867
293 415
293 663
293 704
293 736
293 738
293 774
293 785
293 629
293 509
293 924
293 452
293 465
293 609
293 809
293 860
293 354
293 877
293 398
293 413
293 435
293 378
293 552
294 374
294 523
294 628
294 927
294 744
294 807
294 337
294 878
294 322
294 856
294 835
294 493
294 582
294 585
294 779
294 308
294 700
294 532
294 778
294 984
294 327
294 978
294 862
294 481
294 964
294 684
295 517
295 796
295 412
295 669
295 544
295 411
295 699
295 870
295 688
295 563
295 765
295 861
295 430
295 529
295 363
295 360
295 374
295 565
295 545
295 823
295 552
295 697
295 602
295 391
295 403
295 787
295 568
295 589
295 356
295 942
295 995
295 775
295 370
295 671
296 570
296 571
296 575
296 621
296 628
296 631
296 646
296 666
296 758
296 455
296 869
296 831
296 681
296 880
296 379
296 640
296 954
296 838
296 808
296 922
296 944
296 920
296 930
296 321
296 709
296 927
296 786
296 361
296 504
296 418
296 387
296 939
296 840
296 936
296 693
296 720
296 740
296 428
296 451
296 692
296 823
296 800
296 847
296 826
296 358
296 728
296 514
296 698
296 893
296 462
297 382
297 920
297 637
297 642
297 665
297 744
297 761
297 779
297 325
297 841
297 867
297 401
297 410
297 427
297 993
297 606
297 873
297 756
298 638
298 739
298 510
298 585
298 547
298 573
298 606
298 721
298 782
298 301
298 451
298 988
298 713
298 392
298 676
298 935
298 533
298 879
298 864
298 672
298 436
298 889
298 438
298 578
298 536
298 591
298 551
298 336
298 599
298 370
298 312
298 594
298 352
298 914
298 316
298 545
298 456
298 656
298 811
298 647
298 777
298 581
298 621
298 587
298 489
298 882
298 874
298 680
298 985
298 311
298 366
298 395
299 516
299 654
299 405
299 338
299 587
299 723
299 971
299 720
299 642
299 810
299 816
299 432
299 844
299 446
299 975
299 743
299 755
300 612
300 415
300 512
300 753
300 508
300 884
300 991
300 717
300 532
300 962
300 404
300 664
300 981
300 593
300 518
300 883
300 705
300 866
300 500
300 409
300 472
300 437
300 504
300 487
300 499
300 374
300 581
300 369
300 807
300 572
300 584
300 366
300 520
301 505
301 753
301 536
301 634
301 916
301 702
301 416
301 335
301 961
301 644
301 591
301 586
301 551
301 780
301 400
301 635
301 714
301 713
301 458
301 825
301 391
301 594
301 538
301 316
301 472
301 936
301 935
301 667
301 395
301 726
301 973
301 423
301 475
301 500
301 386
301 813
301 799
301 727
301 535
301 819
301 614
301 912
301 776
301 572
301 963
301 596
301 567
301 508
301 732
301 927
301 869
301 366
301 800
302 575
302 401
302 605
302 878
302 773
302 775
302 503
302 346
302 584
302 369
302 824
302 701
302 448
302 622
302 864
302 960
303 650
303 589
303 945
303 920
303 433
303 703
303 459
303 770
303 801
303 585
303 595
303 494
304 363
304 321
304 356
304 582
304 479
304 503
304 721
304 406
304 790
304 482
304 741
304 393
304 694
304 742
304 341
304 639
304 596
304 893
305 833
305 694
305 516
305 763
305 834
305 969
305 824
305 768
305 396
305 968
306 650
306 811
306 744
306 779
306 486
306 550
306 490
306 637
306 410
306 307
306 862
306 464
306 416
306 885
306 348
306 867
306 900
306 401
306 921
306 874
306 555
306 618
306 495
307 861
307 519
307 530
307 444
307 464
307 674
307 734
307 748
307 996
307 590
307 531
307 847
307 656
307 798
307 732
307 560
307 946
307 828
307 738
307 381
307 964
307 723
307 760
307 576
307 446
307 989
307 505
307 523
307 778
307 786
307 480
307 921
307 376
307 528
307 488
307 770
308 523
308 581
308 652
308 559
308 876
308 729
308 370
308 430
308 494
308 471
309 575
309 356
309 779
309 627
309 839
309 698
309 736
309 738
309 812
309 668
309 957
309 787
309 959
309 435
309 450
309 693
309 398
309 903
309 938
309 568
309 485
309 802
309 369
309 725
309 514
309 510
309 469
309 980
309 873
309 919
309 953
310 900
310 931
310 977
310 992
310 750
310 707
310 727
310 755
310 756
310 813
310 912
310 524
310 329
310 371
310 885
310 378
310 386
310 925
310 417
310 933
310 492
311 374
311 882
311 569
311 838
311 949
311 536
311 578
311 586
311 825
311 328
311 316
311 964
311 551
311 336
311 323
311 828
311 406
311 591
311 396
311 879
311 573
311 391
311 908
311 916
311 914
311 606
311 906
311 708
311 714
311 864
311 961
311 385
311 936
311 510
311 984
311 997
311 592
311 673
311 412
311 797
311 319
311 745
311 693
311 641
311 648
311 814
311 356
311 897
311 496
311 824
311 326
311 370
311 395
311 458
311 988
311 735
311 357
311 521
311 756
312 379
312 993
312 533
312 586
312 599
312 864
312 713
312 910
312 634
312 390
312 988
312 370
312 914
312 406
312 780
312 961
312 594
312 702
312 395
312 392
312 573
312 935
312 708
312 667
312 352
312 825
312 538
312 964
312 828
312 726
312 469
312 572
312 703
312 354
312 367
312 698
312 664
312 356
312 736
312 344
312 773
312 689
312 327
312 959
312 777
312 869
312 722
312 820
312 968
313 784
313 409
313 924
313 929
313 985
313 709
313 676
313 530
313 782
313 406
313 812
313 724
314 567
314 850
314 803
314 534
314 365
314 357
314 528
314 717
314 800
314 558
314 938
315 614
315 519
315 798
315 560
315 576
315 347
315 656
315 920
315 567
315 366
315 620
316 408
316 949
316 547
316 578
316 586
316 599
316 606
316 644
316 366
316 906
316 406
316 458
316 698
316 731
316 894
316 813
316 904
317 920
317 637
317 779
317 419
317 790
317 795
317 834
317 609
318 408
318 395
318 558
318 659
318 698
318 722
318 735
318 754
318 809
318 354
318 398
319 996
319 598
319 886
319 727
319 813
319 770
319 801
319 564
319 900
319 604
319 932
319 491
320 374
320 519
320 869
320 361
320 920
320 637
320 665
320 744
320 752
320 822
320 325
320 841
320 348
320 867
320 401
320 415
320 427
320 618
320 454
320 395
321 815
321 523
321 571
321 575
321 646
321 718
321 758
321 638
321 797
321 407
321 880
321 975
321 849
321 872
321 838
321 955
321 794
321 927
321 944
321 628
321 745
321 681
321 641
321 802
321 890
321 912
321 361
321 418
321 442
321 362
321 811
321 808
321 709
321 954
321 739
321 930
321 799
321 736
321 807
321 417
321 701
321 706
321 470
321 695
321 549
321 728
321 740
321 434
321 554
321 517
321 979
321 637
321 742
322 792
322 807
322 946
322 585
322 980
322 493
322 995
322 905
322 835
322 582
322 978
322 481
322 396
323 669
323 682
323 971
323 358
323 606
323 721
323 460
323 777
323 940
323 528
323 725
323 366
323 406
323 436
323 564
324 640
324 527
324 665
324 780
324 908
324 558
324 629
324 661
324 671
324 684
324 731
324 736
324 788
324 800
324 634
324 622
324 897
324 972
324 643
324 742
324 347
324 413
325 347
325 571
325 546
325 637
325 665
325 761
325 728
325 695
325 911
325 437
325 410
325 415
325 373
325 490
325 752
325 550
325 810
325 760
325 744
325 348
325 969
325 428
325 483
325 842
325 934
325 847
325 817
325 845
325 523
325 913
325 956
325 492
325 644
325 841
325 867
325 401
325 486
325 359
325 724
325 662
326 568
326 671
326 698
326 731
326 809
326 812
326 717
326 483
326 913
326 877
326 413
326 813
327 408
327 453
327 582
327 352
327 673
327 634
327 603
327 585
327 978
327 992
327 658
327 754
327 720
327 552
327 564
328 838
328 835
328 495
328 340
328 533
328 547
328 551
328 599
328 606
328 644
328 906
328 935
328 825
328 828
328 941
328 336
328 895
328 550
328 995
328 821
328 601
328 949
328 897
328 659
328 732
328 919
328 747
328 406
328 988
328 507
329 487
329 826
329 972
329 676
329 919
329 535
329 756
329 783
329 434
329 854
329 907
329 751
329 707
329 885
329 905
329 478
329 377
329 875
329 371
329 727
329 386
329 331
329 528
329 520
329 859
329 367
329 424
329 384
329 462
329 620
329 790
329 351
329 950
329 689
329 600
329 596
329 857
329 871
329 990
329 715
329 559
329 603
329 444
329 671
329 955
329 956
329 909
329 925
329 507
329 556
330 734
330 442
330 510
330 592
330 690
330 791
330 814
330 827
330 369
330 926
330 949
330 454
330 468
330 995
330 501
330 820
330 535
330 497
331 745
331 752
331 582
331 658
331 736
331 535
331 707
331 743
331 756
331 824
331 478
331 378
331 506
331 384
331 783
331 393
331 528
331 377
331 751
331 854
331 859
331 367
331 620
331 417
331 502
331 907
331 577
331 497
331 925
331 434
331 602
331 342
331 855
331 465
331 889
331 826
331 888
331 542
331 661
331 685
331 341
331 933
331 488
331 492
332 525
332 553
332 718
332 810
332 822
332 948
332 840
332 659
332 698
332 735
332 774
332 800
332 812
332 398
332 919
332 953
333 975
333 425
333 468
333 536
333 659
333 722
333 809
333 445
333 671
333 735
333 953
333 589
333 515
333 410
333 681
333 433
333 620
333 860
333 354
333 873
333 413
333 762
334 563
334 442
334 862
334 555
334 814
334 832
334 749
334 369
334 926
334 454
334 995
334 485
334 501
334 661
334 939
334 620
335 917
335 433
335 862
335 533
335 586
335 599
335 782
335 366
335 406
335 935
335 964
335 509
335 566
335 704
335 953
335 956
335 933
336 656
336 442
336 579
336 750
336 533
336 547
336 551
336 366
336 370
336 458
336 722
336 756
337 523
337 418
337 624
337 712
337 427
337 972
337 582
337 585
337 556
337 978
337 481
337 611
337 995
337 396
337 854
338 654
338 405
338 549
338 682
338 569
338 723
338 815
338 489
338 632
338 617
338 691
338 898
338 504
338 578
338 403
338 625
339 475
339 862
339 485
339 671
339 684
339 698
339 722
339 736
339 738
339 809
339 354
339 413
339 953
340 405
340 523
340 401
340 773
340 775
340 710
340 581
340 503
340 346
340 998
340 784
340 640
340 925
341 631
341 551
341 599
341 788
341 535
341 777
341 813
341 824
341 424
341 904
341 707
341 756
341 388
341 620
341 378
341 885
341 577
341 393
341 854
341 783
341 733
341 724
341 907
341 431
341 540
341 596
341 737
341 453
341 630
341 571
341 548
341 792
341 860
341 568
341 371
341 386
341 925
341 933
341 426
341 488
341 492
342 530
342 580
342 779
342 415
342 555
342 618
342 627
342 690
342 814
342 850
342 592
342 522
342 716
342 699
342 762
342 483
342 851
342 775
342 767
342 607
342 863
342 926
342 942
342 454
342 967
342 995
342 485
342 501
342 705
342 578
342 703
342 824
342 933
343 786
343 358
343 761
343 813
343 801
343 818
343 564
343 595
343 686
343 762
344 412
344 744
344 942
344 485
344 534
344 817
344 960
344 542
345 579
345 471
345 891
345 499
345 697
345 525
345 374
345 751
345 658
345 814
346 844
346 347
346 849
346 975
346 454
346 753
346 448
346 383
346 615
346 701
346 400
346 569
346 392
346 908
346 797
346 622
346 458
346 398
347 519
347 798
347 553
347 576
347 590
347 847
347 602
347 732
347 505
347 414
347 736
347 682
347 574
347 594
347 715
347 705
347 464
347 484
347 428
347 829
347 671
347 800
347 873
347 877
347 983
347 885
348 944
348 637
348 712
348 744
348 779
348 841
348 466
348 373
348 410
348 696
348 934
348 822
348 483
348 901
348 449
348 867
348 401
348 931
348 760
348 921
348 665
348 677
348 433
348 969
348 977
348 810
348 397
348 972
348 399
348 428
348 900
348 842
348 911
348 429
348 728
348 990
348 550
348 427
348 761
348 741
348 729
348 982
348 546
348 787
348 409
348 618
348 454
348 975
348 905
348 532
348 778
348 612
348 598
348 643
348 583
348 656
348 354
348 622
348 538
348 885
348 909
349 571
349 575
349 640
349 666
349 718
349 786
349 838
349 831
349 361
349 449
349 456
349 751
349 700
349 830
349 356
349 869
349 920
349 975
349 728
349 413
349 609
350 513
350 950
350 958
350 719
350 689
350 882
350 382
350 994
350 599
350 720
350 956
350 901
350 546
350 500
350 761
350 369
350 717
350 498
351 517
351 529
351 913
351 669
351 544
351 688
351 563
351 589
351 675
351 608
351 568
351 796
351 881
351 430
351 699
351 363
351 487
351 861
351 383
351 703
351 479
351 790
351 993
351 763
351 374
351 530
351 418
351 744
351 988
351 658
351 853
352 675
352 849
352 728
352 533
352 573
352 644
352 721
352 503
352 550
352 709
352 366
352 406
352 988
352 885
353 982
353 690
353 790
353 795
353 804
353 609
353 482
353 382
353 404
353 621
353 852
353 371
353 515
354 675
354 671
354 722
354 735
354 754
354 800
354 812
354 684
354 668
354 731
354 776
354 766
354 445
354 658
354 820
354 798
354 707
354 898
354 383
354 407
354 877
354 398
354 413
354 953
354 355
355 536
355 586
355 918
355 817
355 860
355 603
355 604
355 737
355 409
355 762
355 857
356 464
356 523
356 570
356 638
356 666
356 758
356 786
356 794
356 811
356 826
356 838
356 979
356 970
356 362
356 831
356 709
356 408
356 797
356 646
356 802
356 387
356 571
356 361
356 379
356 358
356 746
356 703
356 671
356 949
356 734
356 779
356 978
356 683
356 389
356 984
356 890
356 920
356 401
356 846
356 986
356 918
356 636
356 813
356 477
357 758
357 427
357 790
357 804
357 834
357 609
357 482
357 895
357 593
357 497
357 566
357 538
357 493
357 595
358 575
358 666
358 718
358 758
358 826
358 838
358 802
358 898
358 407
358 922
358 880
358 570
358 902
358 912
358 523
358 571
358 745
358 387
358 872
358 975
358 930
358 955
358 811
358 979
358 628
358 794
358 920
358 480
358 927
358 638
358 966
358 408
358 849
358 641
358 640
358 890
358 685
358 631
358 475
358 954
358 970
358 379
358 418
358 852
358 590
358 488
358 915
358 595
358 629
358 459
358 639
358 614
358 952
358 889
358 502
358 559
358 874
358 419
358 809
358 427
358 442
358 398
358 520
359 786
359 408
359 401
359 454
359 532
359 551
359 562
359 619
359 559
359 673
359 857
359 400
359 838
359 461
359 552
360 614
360 913
360 412
360 669
360 545
360 563
360 608
360 861
360 487
360 765
360 374
360 688
360 544
360 870
360 430
360 568
360 394
360 517
360 411
360 705
360 433
360 631
360 779
360 817
360 890
360 425
360 468
360 591
360 809
361 570
361 571
361 575
361 638
361 646
361 718
361 758
361 869
361 966
361 621
361 647
361 820
361 701
361 874
361 980
361 886
361 723
361 416
361 902
361 862
361 471
361 967
361 528
361 507
362 844
362 523
362 646
362 666
362 811
362 826
362 898
362 407
362 658
362 919
362 876
362 371
363 394
363 412
363 669
363 544
363 688
363 563
363 568
363 589
363 608
363 984
363 506
363 659
364 913
364 675
364 430
364 688
364 589
364 374
364 669
364 910
364 622
364 818
364 494
364 590
364 666
364 501
364 581
364 413
365 415
365 949
365 594
365 889
365 458
365 509
365 817
365 566
365 960
365 541
365 633
365 459
365 991
365 452
365 569
365 915
365 938
366 798
366 794
366 841
366 369
366 419
366 551
366 578
366 586
366 606
366 423
366 702
366 889
366 573
366 599
366 591
366 988
366 547
366 941
366 676
366 390
366 828
366 509
366 667
366 672
366 538
366 709
366 675
366 804
366 474
366 860
366 433
366 791
366 542
366 579
366 628
366 895
366 494
366 673
366 913
366 370
366 438
366 458
367 575
367 975
367 535
367 707
367 756
367 755
367 821
367 528
367 858
367 477
367 885
367 434
367 393
367 502
367 604
367 649
367 984
367 796
367 420
367 378
367 904
367 488
367 492
367 497
367 507
368 645
368 527
368 546
368 554
368 868
368 484
368 632
368 982
368 567
368 510
368 767
368 461
368 624
368 623
368 561
368 598
368 999
368 505
368 827
368 569
368 885
368 522
368 777
368 529
368 413
368 834
368 867
368 736
368 647
368 386
369 461
369 433
369 618
369 627
369 690
369 827
369 836
369 839
369 986
369 832
369 496
369 974
369 465
369 791
369 501
369 468
369 457
369 679
369 942
369 485
369 850
369 425
369 454
369 887
369 976
369 439
369 592
369 495
369 716
369 886
369 419
369 616
369 965
369 952
369 522
369 995
369 963
369 814
369 967
369 601
369 725
369 571
369 493
369 778
369 648
369 588
369 607
369 737
369 817
369 860
369 858
369 900
369 409
369 740
369 946
369 785
369 417
369 926
369 949
369 935
369 509
370 838
370 927
370 547
370 586
370 599
370 935
370 973
370 914
370 509
370 676
370 667
370 864
370 828
370 910
370 395
370 964
370 906
370 391
370 782
370 606
370 687
370 951
370 957
370 696
370 523
370 786
370 833
370 629
370 707
370 497
371 483
371 926
371 949
371 586
371 743
371 756
371 777
371 388
371 488
371 824
371 727
371 577
371 393
371 907
371 904
371 733
371 426
371 707
371 859
371 460
371 755
371 378
371 909
371 431
371 478
371 497
371 506
371 377
371 783
371 875
371 424
371 732
371 892
371 429
371 400
371 871
371 881
371 941
371 524
371 646
371 588
371 638
371 869
371 513
371 885
371 507
372 797
372 406
372 738
372 834
372 609
372 807
372 893
372 488
373 838
373 637
373 642
373 744
373 761
373 841
373 867
373 901
373 401
373 427
373 428
373 972
373 585
373 501
373 883
373 378
373 556
374 394
374 913
374 412
374 699
374 861
374 565
374 517
374 870
374 675
374 881
374 529
374 430
374 568
374 765
374 638
374 515
374 815
374 645
374 666
374 601
374 616
374 485
374 535
374 824
375 899
375 653
375 546
375 554
375 868
375 484
375 679
375 893
375 510
375 627
375 864
375 738
376 628
376 579
376 391
376 658
376 668
376 698
376 704
376 736
376 925
376 972
376 760
376 547
376 655
376 919
376 604
377 899
377 867
377 998
377 536
377 606
377 919
377 707
377 756
377 824
377 885
377 797
377 973
377 926
377 984
377 802
377 950
377 841
377 378
377 488
377 492
378 816
378 646
378 615
378 698
378 722
378 755
378 756
378 813
378 824
378 885
378 727
378 431
378 620
378 909
378 424
378 528
378 388
378 724
378 488
378 492
378 465
378 795
378 682
378 901
378 657
378 713
378 386
378 933
378 462
378 801
379 523
379 575
379 628
379 640
379 666
379 718
379 758
379 811
379 611
379 623
379 420
379 499
379 898
379 407
379 920
379 975
379 428
379 918
380 571
380 838
380 637
380 665
380 696
380 744
380 761
380 779
380 841
380 867
380 449
380 843
380 642
380 422
380 412
380 441
380 726
380 555
380 820
380 427
380 998
380 533
380 385
380 436
380 658
380 482
380 478
380 932
381 913
381 811
381 867
381 846
381 742
381 773
382 689
382 950
382 845
382 719
382 500
382 559
382 995
382 868
382 599
382 541
382 893
382 933
383 665
383 618
383 897
383 773
383 775
383 701
383 448
383 584
383 975
383 961
383 460
383 532
383 721
383 804
384 563
384 977
384 535
384 755
384 756
384 777
384 813
384 824
384 854
384 577
384 528
384 751
384 460
384 393
384 904
384 923
384 492
384 933
384 481
384 493
384 661
384 649
384 769
384 729
384 948
384 677
384 893
384 488
385 420
385 567
385 427
385 606
385 714
385 423
385 388
385 835
385 522
385 806
385 395
385 935
385 491
386 519
386 645
386 409
386 635
386 707
386 813
386 824
386 885
386 477
386 777
386 431
386 783
386 923
386 478
386 474
386 907
386 925
386 859
386 755
386 821
386 733
386 727
386 605
386 963
386 630
386 906
386 782
386 504
386 461
386 788
386 466
386 467
386 933
386 462
386 497
386 507
387 523
387 571
387 646
387 666
387 718
387 838
387 927
387 921
387 555
387 698
387 755
387 905
388 464
388 906
388 535
388 707
388 756
388 777
388 885
388 925
388 933
388 488
388 492
389 868
389 999
389 901
389 659
389 722
389 735
389 736
389 800
389 812
389 696
389 845
389 398
390 922
390 927
390 616
390 836
390 425
390 866
390 547
390 586
390 591
390 606
390 406
390 964
390 762
391 505
391 922
391 712
391 744
391 867
391 578
391 606
391 644
391 676
391 714
391 474
391 608
391 935
391 727
392 446
392 418
392 533
392 551
392 573
392 578
392 606
392 644
392 676
392 721
392 782
392 395
392 918
392 406
392 935
392 438
392 988
392 937
392 652
392 655
392 909
392 801
393 975
393 981
393 620
393 660
393 743
393 756
393 777
393 813
393 824
393 885
393 925
393 497
394 517
394 913
394 412
394 565
394 545
394 529
394 688
394 619
394 537
394 396
394 796
394 669
394 544
394 675
394 430
394 563
394 699
394 568
394 487
394 765
394 666
394 769
394 533
394 988
394 790
395 510
395 551
395 918
395 644
395 538
395 591
395 935
395 702
395 676
395 606
395 916
395 672
395 458
395 973
395 635
395 416
395 594
395 708
395 509
395 586
395 986
395 701
395 684
395 636
395 584
395 732
395 625
395 752
395 811
395 718
395 546
395 438
395 960
395 398
396 563
396 728
396 536
396 551
396 586
396 599
396 606
396 721
396 871
396 846
396 935
396 964
396 988
396 478
397 444
397 869
397 567
397 637
397 665
397 695
397 744
397 752
397 761
397 841
397 867
397 900
397 901
397 401
397 921
397 433
397 972
397 609
397 933
398 666
398 849
398 902
398 661
398 788
398 809
398 860
398 877
398 684
398 766
398 703
398 583
398 959
398 738
398 445
398 435
398 659
398 800
398 947
398 820
398 731
398 951
398 658
398 612
398 978
398 716
398 643
398 434
398 869
398 791
398 448
398 595
398 413
399 816
399 550
399 637
399 712
399 744
399 867
399 401
399 427
399 711
399 406
399 474
400 547
400 578
400 586
400 606
400 406
400 443
400 893
400 492
401 848
401 575
401 898
401 696
401 744
401 761
401 867
401 900
401 490
401 901
401 665
401 799
401 934
401 449
401 486
401 695
401 830
401 433
401 483
401 990
401 760
401 822
401 642
401 810
401 752
401 972
401 843
401 712
401 415
401 931
401 677
401 977
401 550
401 428
401 841
401 911
401 921
401 777
401 828
401 461
401 962
401 719
401 661
401 569
401 500
401 947
401 970
401 406
401 701
401 856
401 546
401 617
401 659
401 416
401 619
402 565
402 428
402 800
402 809
402 860
402 938
402 562
402 419
402 722
402 543
402 625
402 639
403 519
403 593
403 436
403 722
403 636
403 628
403 825
403 881
403 795
403 755
404 526
404 640
404 718
404 849
404 407
404 696
404 593
404 866
404 883
404 884
404 456
404 991
404 936
404 716
404 554
404 964
404 614
404 452
404 687
405 565
405 569
405 971
405 723
405 516
405 587
405 654
405 432
405 420
405 844
405 815
405 614
405 998
405 781
405 533
405 625
405 816
405 862
405 578
405 813
406 718
406 826
406 869
406 690
406 533
406 591
406 714
406 918
406 423
406 644
406 416
406 964
406 713
406 916
406 864
406 708
406 536
406 438
406 578
406 936
406 676
406 726
406 436
406 941
406 687
406 509
406 772
406 906
406 672
406 437
406 445
406 581
406 544
406 894
406 523
406 946
406 559
406 444
406 983
406 759
406 468
406 458
406 788
406 957
407 500
407 571
407 575
407 631
407 638
407 718
407 745
407 786
407 838
407 640
407 709
407 621
407 869
407 418
407 739
407 408
407 979
407 930
407 970
407 666
407 927
407 797
407 890
407 826
407 975
407 922
407 902
407 657
407 440
407 778
407 475
407 912
407 852
407 505
407 888
407 431
407 919
407 926
407 957
407 720
407 723
407 415
407 830
407 712
407 555
407 442
408 430
408 570
408 575
408 631
408 745
408 758
408 826
408 898
408 920
408 455
408 571
408 666
408 979
408 523
408 475
408 927
408 838
408 819
408 794
408 640
408 880
408 831
408 966
408 786
408 418
408 506
408 635
408 552
408 634
408 723
408 918
408 478
408 850
408 651
408 975
408 422
408 985
408 690
408 754
408 812
409 422
409 921
409 540
409 863
409 924
409 985
409 929
409 710
409 759
409 844
409 579
409 888
410 794
410 550
410 637
410 642
410 696
410 744
410 867
410 972
410 969
410 427
410 911
410 827
410 943
410 913
410 817
410 479
410 428
410 540
410 785
410 925
411 706
411 917
411 669
411 412
411 861
411 918
411 563
411 589
411 608
411 547
411 906
411 908
412 517
412 529
412 913
412 675
412 565
412 796
412 699
412 669
412 765
412 608
412 544
412 568
412 545
412 851
412 583
412 954
412 496
412 436
412 438
412 623
412 965
412 819
412 688
412 563
412 589
412 487
412 645
412 690
412 850
412 606
412 864
412 698
413 468
413 501
413 736
413 738
413 754
413 800
413 809
413 877
413 919
413 774
413 489
413 704
413 951
413 684
413 435
413 873
413 860
413 939
413 947
413 450
413 703
413 766
413 445
413 648
413 558
413 511
413 658
413 836
413 867
413 998
413 996
413 827
413 444
413 759
413 895
413 543
413 564
413 647
413 419
413 633
413 953
414 610
414 669
414 861
414 870
414 771
414 519
414 530
414 553
414 527
414 444
414 505
414 442
414 637
414 814
414 454
414 465
414 877
415 848
415 637
415 728
415 744
415 779
415 867
415 921
415 433
415 761
415 429
415 490
415 752
415 977
415 810
415 944
415 967
415 995
415 829
415 869
415 428
415 809
415 857
416 641
416 874
416 465
416 538
416 547
416 864
416 906
416 458
416 671
416 494
417 517
417 563
417 575
417 609
417 535
417 755
417 756
417 813
417 497
417 885
417 875
417 784
417 982
417 576
417 966
417 637
417 898
417 505
417 695
417 933
417 462
417 492
417 932
418 570
418 575
418 628
418 640
418 778
418 811
418 826
418 849
418 920
418 922
418 635
418 967
418 567
418 975
418 979
418 805
418 454
418 888
418 770
418 762
419 841
419 522
419 555
419 592
419 814
419 850
419 616
419 791
419 993
419 995
419 952
419 524
419 827
419 974
419 942
419 439
419 454
419 465
419 967
419 501
419 485
419 976
419 832
419 627
419 572
419 597
419 741
419 630
419 911
419 748
419 540
419 877
419 480
419 986
420 971
420 432
420 516
420 815
420 587
420 733
420 637
420 774
420 470
420 549
420 682
420 656
420 841
420 703
420 777
421 920
421 704
421 770
421 515
421 801
421 564
421 595
421 932
421 881
422 833
422 560
422 596
422 725
422 984
422 902
422 539
422 764
422 483
422 897
422 578
422 676
422 735
422 460
423 519
423 446
423 637
423 792
423 501
423 547
423 586
423 606
423 676
423 906
423 438
423 698
423 834
423 636
424 571
424 890
424 448
424 629
424 511
424 743
424 777
424 813
424 874
424 493
424 462
424 488
424 497
424 507
425 519
425 869
425 642
425 522
425 592
425 618
425 814
425 832
425 850
425 886
425 967
425 465
425 986
425 995
426 719
426 602
426 860
426 535
426 620
426 660
426 755
426 756
426 783
426 885
426 909
426 933
426 520
426 824
426 725
426 662
426 604
426 448
426 613
426 481
426 934
427 709
427 637
427 695
427 696
427 744
427 761
427 867
427 901
427 486
427 843
427 712
427 429
427 760
427 911
427 934
427 779
427 830
427 921
427 449
427 437
427 752
427 811
427 764
427 831
427 573
427 866
427 538
427 878
427 993
427 855
427 636
427 886
427 674
427 566
427 464
427 428
427 736
428 890
428 975
428 550
428 744
428 841
428 867
428 900
428 799
428 665
428 779
428 810
428 490
428 752
428 695
428 429
428 901
428 483
428 677
428 696
428 734
428 714
428 601
428 570
428 627
428 956
428 897
428 768
428 813
429 646
429 695
429 696
429 744
429 761
429 779
429 867
429 990
429 937
429 535
430 517
430 913
430 917
430 669
430 567
430 700
430 971
430 643
430 688
430 563
430 568
430 589
430 608
430 513
430 815
430 472
430 609
430 492
431 589
431 786
431 869
431 902
431 695
431 698
431 756
431 813
431 854
431 885
431 933
431 644
431 916
431 702
431 642
431 888
431 522
431 488
432 549
432 682
432 816
432 587
432 516
432 723
432 569
432 971
432 844
432 560
432 899
432 826
432 559
432 950
432 580
432 662
432 666
432 975
432 561
432 812
432 790
432 639
432 777
432 925
433 588
433 589
433 674
433 922
433 637
433 712
433 761
433 822
433 841
433 867
433 900
433 799
433 830
433 911
433 466
433 931
433 961
433 678
433 643
433 661
433 497
433 894
433 613
433 734
433 717
433 740
433 919
433 834
433 474
434 666
434 709
434 580
434 447
434 535
434 743
434 756
434 854
434 885
434 904
434 925
434 933
434 488
434 492
435 805
435 698
435 722
435 754
435 877
435 684
435 663
435 489
435 800
435 858
435 936
435 539
435 897
435 803
435 875
435 953
435 818
436 628
436 454
436 533
436 547
436 578
436 676
436 721
436 792
436 458
436 647
437 763
437 550
437 696
437 712
437 728
437 744
437 761
437 841
437 867
437 856
437 438
437 736
437 727
437 789
438 513
438 525
438 682
438 510
438 926
438 533
438 547
438 644
438 918
438 667
438 458
438 936
438 509
438 672
438 935
438 914
438 864
438 676
438 970
438 960
438 470
438 570
438 946
438 805
438 871
438 964
438 988
438 671
438 953
439 524
439 555
439 618
439 627
439 690
439 814
439 839
439 926
439 949
439 454
439 967
439 457
439 995
439 485
439 501
439 551
439 829
439 741
440 631
440 786
440 811
440 869
440 920
440 927
440 570
440 794
440 997
440 777
440 873
440 572
440 648
440 925
440 442
440 841
441 545
441 621
441 742
441 499
441 445
441 854
441 474
441 456
441 579
441 846
441 469
441 470
441 616
441 963
441 457
441 731
442 523
442 571
442 575
442 646
442 666
442 718
442 786
442 838
442 920
442 922
442 890
442 944
442 930
442 739
442 831
442 758
442 615
442 859
442 882
442 481
442 468
442 979
442 637
442 841
442 659
442 722
442 788
442 790
442 904
442 933
443 572
443 989
443 922
443 532
443 915
443 541
443 829
444 519
444 530
444 553
444 674
444 771
444 464
444 531
444 630
444 576
444 560
444 732
444 590
444 657
444 858
444 766
444 592
444 851
444 648
444 794
444 920
444 824
445 861
445 519
445 831
445 927
445 979
445 481
445 671
445 698
445 738
445 757
445 877
445 937
445 694
445 894
445 598
446 519
446 553
446 602
446 505
446 560
446 989
446 674
446 531
446 732
446 996
446 748
446 530
446 657
446 719
446 932
446 735
446 580
446 471
446 464
446 666
446 811
446 927
446 809
447 569
447 763
447 512
447 897
447 557
447 773
447 581
447 448
447 710
447 998
447 701
447 749
447 571
447 979
447 993
447 679
447 774
447 497
447 818
448 897
448 773
448 775
448 557
448 701
448 710
448 503
448 993
448 881
448 782
448 521
448 749
448 983
448 928
448 491
449 666
449 712
449 744
449 761
449 779
449 822
449 867
449 514
449 707
449 801
450 555
450 935
450 671
450 684
450 698
450 722
450 738
450 877
450 919
450 953
450 973
450 958
450 577
450 631
450 790
451 597
451 578
451 591
451 599
451 906
451 935
451 458
451 988
452 637
452 593
452 883
452 962
452 750
452 717
452 508
452 643
452 512
452 884
452 664
452 711
452 740
452 803
452 456
452 526
452 629
452 887
452 462
452 567
452 889
452 838
452 973
452 626
452 564
453 575
453 826
453 835
453 597
453 978
453 874
453 582
453 992
453 862
453 792
453 605
453 715
453 910
453 798
453 543
453 490
453 951
453 624
453 883
453 647
453 770
454 571
454 510
454 522
454 618
454 690
454 949
454 524
454 501
454 974
454 592
454 850
454 942
454 496
454 832
454 465
454 836
454 814
454 468
454 926
454 616
454 965
454 716
454 986
454 827
454 839
454 967
454 887
454 791
454 679
454 555
454 886
454 963
454 976
454 495
454 993
454 601
454 672
454 759
454 902
454 831
454 772
454 744
454 588
454 835
454 696
454 715
454 564
454 807
454 727
454 514
454 995
454 897
454 864
454 562
454 933
454 770
455 815
455 523
455 570
455 621
455 638
455 718
455 786
455 797
455 838
455 869
455 922
455 821
455 562
455 975
455 697
455 692
455 814
455 521
455 777
455 801
456 844
456 475
456 653
456 761
456 886
456 518
456 803
456 866
456 884
456 785
457 685
457 758
457 555
457 592
457 627
457 690
457 814
457 850
457 949
457 967
457 485
457 501
457 942
457 965
457 986
457 836
457 974
457 616
457 952
457 976
457 887
457 502
457 689
457 567
457 851
457 658
457 920
457 995
457 684
457 620
458 589
458 689
458 546
458 931
458 949
458 775
458 586
458 644
458 964
458 667
458 591
458 936
458 533
458 606
458 780
458 772
458 828
458 988
458 536
458 714
458 573
458 889
458 721
458 594
458 724
458 890
458 823
458 544
458 735
458 617
458 488
458 793
458 665
458 695
458 651
458 601
458 812
458 969
458 954
458 970
458 704
458 855
458 933
459 589
459 890
459 605
459 814
459 964
459 594
459 797
459 687
459 603
459 604
460 944
460 555
460 691
460 800
460 812
460 535
460 707
460 755
460 777
460 885
460 904
460 925
460 978
460 807
460 497
460 507
461 913
461 896
461 645
461 527
461 546
461 805
461 510
461 598
461 827
461 531
461 859
461 908
461 868
461 742
461 926
462 610
462 867
462 479
462 820
462 707
462 727
462 756
462 909
462 492
462 506
462 507
462 925
462 812
462 864
462 919
462 938
462 767
462 470
462 768
462 958
462 786
462 488
462 497
463 771
463 519
463 798
463 553
463 497
463 857
463 961
463 950
463 605
463 464
463 571
464 529
464 513
464 519
464 530
464 531
464 590
464 656
464 630
464 505
464 732
464 771
464 674
464 748
464 996
464 989
464 560
464 734
464 993
464 673
464 801
464 591
464 898
464 534
464 795
464 804
465 706
465 555
465 627
465 690
465 814
465 850
465 886
465 926
465 949
465 967
465 791
465 501
465 618
465 976
465 592
465 524
465 965
465 942
465 601
465 804
465 794
465 964
465 705
465 911
465 570
465 787
465 765
465 815
465 826
465 986
465 995
465 485
465 495
465 866
465 962
465 507
466 550
466 637
466 728
466 744
466 761
466 779
466 841
466 901
466 948
466 756
466 801
466 818
467 593
467 884
467 883
467 853
467 933
467 920
467 981
467 754
468 798
468 540
468 592
468 618
468 690
468 814
468 926
468 942
468 949
468 967
468 501
468 836
468 827
468 976
468 577
468 579
468 896
468 604
468 995
468 495
469 838
469 697
469 846
469 891
469 499
469 773
469 654
469 490
469 591
469 905
469 880
469 470
469 479
469 884
469 720
469 564
470 519
470 653
470 779
470 579
470 759
470 697
470 471
470 479
470 611
470 948
470 934
470 801
470 876
470 869
470 533
470 693
470 742
470 891
470 850
471 794
471 831
471 982
471 761
471 840
471 846
471 766
471 553
471 903
471 531
471 692
471 533
471 722
471 820
471 925
472 500
472 690
472 866
472 578
472 606
472 644
472 864
472 906
472 908
472 798
472 953
472 921
472 502
472 493
473 681
473 637
473 665
473 696
473 728
473 744
473 752
473 761
473 901
473 972
473 725
473 839
473 592
473 698
473 804
473 488
474 739
474 758
474 484
474 692
474 647
474 707
474 743
474 756
474 854
474 885
474 909
474 512
474 672
474 829
474 801
474 752
474 492
474 497
474 507
475 913
475 523
475 571
475 621
475 638
475 646
475 718
475 786
475 838
475 902
475 920
475 975
475 921
475 820
476 814
476 877
476 542
476 853
476 850
476 596
476 646
477 798
477 779
477 990
477 522
477 485
477 746
477 756
477 777
477 813
477 854
477 885
477 933
477 775
477 492
478 881
478 779
478 774
478 873
478 626
478 756
478 777
478 783
478 813
478 909
478 925
478 952
478 867
478 939
478 586
478 732
478 488
478 497
479 867
479 697
479 742
479 669
479 787
479 935
479 671
479 938
479 756
480 523
480 570
480 575
480 666
480 758
480 838
480 898
480 920
480 979
480 981
480 864
480 949
480 721
480 818
481 666
481 807
481 946
481 582
481 585
481 978
481 992
481 878
481 792
481 605
481 980
481 862
481 835
481 874
481 856
481 785
481 586
481 869
481 979
481 573
481 885
481 620
481 592
481 636
481 755
482 979
482 527
482 642
482 752
482 790
482 795
482 834
482 609
482 651
482 737
482 548
482 928
482 953
482 523
482 492
483 590
483 642
483 752
483 761
483 779
483 867
483 900
483 977
483 990
483 643
483 876
483 922
483 961
483 980
483 495
483 680
484 653
484 546
484 561
484 868
484 527
484 999
484 763
484 767
484 769
484 632
484 554
484 896
484 510
484 645
484 899
484 983
484 660
484 676
484 934
484 865
484 572
484 630
484 505
484 752
484 627
484 551
484 684
484 735
485 522
485 555
485 592
485 627
485 690
485 791
485 814
485 832
485 850
485 886
485 949
485 995
485 496
485 839
485 495
485 976
485 965
485 942
485 986
485 616
485 974
485 501
485 887
485 926
485 920
485 539
485 695
485 570
485 775
485 566
485 567
485 753
485 523
486 725
486 550
486 665
486 744
486 779
486 841
486 867
486 642
486 700
486 790
486 543
486 560
486 899
486 884
487 517
487 796
487 545
487 688
487 563
487 568
487 861
487 881
487 781
487 835
487 505
487 501
487 509
487 919
488 745
488 777
488 813
488 885
488 925
488 933
488 733
488 907
488 520
488 620
488 506
488 824
488 923
488 577
488 751
488 507
488 660
488 492
488 905
488 854
488 497
488 858
488 756
488 875
488 891
488 758
488 988
488 983
488 829
488 729
488 867
488 663
488 892
488 931
488 513
488 669
488 884
488 913
488 771
488 894
489 967
489 659
489 754
489 812
489 877
489 953
490 608
490 869
490 637
490 712
490 744
490 752
490 761
490 779
490 721
490 698
491 745
491 922
491 975
491 637
491 606
491 877
491 953
491 720
491 770
491 818
491 932
491 686
491 552
491 837
491 703
491 589
491 756
491 578
491 494
492 535
492 727
492 743
492 813
492 885
492 925
492 783
492 507
492 506
492 497
492 905
492 909
492 854
492 824
492 502
492 620
492 751
492 647
492 520
492 724
492 587
492 794
492 712
492 845
492 521
492 585
492 834
493 669
493 674
493 744
493 585
493 594
493 968
494 688
494 813
494 789
494 801
494 818
494 564
494 595
494 730
494 678
494 686
494 770
494 793
494 662
494 992
494 982
494 546
494 574
494 914
494 878
494 641
495 666
495 685
495 831
495 728
495 555
495 592
495 627
495 690
495 832
495 850
495 926
495 967
495 995
495 839
495 963
495 616
495 501
495 723
495 713
495 847
495 512
495 740
495 681
495 640
495 812
495 933
496 567
496 616
496 690
496 814
496 832
496 926
496 949
496 967
496 993
496 995
497 575
497 761
497 754
497 939
497 528
497 660
497 756
497 909
497 925
497 933
497 821
497 577
497 727
497 507
497 502
497 875
497 858
497 506
497 709
497 559
497 569
497 684
497 890
497 919
497 802
497 682
497 786
497 560
497 796
498 748
498 702
498 658
498 661
498 671
498 698
498 703
498 722
498 738
498 800
498 820
498 937
498 736
498 777
498 584
498 963
499 847
499 640
499 579
499 832
499 925
500 513
500 689
500 719
500 994
500 958
500 845
500 732
500 764
500 516
500 906
500 583
500 919
500 756
501 874
501 522
501 592
501 618
501 690
501 716
501 850
501 886
501 967
501 995
501 887
501 965
501 952
501 616
501 836
501 839
501 791
501 601
501 949
501 627
501 963
501 555
501 814
501 832
501 986
501 756
501 728
501 717
501 833
501 564
501 734
501 641
501 751
501 543
501 536
501 518
501 857
501 954
501 970
501 705
502 557
502 606
502 574
502 813
502 885
502 909
502 925
502 933
503 758
503 975
503 618
503 773
503 998
503 622
503 997
503 557
503 775
503 573
503 545
503 629
503 540
503 953
503 542
504 685
504 758
504 811
504 838
504 975
504 637
504 773
504 964
505 545
505 519
505 798
505 553
505 847
505 630
505 656
505 674
505 602
505 748
505 996
505 531
505 771
505 894
505 679
505 879
505 669
505 943
505 990
505 785
506 864
506 535
506 755
506 756
506 854
506 885
506 909
506 933
506 890
506 730
506 622
506 950
506 507
507 913
507 765
507 797
507 716
507 883
507 962
507 594
507 721
507 756
507 813
507 875
507 733
507 905
507 660
507 755
507 859
507 824
507 933
507 700
507 918
507 532
507 776
507 945
507 988
507 563
507 971
508 669
508 815
508 734
508 561
508 841
508 518
508 884
508 773
508 701
508 957
509 533
509 551
509 644
509 864
509 924
509 933
510 769
510 899
510 653
510 527
510 546
510 598
510 868
510 999
510 982
510 623
510 767
510 554
510 763
510 722
510 651
510 994
510 539
510 700
510 908
510 950
510 658
511 898
511 512
511 671
511 698
511 704
511 736
511 738
511 754
511 800
511 809
511 860
511 577
511 564
512 656
512 761
512 753
512 803
512 981
512 621
512 940
512 518
512 593
512 884
512 705
512 824
513 683
513 719
513 845
513 994
513 689
513 750
513 829
513 658
513 738
513 932
514 546
514 627
514 768
514 593
514 866
514 884
514 987
514 915
514 951
514 900
514 883
514 962
514 533
514 686
515 899
515 948
515 782
515 877
515 770
515 730
515 552
515 793
515 630
515 947
515 789
515 818
515 564
515 932
516 569
516 844
516 971
516 587
516 549
516 815
516 816
516 624
516 539
516 682
516 606
516 820
517 563
517 861
517 669
517 608
517 794
517 639
517 993
517 541
517 599
517 688
517 568
517 589
517 975
517 744
517 705
517 644
517 785
517 925
518 752
518 742
518 711
518 768
518 884
518 705
518 962
518 664
518 750
518 753
518 803
518 593
518 875
518 562
518 872
518 886
518 990
518 806
519 771
519 531
519 734
519 590
519 748
519 530
519 602
519 732
519 989
519 798
519 847
519 553
519 630
519 996
519 674
519 576
519 560
519 656
519 614
519 764
519 975
519 937
519 830
519 927
519 742
519 964
519 788
519 801
520 645
520 582
520 733
520 660
520 756
520 954
520 535
520 813
520 854
520 885
520 933
521 654
521 624
521 852
521 781
521 626
521 726
521 885
521 711
522 816
522 523
522 805
522 763
522 976
522 965
522 967
522 963
522 886
522 952
522 555
522 596
522 536
522 919
522 901
522 779
522 780
522 627
522 690
522 716
522 814
522 926
522 949
522 995
522 800
522 809
522 813
523 638
523 802
523 880
523 955
523 826
523 718
523 838
523 819
523 927
523 970
523 739
523 872
523 646
523 898
523 869
523 685
523 640
523 794
523 966
523 666
523 902
523 681
523 912
523 657
523 758
523 745
523 778
523 797
523 930
523 922
523 575
523 631
523 849
523 571
523 641
523 709
523 570
523 871
523 916
523 636
523 931
523 887
523 729
523 965
523 627
523 892
523 777
523 805
523 780
523 779
523 928
523 786
523 975
523 918
523 727
524 863
524 839
524 618
524 827
524 952
524 688
524 702
524 601
524 616
524 627
524 690
524 814
524 850
524 926
524 949
524 967
524 995
525 892
525 694
525 572
525 527
525 703
525 945
526 945
526 694
526 572
526 823
526 896
526 763
526 949
526 775
527 769
527 567
527 623
527 868
527 624
527 554
527 772
527 784
527 667
527 795
527 982
527 763
527 841
527 649
527 801
527 818
528 666
528 696
528 867
528 611
528 875
528 660
528 620
528 535
528 756
528 773
528 615
528 880
528 765
528 743
528 813
528 824
528 933
529 544
529 765
529 861
529 913
529 989
529 971
529 953
529 582
529 917
529 796
529 688
529 563
529 565
529 568
529 589
529 798
529 666
529 872
529 981
529 983
529 876
530 630
530 734
530 996
530 847
530 602
530 732
530 553
530 989
530 771
530 590
530 760
530 820
530 746
530 739
531 576
531 546
531 932
531 630
531 674
531 867
531 931
531 919
532 638
532 835
532 717
532 740
532 880
532 817
532 593
532 705
532 736
533 811
533 921
533 538
533 772
533 935
533 551
533 644
533 864
533 672
533 676
533 713
533 936
533 782
533 839
533 682
533 938
533 809
533 845
533 820
533 575
533 693
533 906
533 894
533 535
533 707
534 980
534 985
534 832
534 926
534 988
534 806
534 600
534 680
534 539
534 569
534 681
534 581
535 758
535 658
535 905
535 875
535 751
535 885
535 933
535 707
535 743
535 925
535 858
535 923
535 755
535 821
535 647
535 777
535 907
535 824
535 544
535 876
535 737
535 670
535 863
535 970
535 618
535 587
535 990
535 835
535 756
535 813
536 797
536 696
536 676
536 828
536 586
536 726
536 634
536 547
536 599
536 578
536 936
536 864
536 825
536 732
536 886
536 646
536 588
536 585
536 994
536 540
536 551
536 606
536 721
536 935
536 988
536 724
537 706
537 650
537 588
537 612
537 614
537 677
537 952
537 673
537 610
537 593
537 884
537 644
538 798
538 679
538 966
538 673
538 823
538 547
538 904
538 909
539 927
539 868
539 915
539 785
539 700
539 817
539 727
540 863
540 929
540 962
541 797
541 838
541 578
541 633
541 934
541 621
541 654
541 849
541 817
541 960
541 932
542 926
542 908
542 649
542 852
542 626
542 853
542 574
542 700
542 625
542 888
543 808
543 898
543 580
543 984
543 596
543 725
543 566
543 858
543 744
543 591
543 905
543 932
544 669
544 913
544 589
544 917
544 545
544 568
544 765
544 762
544 855
544 597
544 611
544 739
544 604
544 688
544 563
544 608
544 869
544 567
544 744
544 761
544 697
544 658
544 933
545 913
545 917
545 675
545 565
545 563
545 870
545 623
545 798
545 568
545 608
545 838
545 885
546 598
546 567
546 632
546 805
546 554
546 899
546 896
546 769
546 767
546 645
546 999
546 982
546 699
546 908
546 766
546 984
546 806
546 951
546 561
546 868
546 763
546 807
546 661
546 919
547 560
547 872
547 708
547 889
547 578
547 676
547 634
547 644
547 906
547 798
547 561
547 942
547 761
547 606
547 721
547 918
547 935
547 928
547 662
548 763
548 582
548 635
548 908
548 790
548 894
548 804
548 834
548 893
548 895
548 617
548 915
548 605
548 685
548 911
548 847
548 735
548 603
549 654
549 569
549 682
549 816
549 971
549 672
549 989
549 657
549 936
549 697
549 674
549 979
550 718
550 761
550 843
550 728
550 849
550 596
550 786
550 627
550 879
550 919
550 642
550 677
550 744
550 779
550 841
550 867
550 921
550 992
550 962
551 908
551 964
551 599
551 591
551 573
551 721
551 825
551 918
551 988
551 910
551 867
551 720
551 631
551 644
551 885
552 677
552 558
552 837
552 603
552 818
552 564
552 932
553 560
553 596
553 960
553 576
553 847
553 712
553 829
553 735
553 809
553 651
553 686
554 575
554 899
554 645
554 896
554 999
554 560
554 906
554 725
554 628
554 598
554 868
555 975
555 946
555 986
555 976
555 993
555 995
555 839
555 827
555 618
555 974
555 690
555 836
555 963
555 832
555 850
555 942
555 601
555 967
555 616
555 887
555 814
555 723
555 650
555 945
555 857
555 983
555 691
555 906
555 949
555 659
555 603
556 886
556 622
556 801
556 793
556 678
556 563
556 818
556 564
556 662
556 932
556 686
556 730
557 675
557 920
557 749
557 897
557 584
557 933
557 794
557 622
557 648
557 707
558 696
558 644
558 757
558 774
558 735
558 877
558 661
558 903
558 668
558 778
558 741
558 663
558 698
558 722
558 736
558 754
558 809
558 820
558 919
559 986
559 854
560 798
560 646
560 656
560 674
561 656
561 899
561 645
561 999
561 598
561 769
561 632
561 896
561 805
561 767
561 721
561 930
561 875
561 567
561 624
561 763
561 948
561 686
561 730
562 850
562 606
562 652
562 662
562 876
563 675
563 917
563 669
563 568
563 881
563 861
563 796
563 699
563 870
563 913
563 765
563 823
563 893
563 719
563 777
563 590
563 944
563 718
563 826
563 605
563 592
563 599
563 824
564 630
564 794
564 784
564 721
564 698
564 770
564 801
564 932
564 730
564 686
564 837
564 762
564 823
564 678
564 747
564 662
564 789
564 595
564 818
564 598
564 860
564 980
564 742
564 968
564 807
564 820
564 652
565 917
565 796
565 669
565 688
565 881
565 870
565 675
565 861
565 568
565 950
565 832
565 589
565 765
565 677
565 891
565 998
565 743
566 872
566 920
566 865
566 633
566 600
566 817
566 680
566 832
566 830
566 635
566 928
566 798
566 960
566 698
566 860
566 651
566 837
567 797
567 896
567 769
567 653
567 805
567 645
567 868
567 763
567 629
567 824
568 669
568 688
568 796
568 861
568 765
568 608
568 589
568 699
568 830
568 645
568 604
568 974
568 570
568 985
568 900
568 585
568 918
569 654
569 682
569 816
569 971
569 587
569 844
569 678
569 952
569 869
569 677
569 622
569 808
569 744
569 814
569 942
569 809
570 848
570 794
570 912
570 955
570 571
570 970
570 638
570 966
570 635
570 742
570 926
570 735
570 953
570 939
570 925
570 841
570 575
570 631
570 646
570 826
570 838
570 927
570 975
570 979
570 722
570 649
570 793
571 811
571 927
571 920
571 902
571 778
571 794
571 922
571 745
571 826
571 930
571 979
571 797
571 657
571 890
571 831
571 802
571 709
571 774
571 915
571 948
571 575
571 621
571 640
571 646
571 718
571 758
571 786
571 975
571 949
571 606
571 721
571 877
572 945
572 892
572 694
572 653
572 843
572 621
572 786
572 800
572 756
572 932
573 708
573 828
573 988
573 941
573 578
573 772
573 825
573 890
573 704
573 613
573 829
573 995
573 606
573 676
573 721
574 758
574 979
574 700
574 779
574 921
574 888
574 885
575 826
575 966
575 912
575 922
575 902
575 646
575 797
575 880
575 745
575 685
575 811
575 666
575 808
575 739
575 778
575 898
575 758
575 970
575 709
575 681
575 628
575 641
575 638
575 786
575 927
575 802
575 849
575 944
575 930
575 926
575 706
575 632
575 614
575 974
575 949
575 787
575 700
575 838
575 920
575 975
575 731
575 968
575 655
576 798
576 590
576 732
576 748
576 630
576 670
576 983
576 679
576 756
576 628
576 775
576 656
576 924
576 967
576 586
576 953
576 968
576 743
577 796
577 867
577 784
577 935
577 774
577 613
577 727
578 634
578 667
578 941
578 687
578 708
578 713
578 586
578 699
578 767
578 802
578 643
578 951
578 700
578 756
578 606
578 782
578 906
578 935
578 684
578 812
578 824
579 870
579 611
579 742
579 871
579 891
579 759
579 846
579 697
579 623
579 914
579 980
579 719
579 982
579 708
579 721
580 826
580 984
580 596
580 809
581 640
581 646
581 637
581 897
581 773
581 998
581 749
581 776
581 822
581 761
581 594
581 722
581 757
581 812
581 741
581 956
582 666
582 807
582 792
582 856
582 992
582 835
582 585
582 878
582 946
582 815
582 988
582 877
582 609
583 610
583 668
583 684
583 698
583 731
583 736
583 738
583 800
583 809
583 919
583 953
583 983
584 950
584 666
584 850
584 949
584 897
584 997
584 749
584 925
585 946
585 835
585 856
585 874
585 978
585 605
585 807
585 862
585 992
585 980
585 970
585 747
585 870
585 815
585 878
585 986
586 654
586 695
586 977
586 866
586 916
586 825
586 726
586 964
586 792
586 781
586 718
586 738
586 913
586 845
586 603
586 644
586 714
586 864
586 918
587 689
587 816
587 943
587 600
587 770
588 650
588 610
588 706
588 833
588 959
588 606
588 701
588 607
588 683
588 740
588 773
588 659
588 813
589 913
589 675
589 917
589 796
589 881
589 861
589 669
589 765
589 699
589 884
589 655
589 775
589 923
589 943
589 754
589 873
590 732
590 602
590 674
590 996
590 748
590 636
590 850
590 854
590 792
590 656
590 832
590 967
590 635
590 707
590 909
591 628
591 936
591 906
591 599
591 726
591 644
591 782
591 964
591 825
591 816
591 748
591 801
591 686
591 624
591 606
592 744
592 965
592 618
592 976
592 690
592 627
592 995
592 963
592 832
592 986
592 791
592 814
592 942
592 952
592 679
592 716
592 616
592 836
592 949
592 722
592 598
592 964
592 794
592 763
592 651
592 685
592 844
592 886
592 967
592 705
592 919
592 795
592 743
593 666
593 716
593 883
593 987
593 664
593 884
593 768
593 866
593 803
593 750
593 705
593 717
593 962
593 776
593 599
593 618
593 743
593 973
593 819
593 981
593 738
593 729
593 620
594 861
594 739
594 864
594 906
594 935
594 988
594 671
594 793
594 818
595 754
595 770
595 801
595 662
595 758
595 714
595 997
595 816
595 872
595 686
595 730
596 803
596 857
596 836
597 922
597 921
597 978
597 980
597 946
597 651
597 862
597 663
597 670
598 838
598 899
598 653
598 805
598 763
598 767
598 645
598 720
598 621
598 836
598 936
598 868
598 886
598 644
598 817
599 607
599 634
599 889
599 676
599 864
599 687
599 884
599 628
599 950
599 637
599 682
599 694
599 967
599 670
599 606
599 906
600 699
600 878
600 775
600 619
600 890
601 950
601 979
601 901
601 838
601 690
601 814
601 832
601 836
601 850
601 926
601 949
601 967
601 995
601 626
602 630
602 996
602 634
602 938
602 734
602 783
602 818
603 845
603 758
603 606
603 953
603 613
603 617
603 943
603 902
603 940
603 604
603 639
603 909
604 617
604 968
604 613
604 764
604 871
604 714
604 608
605 642
605 946
605 978
605 865
605 862
605 606
605 722
605 730
606 699
606 931
606 702
606 879
606 772
606 906
606 973
606 721
606 988
606 908
606 635
606 941
606 914
606 634
606 644
606 935
606 672
606 916
606 780
606 864
606 964
606 961
606 667
606 713
606 612
606 691
606 794
606 979
606 875
606 680
606 763
606 854
607 833
607 650
607 848
607 610
607 961
607 948
607 612
607 826
607 918
607 737
608 917
608 669
608 688
608 699
608 675
608 836
608 706
608 723
608 618
608 715
608 805
608 698
608 758
608 761
608 690
608 832
609 645
609 897
609 795
609 790
609 895
609 746
609 636
609 737
609 741
609 893
609 651
609 956
609 764
609 654
609 903
609 789
610 706
610 650
610 848
610 833
610 931
610 612
610 688
610 942
611 778
611 948
611 697
611 977
611 641
611 652
611 727
611 742
611 690
612 848
612 683
612 833
612 614
612 940
612 772
612 958
612 645
612 707
613 688
613 646
613 921
613 863
613 919
613 715
613 720
613 956
613 713
613 666
613 996
614 833
614 848
614 650
614 683
614 912
614 849
614 922
614 883
614 663
614 919
614 756
615 627
615 897
615 998
615 749
615 775
615 861
615 622
615 879
615 619
616 718
616 926
616 967
616 993
616 986
616 887
616 948
616 622
616 675
616 635
616 618
616 814
616 832
616 886
616 995
616 756
617 691
617 860
617 956
617 968
618 901
618 972
618 952
618 995
618 949
618 926
618 827
618 965
618 850
618 791
618 942
618 887
618 627
618 993
618 665
618 894
618 624
618 644
618 726
618 852
618 929
618 716
618 814
618 832
618 886
618 967
618 691
619 835
619 690
619 995
619 928
619 876
620 782
620 735
620 756
620 925
620 755
620 683
620 891
620 627
620 824
620 904
621 745
621 797
621 666
621 831
621 808
621 886
621 812
621 897
621 685
621 758
621 838
621 869
621 898
621 922
621 629
621 722
621 885
621 793
622 690
622 993
622 897
622 773
622 701
622 998
622 931
622 681
622 685
622 910
622 731
622 894
622 854
623 816
623 645
623 805
623 868
624 899
624 805
624 868
624 726
625 913
625 876
625 857
625 870
626 927
626 649
626 853
627 887
627 965
627 839
627 995
627 716
627 827
627 679
627 850
627 814
627 836
627 949
627 926
627 819
627 758
627 747
627 820
627 727
627 785
627 702
627 967
627 993
627 866
627 885
628 674
628 872
628 745
628 794
628 970
628 808
628 869
628 819
628 718
628 838
628 880
628 922
628 833
628 821
628 725
628 850
628 646
628 758
628 826
628 975
628 949
629 688
629 811
629 637
629 942
629 644
629 935
629 684
629 716
629 708
629 911
629 658
629 698
629 754
629 812
629 877
629 919
629 953
629 686
630 798
630 847
630 656
630 996
630 909
630 765
630 674
630 734
630 868
631 819
631 646
631 641
631 826
631 778
631 898
631 951
631 879
631 688
631 640
631 666
631 718
631 758
631 811
631 838
631 920
631 922
631 927
631 926
632 769
632 645
632 999
632 763
632 659
632 937
633 669
633 685
633 826
633 992
633 986
633 993
633 960
633 925
634 872
634 644
634 676
634 714
634 721
634 988
634 804
634 756
635 845
635 982
635 761
635 993
635 911
635 906
635 935
635 893
636 646
636 736
636 953
636 795
636 804
636 834
636 746
637 745
637 838
637 901
637 934
637 728
637 977
637 677
637 779
637 990
637 921
637 911
637 867
637 752
637 696
637 700
637 760
637 665
637 650
637 998
637 871
637 688
637 945
637 729
637 790
637 787
637 712
637 744
637 761
637 841
637 814
637 736
638 758
638 794
638 646
638 884
638 714
638 671
638 666
638 797
638 811
638 826
638 838
638 869
638 995
639 977
639 862
639 667
639 957
639 876
639 990
639 820
640 954
640 646
640 849
640 912
640 975
640 685
640 838
640 955
640 657
640 710
640 948
640 715
640 720
640 734
640 758
640 826
640 920
640 827
641 811
641 838
641 808
641 645
641 687
641 646
641 718
641 826
641 920
641 927
641 714
641 988
642 816
642 972
642 752
642 934
642 901
642 969
642 728
642 843
642 971
642 685
642 918
642 746
642 829
642 696
642 744
642 761
642 841
642 867
642 738
643 645
643 990
643 949
643 883
643 884
643 962
643 988
643 686
644 896
644 926
644 825
644 879
644 708
644 782
644 667
644 916
644 906
644 676
644 910
644 721
644 861
644 942
644 980
644 871
644 818
644 898
644 655
644 935
644 988
644 729
645 833
645 868
645 982
645 799
645 949
645 809
645 925
646 890
646 831
646 657
646 970
646 739
646 849
646 920
646 802
646 880
646 979
646 930
646 811
646 758
646 897
646 937
646 939
646 732
646 853
646 887
646 781
646 794
646 922
646 975
646 744
646 841
646 901
647 935
647 735
647 885
647 848
647 743
647 756
647 777
647 813
647 933
648 671
648 735
648 731
648 713
648 684
648 736
648 738
648 754
648 788
648 812
648 852
649 922
649 761
649 953
649 853
649 707
649 781
649 888
649 727
650 833
650 683
650 788
650 852
650 848
650 921
650 807
650 754
650 885
651 786
651 868
651 921
651 814
651 748
651 790
651 834
651 737
652 827
652 986
652 701
652 906
652 673
652 826
652 945
652 876
653 758
653 899
653 868
653 806
653 845
653 883
653 698
653 722
654 815
654 816
654 682
654 997
654 771
654 758
654 725
655 906
655 704
655 857
655 793
655 813
655 801
656 674
656 996
656 962
656 675
656 989
656 734
656 718
656 868
656 914
656 757
656 737
656 818
657 732
657 707
657 916
657 725
657 666
657 681
657 758
657 811
657 838
657 927
657 919
658 838
658 898
658 899
658 805
658 677
658 938
658 659
658 736
658 812
658 671
658 698
658 704
658 809
658 919
659 718
659 787
659 668
659 938
659 809
659 698
659 820
659 951
659 735
659 785
659 704
659 939
659 919
659 983
659 877
659 776
659 935
659 996
659 897
659 672
659 827
659 861
659 729
659 824
659 727
659 754
660 669
660 727
660 756
660 813
660 824
660 904
660 933
661 735
661 851
661 669
661 945
661 663
661 704
661 722
661 738
661 754
661 809
661 812
661 873
661 877
662 811
662 850
662 883
662 770
662 818
662 932
662 747
662 678
662 798
662 686
662 730
663 805
663 677
663 926
663 714
663 767
663 793
663 841
663 671
663 684
663 722
663 809
663 812
663 820
664 920
664 972
664 883
664 884
664 904
664 981
665 842
665 931
665 799
665 900
665 760
665 702
665 838
665 712
665 744
665 761
665 779
665 841
665 867
665 977
665 836
665 736
666 955
666 880
666 920
666 758
666 739
666 709
666 794
666 811
666 786
666 975
666 685
666 890
666 954
666 745
666 797
666 944
666 802
666 849
666 872
666 902
666 718
666 930
666 966
666 979
666 912
666 950
666 818
666 846
666 851
666 826
666 838
666 800
666 707
666 686
667 725
667 791
667 948
667 721
667 935
667 988
667 746
668 811
668 975
668 692
668 947
668 704
668 731
668 693
668 940
668 959
668 938
668 951
668 851
668 950
668 806
668 698
668 722
668 820
668 953
669 913
669 796
669 765
669 688
669 881
669 861
669 917
669 870
669 699
669 987
669 672
669 676
669 838
669 986
669 698
669 756
670 886
670 800
670 795
670 804
670 834
670 854
671 734
671 716
671 814
671 721
671 957
671 851
671 860
671 937
671 691
671 776
671 722
671 787
671 735
671 809
671 774
671 766
671 960
671 930
671 912
671 699
671 817
671 790
671 684
671 698
671 738
671 800
671 877
671 919
671 953
671 781
671 956
672 700
672 682
672 721
672 782
672 906
672 820
672 956
673 723
673 993
673 698
673 809
674 771
674 965
674 834
674 822
674 726
674 964
675 913
675 688
675 881
675 759
675 746
675 699
675 867
675 846
675 800
675 857
675 733
676 994
676 864
676 780
676 687
676 875
676 927
676 848
676 840
676 906
676 964
676 988
676 876
677 989
677 969
677 843
677 845
677 696
677 712
677 761
677 841
677 867
677 921
677 866
677 860
678 685
678 975
678 960
678 770
678 801
678 932
678 686
679 989
679 922
679 761
679 814
679 827
679 839
679 850
679 886
679 995
679 834
680 819
680 695
680 949
680 865
680 983
681 880
681 786
681 845
681 718
681 811
681 838
681 869
681 920
681 922
681 927
681 931
681 977
681 891
681 967
681 993
681 824
682 844
682 971
682 723
682 832
682 781
682 843
682 893
682 816
682 988
683 706
683 848
683 771
683 716
683 974
683 722
684 974
684 864
684 935
684 939
684 951
684 738
684 691
684 851
684 785
684 703
684 735
684 722
684 959
684 731
684 938
684 957
684 919
684 953
684 776
684 877
684 913
684 831
684 721
684 905
684 852
684 698
684 736
684 754
684 873
685 745
685 970
685 872
685 794
685 966
685 841
685 708
685 775
685 718
685 758
685 902
685 920
685 927
685 901
686 714
686 770
686 801
686 818
686 730
686 837
686 823
686 755
687 838
687 769
687 723
687 931
687 921
687 725
688 917
688 870
688 861
688 699
688 881
688 992
688 695
688 732
688 716
688 759
688 756
689 719
689 958
689 882
689 920
689 722
689 834
690 963
690 716
690 926
690 814
690 967
690 827
690 832
690 839
690 952
690 836
690 942
690 993
690 949
690 791
690 887
690 976
690 890
690 935
690 883
690 857
690 991
690 702
690 881
690 732
690 850
690 886
690 995
690 925
691 794
691 832
691 885
691 698
691 722
691 736
691 754
691 774
691 788
691 809
691 873
691 877
691 919
691 933
692 718
692 786
692 990
692 784
692 967
692 736
692 938
693 797
693 941
693 698
693 722
693 735
693 754
693 774
693 809
693 873
693 919
694 945
694 829
694 959
694 892
694 749
695 826
695 822
695 749
695 744
695 779
695 998
695 785
696 779
696 900
696 744
696 865
696 712
696 761
696 841
696 867
696 990
696 736
696 933
697 948
697 840
697 964
698 997
698 947
698 785
698 731
698 938
698 788
698 851
698 754
698 809
698 983
698 774
698 735
698 704
698 738
698 703
698 877
698 919
698 860
698 951
698 959
698 776
698 987
698 822
698 728
698 839
698 722
698 736
698 873
698 746
698 909
699 913
699 917
699 765
699 796
699 824
699 758
699 861
699 980
699 814
699 932
700 744
700 761
700 867
700 900
700 977
700 986
700 731
701 710
701 928
701 951
702 811
702 975
702 929
702 749
702 721
702 864
702 918
702 964
702 953
703 977
703 791
703 820
703 903
703 754
703 960
703 842
703 789
703 704
703 735
703 738
703 877
704 864
704 776
704 851
704 873
704 788
704 809
704 938
704 787
704 940
704 820
704 808
704 804
704 950
704 943
704 761
704 722
704 754
704 774
704 785
704 877
705 786
705 992
705 883
705 884
705 717
705 750
705 962
705 938
705 710
705 797
705 776
705 821
705 754
705 852
705 855
706 833
706 848
706 868
706 754
707 844
707 902
707 791
707 949
707 733
707 824
707 905
707 871
707 810
707 756
707 813
707 854
707 925
707 933
708 883
708 714
708 721
708 906
708 988
709 718
709 745
709 786
709 794
709 811
709 838
709 927
709 886
709 981
709 991
710 900
710 773
710 775
710 998
711 803
711 866
711 740
711 804
711 822
711 981
711 743
712 934
712 931
712 830
712 955
712 715
712 986
712 828
712 744
712 761
712 779
712 841
712 867
713 798
713 786
713 884
713 906
713 795
713 729
714 898
714 941
714 889
714 864
714 929
714 993
714 795
714 906
714 964
714 754
715 950
715 754
715 872
715 762
715 833
716 832
716 995
716 887
716 800
716 934
716 814
716 886
716 926
716 967
717 866
717 883
717 884
717 865
717 730
717 844
717 834
718 979
718 880
718 808
718 966
718 819
718 797
718 954
718 811
718 922
718 831
718 838
718 849
718 972
718 836
718 938
718 913
718 731
718 758
718 794
718 920
718 975
718 752
718 824
718 909
718 730
719 845
719 958
719 882
719 843
719 793
719 979
719 868
720 882
720 758
720 761
720 946
720 878
720 853
720 885
721 825
721 889
721 918
721 964
721 726
721 988
721 908
721 961
721 936
721 906
721 935
721 828
721 834
721 875
721 740
721 940
721 792
721 924
721 919
721 756
722 822
722 827
722 938
722 809
722 738
722 735
722 959
722 774
722 736
722 787
722 860
722 820
722 754
722 766
722 957
722 919
722 937
722 788
722 951
722 733
722 966
722 824
722 829
722 877
722 953
723 816
723 860
723 824
723 920
723 941
724 811
724 835
724 803
724 749
724 736
724 733
724 857
724 756
724 885
724 925
724 933
725 984
725 753
725 749
725 919
726 906
726 935
726 964
726 741
727 913
727 974
727 860
727 781
727 853
727 854
727 909
727 885
727 875
727 748
727 792
727 765
727 756
727 813
727 824
727 925
727 933
727 730
728 922
728 931
728 842
728 799
728 843
728 830
728 810
728 760
728 877
728 865
728 744
728 841
728 977
728 995
728 735
728 783
728 905
729 816
729 979
729 814
729 836
730 971
730 926
730 757
730 789
730 801
730 818
730 932
730 823
730 762
730 747
730 928
730 970
730 996
730 893
730 923
731 830
731 957
731 877
731 766
731 757
731 812
731 809
731 800
731 839
731 735
731 738
731 754
731 860
731 953
732 771
732 798
732 942
732 797
732 744
733 980
733 856
733 937
733 757
733 756
733 813
733 885
734 771
734 847
734 775
734 757
734 735
734 790
735 861
735 995
735 938
735 959
735 766
735 820
735 877
735 787
735 903
735 774
735 776
735 940
735 939
735 860
735 800
735 968
735 847
735 943
735 839
735 984
735 745
735 736
735 809
735 812
735 873
735 919
735 953
735 876
736 810
736 850
736 851
736 959
736 809
736 787
736 757
736 947
736 919
736 800
736 877
736 953
736 738
736 951
736 772
736 815
736 777
736 930
736 980
736 819
736 774
737 748
737 914
737 790
737 834
737 746
737 971
737 756
738 832
738 757
738 937
738 919
738 983
738 809
738 940
738 873
738 951
738 953
738 782
738 950
738 860
738 877
739 930
739 786
739 838
739 920
739 922
739 927
739 909
739 933
740 866
740 883
740 981
740 745
740 744
740 872
740 850
740 860
741 969
741 877
741 804
741 834
741 925
741 893
742 846
742 871
742 875
742 774
742 964
742 818
743 995
743 964
743 800
743 888
743 783
743 859
743 904
743 905
743 858
743 777
743 756
743 909
743 875
743 941
743 818
743 887
743 771
743 776
743 813
744 927
744 868
744 763
744 934
744 830
744 931
744 822
744 843
744 969
744 901
744 799
744 900
744 977
744 760
744 972
744 990
744 761
744 779
744 867
744 752
744 810
744 911
744 841
744 854
744 804
744 882
744 962
744 907
744 847
744 798
744 984
744 756
744 777
745 765
745 898
745 786
745 838
745 920
745 927
745 975
745 979
745 832
745 964
746 778
747 946
747 974
747 755
747 770
747 801
747 818
748 796
748 828
748 956
748 862
748 893
749 927
749 839
749 773
749 997
749 751
750 803
750 884
750 865
750 759
750 964
750 860
751 920
751 800
751 824
751 885
751 904
751 933
752 830
752 921
752 779
752 761
752 867
752 990
753 866
753 883
753 844
753 780
754 869
754 867
754 775
754 906
754 809
754 959
754 947
754 860
754 957
754 785
754 951
754 791
754 925
754 757
754 800
754 873
754 877
754 919
755 872
755 927
755 822
755 814
755 812
755 756
755 875
755 813
755 854
755 933
755 885
755 905
755 785
755 871
755 902
755 777
756 814
756 875
756 821
756 783
756 854
756 905
756 904
756 925
756 909
756 858
756 933
756 777
756 859
756 825
756 856
756 900
756 829
756 855
756 890
756 813
756 885
757 845
757 857
757 809
757 812
757 877
757 853
757 885
758 778
758 930
758 802
758 902
758 912
758 898
758 838
758 920
758 922
758 797
758 808
758 794
758 955
758 831
758 954
758 855
758 910
758 792
758 811
758 975
758 979
758 884
759 761
759 840
759 846
759 944
759 764
760 961
760 761
760 779
760 867
760 900
760 990
760 886
760 783
761 861
761 830
761 810
761 977
761 911
761 867
761 931
761 843
761 822
761 779
761 921
761 799
761 841
761 901
761 935
761 770
762 890
762 841
762 995
762 770
762 789
762 801
762 818
762 949
763 896
763 868
763 899
763 919
763 824
764 892
764 968
764 803
764 782
764 777
765 913
765 796
765 917
765 919
766 767
766 812
766 860
766 873
766 885
767 979
767 769
767 899
767 868
767 778
767 859
767 785
767 777
768 884
768 803
768 975
768 941
768 866
768 962
768 981
769 889
769 899
769 868
769 953
770 817
770 885
770 837
770 793
770 932
770 789
770 823
770 818
770 958
770 836
770 997
771 996
771 989
771 894
771 903
771 838
771 890
771 868
772 788
773 929
773 949
773 897
773 997
773 775
773 956
773 894
773 998
773 876
774 915
774 947
774 919
774 785
774 788
774 889
774 905
774 800
774 877
774 953
775 803
775 871
775 998
775 785
776 982
776 850
776 981
776 812
776 877
776 953
777 860
777 854
777 923
777 813
777 909
777 803
777 792
777 882
777 824
778 912
778 966
778 954
778 892
778 998
778 826
778 922
778 979
778 864
779 920
779 990
779 867
779 931
779 843
779 841
779 921
779 925
779 806
779 850
779 958
779 879
779 986
779 936
779 846
779 810
779 901
779 962
779 953
780 816
780 901
780 967
780 998
780 970
781 898
781 853
781 855
782 847
782 805
782 977
782 792
782 973
782 861
782 976
782 919
783 838
783 854
783 909
783 946
783 813
783 885
784 924
784 929
784 863
784 949
784 893
785 946
785 840
785 839
785 903
785 820
785 953
786 797
786 927
786 898
786 811
786 930
786 849
786 872
786 922
786 794
786 975
786 947
786 826
786 920
786 979
786 804
787 992
787 949
787 822
787 953
787 933
788 950
788 851
788 820
788 947
788 895
788 800
788 809
788 873
788 877
788 953
789 932
790 967
790 894
790 893
790 795
790 834
790 819
790 814
791 963
791 877
791 886
791 926
791 949
791 967
791 986
791 953
792 992
792 874
792 807
792 835
792 978
792 949
792 908
793 921
793 883
793 837
793 801
793 818
793 932
794 966
794 912
794 927
794 975
794 970
794 872
794 944
794 797
794 920
794 889
794 906
794 836
794 860
794 811
794 902
795 895
795 834
795 899
795 855
795 912
796 917
796 861
796 913
796 891
796 958
796 831
797 802
797 979
797 838
797 872
797 920
798 800
799 838
799 867
799 977
799 990
799 884
800 991
800 951
800 903
800 877
800 820
800 873
800 953
800 850
800 956
800 919
800 925
801 864
801 818
801 837
801 924
801 834
802 811
802 838
802 869
802 927
802 975
802 841
803 981
805 826
805 896
805 999
805 945
805 868
805 957
805 933
805 837
806 901
806 988
806 817
806 829
807 856
807 862
807 878
807 906
807 908
807 824
807 978
808 958
808 941
808 869
808 975
808 896
809 920
809 832
809 998
809 988
809 938
809 957
809 947
809 812
809 959
809 961
809 831
809 878
809 934
809 974
809 915
809 919
810 911
810 867
810 900
810 921
811 966
811 954
811 930
811 970
811 902
811 869
811 838
811 922
811 916
811 871
811 904
811 937
811 814
811 907
811 876
811 920
811 975
812 951
812 959
812 919
812 939
812 820
812 873
812 851
812 940
812 954
812 953
813 838
813 941
813 875
813 909
813 925
813 859
813 885
813 923
813 905
813 907
813 933
813 973
813 845
813 826
813 824
814 979
814 863
814 965
814 952
814 926
814 986
814 839
814 827
814 836
814 995
814 974
814 886
814 949
814 850
814 976
814 887
814 989
814 968
814 942
815 816
815 860
816 971
816 844
816 841
816 891
816 939
817 838
817 829
817 960
817 998
818 900
818 978
818 918
818 894
818 933
818 837
818 872
818 961
818 954
818 832
818 888
818 932
819 826
819 838
819 890
819 927
819 975
819 979
819 827
819 894
820 964
820 860
820 851
820 937
820 980
820 894
820 882
820 877
821 902
821 824
821 909
822 830
822 931
822 862
822 841
822 867
822 900
822 921
822 884
823 984
823 932
824 953
824 859
824 925
824 905
824 967
824 989
824 935
824 854
824 909
824 933
825 999
825 864
825 906
825 964
825 988
825 854
825 885
826 970
826 955
826 975
826 930
826 849
826 880
826 831
826 872
826 839
826 921
826 838
826 869
826 920
827 927
827 850
827 912
827 868
827 910
827 839
827 942
827 981
828 935
829 865
829 978
829 960
830 960
830 943
830 841
830 867
830 900
830 901
830 884
830 879
831 838
831 869
831 902
831 920
831 927
831 901
832 917
832 887
832 942
832 949
832 967
832 974
832 926
832 963
832 993
832 995
832 982
832 911
832 954
832 958
832 850
832 877
833 848
833 935
834 893
834 894
834 871
835 921
835 978
835 862
836 974
836 967
836 991
836 876
837 890
837 929
837 866
837 867
838 902
838 849
838 898
838 966
838 975
838 970
838 890
838 954
838 927
838 880
838 922
838 955
838 872
838 869
838 912
838 892
838 858
838 903
839 993
839 894
839 940
839 982
839 886
839 986
839 983
840 888
840 885
840 933
841 921
841 934
841 911
841 867
841 843
841 969
841 972
841 842
841 915
841 954
841 981
841 860
841 865
841 872
841 900
841 977
842 849
842 867
843 898
843 867
843 926
844 997
844 979
845 950
845 882
845 994
845 867
845 850
845 918
846 891
846 948
846 871
846 899
846 950
846 987
846 967
847 867
847 989
848 850
848 932
849 930
849 869
849 920
849 975
849 995
849 909
850 993
850 967
850 932
850 863
850 949
850 995
851 979
851 988
851 877
851 919
852 890
852 977
852 855
852 933
853 972
853 986
853 935
854 907
854 933
854 893
854 873
854 930
854 909
854 925
855 865
855 975
855 885
856 978
856 906
857 948
857 876
858 978
858 904
858 933
859 904
859 933
860 868
860 969
860 903
860 940
860 937
860 877
860 919
861 913
861 917
861 987
861 959
861 867
861 869
862 958
862 978
862 874
862 992
862 878
862 946
862 935
862 919
863 919
864 964
864 935
864 988
864 973
864 910
864 993
864 919
865 939
866 987
866 991
866 981
866 884
866 944
866 961
867 990
867 901
867 900
867 977
867 969
867 931
867 921
867 911
867 934
867 972
867 918
867 976
867 873
867 868
867 999
867 945
867 871
867 953
868 899
868 982
868 999
868 896
868 916
868 909
868 870
869 975
869 880
869 927
869 908
869 945
869 920
871 948
871 897
872 979
872 972
872 953
873 920
873 903
873 937
873 983
873 892
873 956
873 910
873 877
874 977
874 878
874 981
874 935
875 937
875 885
875 933
876 968
876 991
877 938
877 957
877 953
877 947
877 983
877 903
877 904
877 980
877 909
877 919
877 888
878 980
878 992
879 918
880 920
880 922
880 927
880 975
880 899
880 967
881 913
882 958
882 994
882 937
882 961
883 962
883 987
883 991
883 915
883 884
883 981
883 964
884 974
884 915
884 987
884 962
884 999
884 940
884 990
885 978
885 925
885 933
885 909
885 927
885 988
886 949
886 967
886 995
886 958
886 917
886 926
887 994
887 890
887 967
887 995
887 919
889 944
890 927
890 920
890 975
890 979
891 997
892 967
893 920
893 967
895 991
895 964
895 988
896 982
896 899
896 964
897 921
897 997
897 998
897 939
897 955
897 960
898 912
898 920
898 979
898 922
898 955
898 927
898 975
898 908
898 988
898 957
899 982
899 942
899 928
899 995
900 977
900 990
900 901
901 942
901 921
901 977
901 909
902 975
902 943
904 995
904 907
904 958
904 947
904 933
905 925
905 933
906 936
906 918
906 942
906 922
906 935
906 964
907 949
907 909
907 925
908 994
908 918
909 933
909 923
909 925
909 975
910 990
910 995
910 918
910 964
910 988
911 990
911 924
912 920
914 988
915 981
915 988
918 935
919 937
919 957
919 959
919 953
919 951
919 948
920 927
920 930
920 966
920 944
920 954
920 922
920 979
920 955
920 934
920 923
920 995
921 973
921 977
922 975
922 944
922 955
922 959
923 933
924 927
924 951
924 929
924 933
925 975
925 984
925 937
926 967
926 995
926 952
926 974
926 965
926 949
926 992
926 991
927 930
927 970
927 944
927 954
927 961
927 980
928 938
928 939
928 958
929 985
929 953
930 978
930 981
932 994
932 980
932 943
933 965
933 967
934 977
935 977
935 973
935 975
935 960
936 986
937 986
937 953
938 942
938 995
940 953
941 964
941 988
942 967
942 974
942 949
942 995
943 995
943 981
943 956
944 975
945 955
946 949
948 988
949 974
949 952
949 995
949 963
949 965
949 986
949 976
949 961
949 967
950 958
950 994
951 960
951 953
952 967
952 995
953 959
955 975
955 979
955 981
958 994
961 964
962 988
963 995
964 967
965 967
965 995
966 990
966 967
967 974
967 995
967 976
967 984
969 977
971 990
973 988
975 979
976 988
977 984
977 994
977 990
978 980
978 992
978 984
979 988
980 992
981 991
981 987
983 995
986 993
986 995
988 989
988 997
988 994
993 995
997 998
