0 910
0 89
0 81
0 609
0 344
0 760
0 817
0 245
0 539
0 53
0 548
0 368
0 576
0 775
0 19
0 546
0 295
0 554
0 62
0 68
0 109
0 374
0 175
1 514
1 515
1 720
1 704
1 476
1 435
1 17
1 235
1 726
1 712
1 6
1 974
1 191
1 613
1 288
1 438
1 948
1 636
1 969
1 545
1 203
1 521
1 486
1 281
1 785
1 534
1 51
1 309
1 565
1 830
1 902
1 445
1 986
1 510
2 82
2 919
2 31
2 853
2 641
2 589
2 582
2 596
2 163
2 967
2 520
2 714
2 59
2 824
2 961
2 627
2 525
2 41
2 606
2 117
2 29
2 77
2 122
2 79
2 963
2 578
2 603
2 195
2 252
2 492
2 488
2 468
2 953
2 84
2 957
2 86
2 690
2 10
2 739
2 458
2 593
2 786
2 564
2 692
2 422
2 83
2 770
2 367
2 190
2 972
2 518
2 90
2 463
2 93
2 949
2 307
2 22
2 568
2 3
2 26
2 234
2 617
2 535
2 48
2 91
2 229
2 922
2 484
3 117
3 853
3 717
3 786
3 625
3 283
3 460
3 690
3 77
3 972
3 41
3 10
3 535
3 26
3 29
3 593
3 90
3 606
3 627
3 122
3 190
3 229
3 234
3 824
3 367
3 953
3 967
3 488
3 492
4 865
4 930
4 273
4 678
4 52
4 723
4 650
4 823
4 496
4 537
4 583
5 444
5 285
5 315
5 810
5 431
5 406
5 658
5 341
5 870
5 563
5 287
5 841
5 877
5 927
5 532
5 351
5 328
5 897
5 523
5 530
5 23
5 28
5 555
5 46
5 50
5 575
5 65
5 67
5 73
5 85
5 105
5 637
5 646
5 684
5 217
5 298
5 832
5 321
5 854
5 358
5 869
5 909
5 419
5 933
5 478
5 485
5 497
5 501
6 515
6 785
6 316
6 445
6 558
6 191
6 543
6 712
6 486
6 958
6 521
6 565
6 720
6 514
6 726
6 769
6 978
6 534
6 349
6 994
6 435
6 288
6 986
6 476
6 704
6 189
6 857
6 235
6 969
6 281
6 545
6 17
6 974
6 309
6 51
6 203
6 830
6 613
6 636
6 948
6 438
6 510
7 257
7 517
7 822
7 188
7 11
7 262
7 567
7 947
7 763
7 944
7 748
7 752
7 346
7 973
7 453
7 247
7 45
7 952
7 844
7 549
7 446
7 728
7 732
7 990
7 479
8 256
8 129
8 512
8 776
8 393
8 43
8 396
8 12
8 115
8 274
8 550
8 559
8 541
8 560
8 687
8 492
9 112
9 388
9 821
9 997
9 789
9 654
9 751
9 759
9 895
9 72
9 667
9 320
9 764
10 307
10 90
10 82
10 229
10 93
10 77
10 625
10 641
10 578
10 520
10 234
10 639
10 84
10 57
10 214
10 463
10 26
10 627
10 117
10 22
10 488
10 83
10 29
10 690
10 593
10 54
10 525
10 968
10 665
10 492
10 924
10 481
10 972
10 190
10 88
10 79
10 582
10 724
10 606
10 963
10 252
10 422
10 283
10 460
10 707
10 853
10 86
10 484
10 786
10 922
10 31
10 48
10 195
10 717
10 568
10 564
10 367
10 122
10 518
10 603
10 961
10 535
10 953
10 589
10 967
10 739
10 91
10 596
10 35
10 919
10 714
10 692
10 468
10 805
10 163
10 417
10 41
10 458
10 829
10 59
10 957
10 243
10 824
11 517
11 844
11 990
11 188
11 282
11 748
11 668
11 567
11 247
11 262
11 763
11 691
11 549
11 944
11 557
11 689
11 257
11 453
11 822
11 728
11 446
11 732
11 346
11 45
11 952
11 955
11 700
11 983
11 479
12 256
12 129
12 387
12 396
12 687
12 816
12 212
12 139
12 541
12 559
12 423
12 63
12 144
12 560
12 393
12 776
12 115
12 274
12 529
12 550
13 773
13 577
13 322
13 598
13 372
13 355
13 239
13 25
13 150
13 622
13 591
13 305
13 299
13 302
13 561
13 569
13 75
13 602
13 357
13 626
13 629
13 126
13 128
13 236
13 255
14 523
14 811
14 879
14 341
14 408
14 406
14 478
14 148
14 298
14 46
14 23
14 677
14 287
14 563
14 803
14 575
14 135
14 894
14 67
14 73
14 954
14 813
14 311
14 497
14 501
14 684
14 530
14 97
14 105
14 637
14 814
14 321
14 328
14 841
14 358
14 877
14 933
14 457
14 485
15 666
15 332
15 407
15 160
15 934
15 296
15 756
15 454
15 208
15 142
15 831
15 301
15 722
15 774
15 698
15 800
15 697
15 727
15 378
15 838
15 494
15 224
15 40
15 426
15 16
15 425
15 151
15 284
15 644
15 920
15 614
15 798
15 861
15 99
15 268
15 36
15 744
15 157
15 278
15 794
15 885
15 369
15 133
15 207
15 401
15 395
15 413
15 119
15 138
15 165
15 176
15 241
15 755
15 761
15 259
15 777
15 797
15 834
15 325
15 348
15 867
15 995
16 304
16 698
16 409
16 797
16 133
16 777
16 332
16 418
16 981
16 928
16 809
16 874
16 697
16 425
16 917
16 831
16 348
16 206
16 365
16 614
16 659
16 792
16 794
16 301
16 296
16 196
16 812
16 834
16 774
16 370
16 40
16 715
16 533
16 259
16 885
16 735
16 152
16 454
16 208
16 107
16 176
16 99
16 204
16 798
16 111
16 98
16 644
16 494
16 207
16 96
16 278
16 248
16 756
16 21
16 867
16 160
16 761
16 916
16 119
16 934
16 224
16 722
16 103
16 36
16 413
16 666
16 284
16 787
16 178
16 165
16 395
16 270
16 142
16 838
16 407
16 744
16 268
16 401
16 320
16 241
16 755
16 800
16 861
16 920
17 514
17 515
17 785
17 521
17 830
17 435
17 726
17 486
17 543
17 545
17 857
17 288
17 769
17 438
17 281
17 902
17 974
17 565
17 534
17 558
17 309
17 445
17 191
17 712
17 969
17 720
17 510
17 83
18 886
18 402
18 901
18 884
18 266
18 802
18 216
18 44
18 472
18 261
18 312
18 452
18 709
18 740
18 306
18 427
18 804
18 730
18 313
18 95
18 269
18 102
18 123
18 647
18 179
18 718
18 211
18 228
18 264
18 846
18 366
18 371
18 442
18 465
19 775
19 782
19 780
19 910
19 546
19 81
19 548
19 253
19 364
19 609
19 579
19 89
19 960
19 245
19 858
19 576
19 539
19 368
19 842
19 344
19 783
19 404
19 295
19 660
19 286
19 47
19 303
19 175
19 109
19 806
19 817
19 835
19 600
20 771
20 473
20 411
20 891
20 750
20 343
20 970
20 116
20 999
20 746
20 965
20 379
20 587
20 345
20 49
20 94
20 350
20 353
20 487
21 533
21 206
21 659
21 151
21 727
21 268
21 204
21 461
21 96
21 774
21 874
21 916
21 454
21 409
21 301
21 40
21 99
21 119
21 124
21 644
21 142
21 157
21 165
21 698
21 735
21 744
21 241
21 755
21 756
21 259
21 777
21 284
21 797
21 296
21 812
21 325
21 838
21 867
21 369
21 370
21 378
21 398
21 401
21 407
21 920
22 518
22 525
22 535
22 234
22 714
22 31
22 468
22 582
22 770
22 578
22 963
22 26
22 41
22 564
22 568
22 77
22 79
22 83
22 91
22 606
22 627
22 117
22 122
22 690
22 195
22 707
22 229
22 786
22 919
22 922
22 949
22 953
22 967
22 458
22 488
22 492
23 523
23 419
23 437
23 897
23 872
23 431
23 684
23 757
23 67
23 501
23 847
23 810
23 575
23 132
23 441
23 849
23 811
23 50
23 841
23 677
23 637
23 855
23 315
23 46
23 497
23 444
23 408
23 879
23 217
23 485
23 532
23 563
23 530
23 909
23 310
23 298
23 341
23 65
23 818
23 555
23 803
23 358
23 894
23 870
23 420
23 328
23 954
23 933
23 801
23 893
23 285
23 457
23 28
23 361
23 877
23 814
23 931
23 813
23 135
23 73
23 832
23 478
23 975
23 927
23 311
23 324
23 121
23 148
23 744
23 586
23 85
23 105
23 642
23 646
23 658
24 263
24 527
24 279
24 272
24 807
24 669
24 430
24 921
24 791
24 705
24 166
24 616
24 862
24 900
24 70
24 837
24 385
24 573
24 599
24 177
24 544
24 290
24 547
24 38
24 300
24 581
24 585
24 848
24 172
25 773
25 626
25 477
25 591
25 128
25 239
25 159
25 941
25 950
25 355
25 598
25 795
25 569
25 602
25 357
25 622
25 629
25 638
25 126
25 390
25 255
26 535
26 641
26 564
26 492
26 57
26 707
26 468
26 724
26 949
26 739
26 963
26 229
26 35
26 518
26 422
26 93
26 88
26 972
26 520
26 953
26 79
26 484
26 481
26 488
26 307
26 717
26 596
26 214
26 922
26 86
26 83
26 961
26 967
26 690
26 525
26 829
26 163
26 692
26 968
26 460
26 190
26 853
26 195
26 234
26 627
26 122
26 29
26 957
26 625
26 568
26 91
26 463
26 458
26 252
26 54
26 924
26 919
26 770
26 606
26 665
26 593
26 82
26 48
26 589
26 90
26 805
26 639
26 77
26 786
26 417
26 45
26 41
26 578
26 367
27 513
27 528
27 621
27 896
27 906
27 131
27 977
27 590
27 55
27 925
27 382
27 397
27 926
27 679
27 507
27 935
27 570
27 56
27 34
27 362
27 493
27 551
27 592
27 87
27 101
27 108
27 174
27 201
27 233
27 754
27 758
27 331
27 850
27 864
27 360
27 415
27 428
27 964
27 988
27 495
27 505
28 523
28 530
28 532
28 684
28 321
28 757
28 555
28 813
28 439
28 490
28 419
28 132
28 841
28 441
28 849
28 315
28 148
28 508
28 73
28 437
28 877
28 444
28 361
28 217
28 67
28 927
28 811
28 855
28 105
28 801
28 380
28 883
28 135
28 408
28 897
28 328
28 310
28 46
28 563
28 575
28 65
28 586
28 85
28 637
28 285
28 818
28 311
28 341
28 869
28 406
28 933
29 518
29 525
29 535
29 520
29 83
29 829
29 417
29 35
29 564
29 90
29 463
29 59
29 853
29 578
29 88
29 603
29 41
29 724
29 967
29 458
29 957
29 283
29 690
29 824
29 919
29 924
29 692
29 31
29 54
29 589
29 606
29 117
29 195
29 707
29 229
29 234
29 770
29 307
29 953
29 488
30 279
30 791
30 599
30 263
30 38
30 900
30 890
30 604
30 581
30 619
30 527
30 675
30 605
30 177
30 862
30 921
30 819
30 290
30 170
30 594
30 430
30 705
30 291
30 547
30 300
30 837
30 70
30 669
31 535
31 953
31 518
31 829
31 717
31 91
31 122
31 93
31 967
31 606
31 84
31 963
31 625
31 488
31 724
31 234
31 468
31 59
31 568
31 77
31 283
31 252
31 48
31 41
31 57
31 578
31 589
31 593
31 83
31 596
31 90
31 627
31 639
31 690
31 229
31 770
31 307
31 824
31 919
31 949
31 458
31 492
32 773
32 302
32 322
32 75
32 355
32 591
32 629
32 477
32 357
32 239
32 299
32 305
32 561
32 569
32 577
32 622
32 638
32 255
33 258
33 914
33 915
33 793
33 540
33 710
33 976
33 615
33 37
33 888
33 238
33 231
33 181
33 737
33 226
34 215
34 542
34 174
34 621
34 758
34 988
34 929
34 428
34 645
34 377
34 360
34 87
34 462
34 977
34 507
34 608
34 896
34 375
34 590
34 592
34 108
34 628
34 147
34 154
34 156
34 233
34 754
34 331
34 850
34 354
34 386
34 906
34 925
34 964
34 495
34 505
35 518
35 163
35 93
35 468
35 77
35 707
35 79
35 919
35 481
35 117
35 214
35 41
35 48
35 54
35 57
35 578
35 593
35 83
35 606
35 627
35 234
35 252
35 770
35 786
35 283
35 824
35 922
35 949
35 953
35 967
35 458
35 484
35 488
35 492
36 533
36 536
36 98
36 744
36 124
36 178
36 794
36 917
36 304
36 916
36 787
36 995
36 151
36 270
36 196
36 885
36 715
36 133
36 934
36 348
36 301
36 119
36 138
36 40
36 614
36 103
36 644
36 160
36 165
36 722
36 224
36 241
36 756
36 248
36 761
36 259
36 800
36 812
36 838
36 867
36 369
36 401
36 407
36 920
36 413
36 454
37 258
37 907
37 915
37 793
37 540
37 737
37 753
37 914
37 181
37 888
37 976
37 615
37 238
37 710
38 522
38 527
38 279
38 791
38 290
38 547
38 166
38 619
38 434
38 172
38 177
38 300
38 890
38 819
38 573
38 605
38 616
38 80
38 385
38 263
38 70
38 921
38 837
38 705
38 807
38 848
38 599
38 581
38 291
38 272
38 170
38 594
38 675
38 604
38 900
38 903
38 862
38 430
38 585
38 669
38 682
39 980
39 749
39 180
39 610
39 702
39 796
39 363
39 937
39 674
39 416
39 276
39 100
39 161
39 140
39 289
39 92
39 905
39 663
39 475
39 945
39 192
39 612
39 162
39 620
39 127
39 875
39 60
39 106
39 867
40 814
40 533
40 794
40 259
40 916
40 834
40 614
40 401
40 278
40 99
40 204
40 176
40 248
40 861
40 800
40 138
40 917
40 365
40 454
40 797
40 777
40 270
40 426
40 111
40 920
40 735
40 196
40 124
40 798
40 224
40 536
40 812
40 792
40 409
40 755
40 461
40 119
40 928
40 284
40 838
40 151
40 301
40 208
40 761
40 831
40 378
40 296
40 809
40 643
40 103
40 369
40 934
40 142
40 981
40 178
40 722
40 874
40 160
40 395
40 885
40 157
40 207
40 407
40 659
40 995
40 867
40 206
40 325
40 494
40 241
40 268
40 96
40 165
40 787
40 107
40 332
40 756
40 98
40 418
40 697
40 666
40 774
40 698
40 304
40 133
40 370
40 715
40 348
40 413
40 744
40 152
40 727
40 644
40 985
40 398
41 525
41 535
41 692
41 665
41 961
41 59
41 922
41 963
41 639
41 714
41 417
41 853
41 724
41 603
41 972
41 957
41 596
41 593
41 488
41 770
41 606
41 968
41 924
41 589
41 86
41 627
41 949
41 252
41 214
41 463
41 117
41 84
41 492
41 707
41 468
41 367
41 163
41 283
41 122
41 717
41 48
41 481
41 79
41 518
41 582
41 625
41 77
41 824
41 82
41 484
41 564
41 773
41 83
41 690
41 229
41 234
41 786
41 919
41 967
41 458
42 772
42 383
42 892
42 267
42 271
42 912
42 662
42 673
42 424
42 451
42 333
42 580
42 899
42 185
42 183
42 556
42 767
42 448
42 120
42 880
42 940
42 839
43 256
43 129
43 512
43 387
43 776
43 139
43 396
43 274
43 550
43 529
43 212
43 144
43 559
43 816
43 115
43 44
44 918
44 482
44 228
44 734
44 433
44 901
44 886
44 264
44 392
44 836
44 971
44 709
44 993
44 410
44 312
44 802
44 489
44 313
44 882
44 465
44 402
44 269
44 246
44 326
44 266
44 884
44 729
44 742
44 804
44 730
44 366
44 381
44 146
44 211
44 979
44 740
44 216
44 491
44 943
44 123
44 765
44 745
44 261
44 452
44 442
44 790
44 876
44 405
44 851
44 329
44 725
44 371
44 427
44 898
44 102
44 716
44 738
44 179
44 199
44 294
44 347
45 257
45 262
45 553
45 446
45 453
45 947
45 696
45 990
45 728
45 188
45 983
45 567
45 973
45 763
46 523
46 530
46 439
46 642
46 841
46 478
46 563
46 73
46 555
46 818
46 855
46 50
46 854
46 419
46 361
46 646
46 408
46 287
46 285
46 441
46 893
46 595
46 575
46 684
46 480
46 457
46 897
46 811
46 328
46 931
46 485
46 501
46 849
46 877
46 85
46 135
46 148
46 586
46 883
46 870
46 757
46 341
46 321
46 814
46 431
46 406
46 847
46 810
46 954
46 508
46 677
46 105
46 490
46 351
46 217
46 380
46 437
46 933
46 803
46 97
46 975
46 311
46 909
46 67
46 927
46 637
46 132
46 894
46 913
46 813
46 310
46 497
46 315
46 420
46 832
46 65
46 801
46 879
46 444
46 835
46 121
46 658
46 358
47 775
47 782
47 783
47 546
47 548
47 295
47 554
47 175
47 81
47 910
47 286
47 344
47 89
47 245
47 539
47 660
47 609
47 600
47 368
47 760
47 858
47 835
47 62
47 842
47 960
47 579
47 817
47 68
47 109
47 404
48 518
48 229
48 824
48 724
48 919
48 968
48 214
48 525
48 707
48 639
48 853
48 972
48 564
48 568
48 77
48 79
48 83
48 84
48 86
48 90
48 606
48 117
48 690
48 195
48 714
48 234
48 252
48 786
48 307
48 367
48 922
48 953
48 967
48 458
49 891
49 746
49 750
49 473
49 94
49 999
49 379
49 487
49 116
49 411
49 353
49 350
49 965
49 587
49 771
49 343
50 523
50 97
50 285
50 872
50 801
50 485
50 563
50 877
50 480
50 148
50 847
50 361
50 501
50 897
50 855
50 832
50 457
50 870
50 351
50 67
50 121
50 321
50 408
50 298
50 658
50 530
50 913
50 757
50 532
50 893
50 497
50 931
50 637
50 441
50 954
50 595
50 677
50 73
50 869
50 508
50 894
50 135
50 358
50 684
50 315
50 105
50 132
50 437
50 459
50 575
50 586
50 85
50 646
50 811
50 813
50 814
50 311
50 841
50 854
50 406
50 933
51 769
51 515
51 521
51 785
51 288
51 558
51 510
51 235
51 445
51 203
51 534
51 316
51 948
51 565
51 545
51 232
51 830
51 994
51 309
51 902
51 438
51 191
51 704
51 712
51 974
51 486
52 678
52 583
52 650
52 496
52 273
52 466
52 865
52 723
52 823
52 930
52 537
53 775
53 780
53 781
53 782
53 783
53 286
53 548
53 295
53 817
53 858
53 109
53 404
53 368
53 344
53 68
53 600
53 303
53 253
53 910
53 842
53 546
53 609
53 554
53 760
53 175
53 374
53 835
53 245
53 960
53 89
53 806
53 62
53 576
53 579
53 81
54 564
54 639
54 589
54 968
54 922
54 578
54 468
54 603
54 690
54 93
54 367
54 83
54 82
54 829
54 949
54 582
54 77
54 596
54 84
54 606
54 627
54 190
54 195
54 229
54 770
54 786
54 824
54 919
54 967
54 458
54 484
54 488
54 492
55 519
55 528
55 542
55 415
55 156
55 360
55 507
55 936
55 887
55 754
55 778
55 864
55 174
55 376
55 820
55 483
55 56
55 570
55 592
55 87
55 104
55 108
55 621
55 131
55 758
55 850
55 342
55 386
55 906
55 925
55 926
55 935
55 428
55 462
55 977
55 988
55 505
56 519
56 551
56 375
56 592
56 936
56 428
56 493
56 507
56 397
56 926
56 108
56 621
56 623
56 389
56 850
56 376
56 61
56 864
56 174
56 542
56 590
56 618
56 628
56 147
56 156
56 201
56 758
56 360
56 377
56 386
56 925
56 415
56 935
56 988
57 518
57 535
57 564
57 568
57 596
57 714
57 93
57 79
57 603
57 805
57 606
57 692
57 234
57 84
57 578
57 458
57 639
57 739
57 468
57 582
57 589
57 83
57 627
57 117
57 122
57 665
57 690
57 229
57 770
57 786
57 824
57 922
57 949
57 953
57 967
57 488
57 492
58 308
58 314
58 69
58 719
58 500
58 319
58 200
58 956
58 584
58 516
58 574
58 338
58 459
58 130
58 708
58 747
59 520
59 535
59 568
59 606
59 367
59 582
59 91
59 481
59 88
59 739
59 117
59 77
59 79
59 83
59 690
59 229
59 234
59 786
59 824
59 919
59 922
59 953
59 967
59 458
59 488
59 492
60 363
60 620
60 980
60 289
60 663
60 192
60 612
60 610
60 875
60 937
60 276
60 127
60 796
60 180
60 100
60 475
60 749
60 945
60 674
60 71
60 140
60 66
60 92
60 106
60 905
61 551
61 570
61 360
61 373
61 462
61 483
61 156
61 495
61 623
61 108
61 233
61 218
61 342
61 362
61 906
61 359
61 131
61 154
61 104
61 592
61 331
61 977
61 850
61 758
61 590
61 87
61 645
61 174
61 754
61 820
61 864
61 354
61 386
61 415
61 935
61 964
61 470
62 782
62 783
62 546
62 548
62 295
62 806
62 817
62 576
62 245
62 660
62 109
62 609
62 760
62 910
62 344
62 539
62 600
62 374
62 579
62 68
62 368
62 175
63 256
63 776
63 393
63 139
63 396
63 144
63 529
63 550
63 423
63 687
63 816
63 274
63 212
63 387
63 115
64 571
64 826
64 768
64 205
64 215
64 688
64 868
64 998
64 293
64 167
64 827
64 145
64 384
64 356
64 155
64 432
64 683
64 788
64 323
64 889
64 672
64 779
64 653
64 230
64 860
64 244
64 873
64 336
64 275
64 686
64 671
64 736
64 731
64 277
64 213
64 721
64 249
64 193
64 703
64 932
64 784
64 464
64 664
64 194
64 498
64 699
64 169
64 743
64 76
64 856
64 136
64 168
64 197
64 223
64 254
64 938
65 523
65 530
65 555
65 575
65 684
65 485
65 883
65 803
65 841
65 67
65 73
65 757
65 931
65 431
65 954
65 877
65 420
65 85
65 870
65 310
65 497
65 847
65 677
65 148
65 894
65 480
65 879
65 913
65 832
65 97
65 893
65 321
65 444
65 408
65 646
65 814
65 818
65 324
65 341
65 358
65 406
65 927
65 419
65 933
65 975
65 501
66 276
66 289
66 610
66 162
66 106
66 749
66 92
66 100
66 363
66 905
66 192
66 674
66 612
66 71
66 937
66 796
66 416
66 475
66 161
66 663
66 140
66 127
66 180
66 875
66 620
66 702
67 523
67 530
67 555
67 575
67 437
67 893
67 847
67 457
67 913
67 287
67 217
67 931
67 870
67 497
67 757
67 508
67 927
67 444
67 869
67 883
67 933
67 810
67 419
67 811
67 803
67 814
67 485
67 975
67 285
67 813
67 73
67 872
67 849
67 637
67 855
67 595
67 841
67 954
67 311
67 684
67 832
67 490
67 658
67 894
67 310
67 441
67 501
67 431
67 321
67 380
67 677
67 480
67 854
67 478
67 406
67 328
67 877
67 897
67 148
67 532
67 500
67 85
67 97
67 646
67 801
67 818
67 358
67 909
68 386
68 775
68 780
68 782
68 546
68 295
68 576
68 835
68 842
68 579
68 783
68 303
68 554
68 175
68 89
68 245
68 253
68 344
68 806
68 81
68 368
68 781
68 600
68 817
68 660
68 609
68 858
68 760
68 109
68 404
68 960
69 130
69 516
69 308
69 186
69 314
69 956
69 574
69 719
69 747
69 500
69 200
69 459
69 584
69 338
70 522
70 272
70 544
70 290
70 547
70 300
70 819
70 573
70 291
70 675
70 594
70 605
70 890
70 177
70 604
70 862
70 263
70 921
70 669
70 900
70 585
70 599
70 616
70 903
70 682
71 276
71 289
71 92
71 106
71 162
71 905
71 127
71 363
71 749
71 416
71 980
71 161
71 937
71 612
71 674
71 610
71 702
71 663
71 875
71 620
71 180
71 100
71 945
71 140
71 192
71 796
71 475
72 388
72 654
72 789
72 821
72 320
72 985
72 112
72 997
72 667
72 895
72 751
72 764
72 759
73 523
73 530
73 563
73 575
73 490
73 658
73 555
73 358
73 457
73 478
73 485
73 870
73 841
73 954
73 646
73 814
73 975
73 444
73 441
73 879
73 893
73 85
73 105
73 642
73 217
73 813
73 818
73 311
73 832
73 321
73 854
73 877
73 927
73 419
73 933
73 497
74 651
74 280
74 450
74 455
74 634
74 624
74 741
74 989
74 845
74 982
74 502
74 992
74 840
74 631
74 856
74 429
74 237
74 607
75 795
75 305
75 561
75 569
75 941
75 598
75 477
75 126
75 159
75 255
75 150
75 322
75 591
75 357
75 622
75 372
75 630
75 128
76 323
76 826
76 736
76 860
76 571
76 889
76 193
76 205
76 213
76 873
76 449
76 731
76 827
76 998
76 938
76 336
76 356
76 260
76 197
76 784
76 155
76 779
76 136
76 220
76 194
76 688
76 412
76 339
76 788
76 223
76 293
76 672
76 683
76 743
76 384
76 277
76 699
76 215
76 169
76 168
76 432
76 635
76 464
76 671
76 254
76 145
76 244
76 932
76 868
76 664
76 768
76 230
76 686
76 498
76 762
76 167
76 251
76 721
77 535
77 468
77 234
77 163
77 79
77 953
77 84
77 488
77 707
77 307
77 190
77 714
77 589
77 786
77 195
77 603
77 492
77 91
77 86
77 122
77 961
77 463
77 367
77 957
77 90
77 968
77 770
77 972
77 692
77 665
77 88
77 724
77 484
77 117
77 460
77 252
77 829
77 717
77 853
77 82
77 458
77 949
77 481
77 283
77 93
77 417
77 919
77 520
77 568
77 422
77 639
77 606
77 578
77 924
77 229
77 922
77 525
77 824
77 564
77 690
77 593
77 214
77 582
77 596
77 387
77 83
77 627
77 967
78 265
78 572
78 421
78 221
78 153
78 685
78 649
78 640
78 959
78 695
78 443
78 143
78 440
78 942
78 225
78 340
78 648
78 991
78 506
78 187
78 531
78 509
78 656
78 866
78 469
78 391
78 904
78 908
78 652
78 676
78 209
79 535
79 564
79 589
79 229
79 252
79 525
79 786
79 717
79 463
79 93
79 919
79 488
79 957
79 692
79 458
79 665
79 924
79 195
79 593
79 639
79 578
79 967
79 853
79 520
79 972
79 627
79 84
79 88
79 83
79 606
79 690
79 190
79 707
79 234
79 949
79 953
79 481
79 492
80 522
80 272
80 279
80 290
80 291
80 547
80 300
80 573
80 585
80 604
80 921
80 848
80 599
80 862
80 890
80 900
80 669
80 705
81 781
81 782
81 286
81 546
81 295
81 554
81 576
81 579
81 858
81 175
81 835
81 775
81 660
81 817
81 806
81 374
81 780
81 960
81 760
81 344
81 842
81 609
81 783
81 245
81 109
82 564
82 568
82 578
82 589
82 593
82 963
82 488
82 968
82 692
82 957
82 770
82 805
82 525
82 86
82 307
82 83
82 596
82 84
82 91
82 93
82 606
82 627
82 690
82 707
82 229
82 234
82 252
82 786
82 824
82 367
82 919
82 949
82 967
83 568
83 593
83 190
83 229
83 924
83 484
83 195
83 422
83 525
83 93
83 596
83 665
83 122
83 714
83 717
83 805
83 458
83 367
83 86
83 234
83 853
83 88
83 739
83 460
83 117
83 488
83 961
83 564
83 520
83 724
83 214
83 770
83 953
83 463
83 707
83 518
83 606
83 627
83 589
83 91
83 468
83 163
83 535
83 968
83 307
83 417
83 957
83 578
83 963
83 967
83 492
83 972
83 690
83 824
83 949
83 641
83 919
83 786
83 283
83 922
84 535
84 564
84 568
84 582
84 593
84 829
84 91
84 690
84 93
84 957
84 665
84 972
84 460
84 481
84 468
84 805
84 606
84 122
84 195
84 229
84 234
84 252
84 307
84 824
84 919
84 949
84 953
84 967
84 458
84 488
84 492
85 523
85 532
85 555
85 563
85 575
85 586
85 298
85 855
85 437
85 310
85 419
85 757
85 501
85 832
85 814
85 324
85 315
85 490
85 872
85 105
85 341
85 869
85 285
85 646
85 854
85 813
85 287
85 321
85 927
85 803
85 847
85 121
85 406
85 975
85 420
85 954
85 97
85 877
85 480
85 818
85 530
85 358
85 849
85 637
85 913
85 457
85 217
85 441
85 841
85 810
85 408
85 478
85 311
85 148
85 883
85 879
85 909
85 620
85 801
85 811
85 933
85 485
85 497
86 197
86 535
86 564
86 967
86 707
86 972
86 484
86 968
86 88
86 627
86 824
86 468
86 739
86 639
86 953
86 606
86 117
86 690
86 195
86 229
86 234
86 786
86 307
86 919
86 922
86 949
86 458
86 488
86 492
87 519
87 570
87 592
87 551
87 887
87 218
87 962
87 926
87 850
87 462
87 929
87 542
87 359
87 382
87 376
87 621
87 156
87 375
87 513
87 495
87 754
87 373
87 618
87 354
87 386
87 906
87 360
87 528
87 389
87 936
87 977
87 493
87 154
87 201
87 507
87 415
87 483
87 503
87 645
87 864
87 377
87 101
87 428
87 131
87 679
87 628
87 104
87 174
87 925
87 474
87 233
87 623
87 147
87 655
87 397
87 342
87 896
87 988
87 470
87 608
87 590
87 935
87 758
87 778
87 964
87 820
87 505
87 108
87 362
87 951
87 296
87 118
88 564
88 589
88 596
88 568
88 518
88 195
88 957
88 117
88 417
88 463
88 717
88 520
88 953
88 739
88 606
88 625
88 690
88 229
88 234
88 786
88 283
88 824
88 919
88 922
88 949
88 967
88 458
88 488
88 492
89 780
89 539
89 546
89 295
89 817
89 576
89 579
89 253
89 175
89 609
89 245
90 518
90 535
90 578
90 593
90 919
90 606
90 627
90 117
90 639
90 195
90 229
90 234
90 307
90 824
90 367
90 949
90 967
90 458
90 488
90 492
91 356
91 518
91 520
91 535
91 578
91 582
91 714
91 627
91 968
91 117
91 190
91 460
91 481
91 93
91 829
91 568
91 961
91 214
91 564
91 606
91 195
91 707
91 229
91 234
91 770
91 307
91 824
91 367
91 919
91 949
91 953
91 967
91 458
91 488
92 192
92 620
92 610
92 945
92 796
92 162
92 980
92 289
92 106
92 363
92 905
92 140
92 161
92 937
92 475
92 749
93 518
93 525
93 535
93 582
93 593
93 195
93 665
93 460
93 520
93 692
93 589
93 690
93 606
93 627
93 229
93 234
93 786
93 824
93 919
93 922
93 949
93 953
93 458
93 481
93 488
94 771
94 891
94 411
94 970
94 473
94 345
94 116
94 965
94 343
94 487
94 350
94 587
94 999
94 746
95 266
95 836
95 184
95 491
95 709
95 465
95 846
95 588
95 329
95 886
95 876
95 199
95 264
95 765
95 825
95 993
95 123
95 472
95 790
95 146
95 179
95 730
95 734
95 738
95 246
95 294
95 312
95 366
95 371
95 884
95 442
95 979
96 533
96 536
96 834
96 248
96 99
96 735
96 761
96 119
96 666
96 744
96 142
96 643
96 133
96 659
96 151
96 152
96 157
96 165
96 176
96 178
96 698
96 207
96 722
96 224
96 241
96 756
96 268
96 284
96 296
96 809
96 812
96 838
96 348
96 867
96 369
96 885
96 378
96 395
96 398
96 401
96 920
96 413
96 454
96 995
97 523
97 575
97 595
97 855
97 927
97 132
97 485
97 105
97 555
97 358
97 324
97 311
97 480
97 849
97 361
97 431
97 532
97 351
97 444
97 870
97 530
97 642
97 658
97 419
97 121
97 646
97 684
97 298
97 813
97 814
97 832
97 321
97 869
97 877
97 380
97 909
97 406
97 933
97 457
97 975
97 497
97 501
98 533
98 196
98 797
98 614
98 103
98 794
98 838
98 304
98 800
98 407
98 981
98 494
98 755
98 934
98 248
98 124
98 107
98 644
98 142
98 151
98 666
98 165
98 176
98 178
98 698
98 207
98 727
98 744
98 756
98 761
98 259
98 777
98 284
98 296
98 809
98 834
98 867
98 401
98 920
98 995
99 536
99 160
99 885
99 454
99 409
99 124
99 831
99 395
99 206
99 103
99 304
99 756
99 715
99 111
99 644
99 142
99 151
99 666
99 157
99 165
99 698
99 208
99 735
99 224
99 744
99 761
99 777
99 284
99 798
99 296
99 812
99 838
99 348
99 867
99 369
99 378
99 401
99 407
99 920
99 413
99 995
99 967
100 276
100 875
100 180
100 192
100 905
100 140
100 620
100 980
100 106
100 612
100 663
100 674
100 945
101 519
101 542
101 608
101 428
101 331
101 462
101 925
101 850
101 758
101 645
101 935
101 621
101 493
101 104
101 618
101 108
101 154
101 156
101 174
101 233
101 754
101 820
101 354
101 377
101 988
101 495
101 507
102 228
102 740
102 489
102 442
102 410
102 898
102 886
102 745
102 943
102 123
102 804
102 725
102 993
102 199
102 884
102 114
102 179
102 347
102 730
102 184
102 465
102 802
102 846
102 405
102 306
102 588
102 326
102 718
102 246
102 825
102 313
102 427
102 211
102 765
102 216
102 716
102 294
102 329
102 742
102 402
102 264
102 266
102 392
102 709
102 738
102 371
102 146
102 790
102 312
102 836
102 366
102 901
102 433
103 536
103 278
103 867
103 369
103 165
103 995
103 138
103 800
103 270
103 413
103 885
103 133
103 494
103 259
103 332
103 861
103 204
103 284
103 176
103 304
103 797
103 370
103 157
103 348
103 407
103 761
103 151
103 160
103 248
103 794
103 614
103 722
103 124
103 296
103 107
103 644
103 698
103 207
103 727
103 744
103 241
103 755
103 756
103 777
103 834
103 838
103 395
103 398
103 920
104 519
104 592
104 386
104 936
104 360
104 896
104 359
104 397
104 503
104 493
104 377
104 951
104 201
104 820
104 233
104 621
104 354
104 618
104 628
104 645
104 147
104 154
104 156
104 174
104 754
104 758
104 331
104 342
104 926
104 415
104 935
104 988
104 505
104 507
105 523
105 532
105 555
105 563
105 586
105 658
105 285
105 813
105 437
105 361
105 351
105 420
105 869
105 121
105 328
105 132
105 406
105 457
105 646
105 485
105 217
105 684
105 933
105 954
105 931
105 311
105 677
105 530
105 877
105 642
105 854
105 408
105 893
105 870
105 358
105 803
105 814
105 810
105 439
105 818
105 879
105 913
105 909
105 637
105 849
105 490
105 975
105 894
105 298
105 287
105 501
105 321
105 380
105 419
105 595
105 801
105 341
105 927
105 444
105 855
105 441
105 148
105 872
105 883
105 497
105 431
105 575
105 135
105 310
105 841
105 508
105 847
105 527
105 811
105 324
105 478
106 276
106 796
106 612
106 610
106 192
106 475
106 289
106 363
106 980
106 663
106 127
106 620
106 674
106 180
107 536
107 160
107 370
107 722
107 644
107 398
107 735
107 834
107 348
107 176
107 792
107 142
107 151
107 666
107 157
107 165
107 698
107 208
107 727
107 744
107 241
107 756
107 259
107 777
107 794
107 812
107 867
107 369
107 885
107 378
107 401
107 407
107 920
107 413
107 454
107 995
108 519
108 551
108 570
108 592
108 758
108 495
108 362
108 864
108 977
108 645
108 470
108 936
108 154
108 377
108 474
108 542
108 415
108 118
108 505
108 375
108 389
108 964
108 218
108 174
108 376
108 850
108 462
108 618
108 628
108 655
108 528
108 507
108 926
108 359
108 513
108 233
108 962
108 935
108 679
108 428
108 131
108 147
108 156
108 354
108 386
108 373
108 503
108 360
108 483
108 887
108 906
108 820
108 148
108 331
108 925
108 951
109 775
109 780
109 781
109 782
109 783
109 546
109 548
109 295
109 806
109 303
109 576
109 835
109 609
109 660
109 817
109 600
109 858
109 404
109 910
109 245
109 253
109 286
109 344
109 960
109 554
109 374
109 760
109 368
109 364
109 175
109 579
109 842
110 526
110 399
110 158
110 171
110 173
110 946
110 182
110 733
110 222
110 863
110 617
110 243
110 632
110 227
111 485
111 536
111 774
111 867
111 208
111 666
111 792
111 722
111 160
111 278
111 755
111 407
111 409
111 614
111 916
111 727
111 426
111 735
111 365
111 207
111 761
111 787
111 838
111 981
111 124
111 461
111 325
111 715
111 259
111 413
111 178
111 401
111 834
111 284
111 885
111 296
111 270
111 494
111 119
111 644
111 142
111 151
111 165
111 698
111 744
111 241
111 756
111 777
111 798
111 800
111 809
111 812
111 348
111 369
111 370
111 454
111 995
112 654
112 789
112 667
112 320
112 985
112 751
112 388
112 895
112 764
112 997
113 210
113 987
113 996
113 164
113 681
113 251
113 694
113 297
113 499
113 633
113 250
114 408
114 738
114 765
114 742
114 884
114 709
114 886
114 851
114 329
114 123
114 179
114 184
114 199
114 725
114 730
114 740
114 264
114 790
114 312
114 347
114 366
114 371
114 898
114 901
114 427
114 465
114 979
114 993
114 491
115 256
115 512
115 776
115 396
115 274
115 550
115 423
115 687
115 139
115 529
115 541
115 212
116 771
116 965
116 970
116 587
116 343
116 473
116 345
116 350
116 353
116 487
116 746
116 750
116 379
117 518
117 520
117 535
117 564
117 568
117 582
117 593
117 606
117 422
117 122
117 922
117 307
117 468
117 488
117 953
117 924
117 484
117 578
117 972
117 786
117 589
117 714
117 639
117 481
117 460
117 665
117 824
117 919
117 627
117 190
117 707
117 195
117 690
117 229
117 234
117 283
117 967
117 458
118 519
118 528
118 608
118 618
118 628
118 936
118 864
118 505
118 754
118 397
118 926
118 362
118 375
118 373
118 342
118 645
118 147
118 154
118 156
118 174
118 233
118 758
118 820
118 331
118 906
118 925
118 415
118 964
118 977
118 988
118 495
119 533
119 536
119 178
119 697
119 407
119 981
119 643
119 157
119 207
119 138
119 160
119 176
119 409
119 317
119 831
119 378
119 916
119 348
119 774
119 995
119 133
119 224
119 370
119 934
119 418
119 812
119 204
119 494
119 727
119 698
119 659
119 165
119 735
119 744
119 241
119 755
119 756
119 296
119 809
119 325
119 867
119 885
119 401
119 920
119 454
120 383
120 267
120 271
120 767
120 424
120 808
120 939
120 185
120 333
120 662
120 772
120 580
120 292
120 899
120 471
120 940
120 183
120 673
120 556
120 448
120 843
120 451
120 839
120 880
121 523
121 530
121 563
121 575
121 586
121 135
121 490
121 444
121 849
121 328
121 813
121 869
121 931
121 324
121 954
121 870
121 419
121 897
121 646
121 637
121 658
121 801
121 298
121 811
121 814
121 818
121 311
121 841
121 358
121 361
121 877
121 408
121 933
121 975
121 497
122 761
122 535
122 564
122 568
122 578
122 589
122 606
122 625
122 627
122 596
122 518
122 229
122 639
122 690
122 195
122 707
122 234
122 252
122 786
122 919
122 949
122 953
122 967
122 484
122 488
123 588
123 452
123 381
123 729
123 269
123 405
123 836
123 326
123 329
123 730
123 216
123 264
123 884
123 410
123 647
123 825
123 718
123 851
123 901
123 993
123 943
123 898
123 918
123 179
123 738
123 184
123 971
123 709
123 882
123 742
123 740
123 347
123 228
123 491
123 261
123 876
123 802
123 465
123 294
123 392
123 306
123 716
123 371
123 790
123 886
123 312
123 146
123 313
123 472
123 442
123 199
123 765
123 266
123 229
123 211
123 366
123 427
123 433
123 979
124 494
124 325
124 792
124 259
124 278
124 304
124 722
124 797
124 812
124 401
124 138
124 774
124 426
124 142
124 735
124 296
124 425
124 301
124 369
124 787
124 157
124 270
124 133
124 151
124 666
124 165
124 176
124 178
124 698
124 224
124 744
124 241
124 756
124 798
124 800
124 809
124 834
124 838
124 348
124 867
124 920
124 413
124 995
125 134
125 447
125 966
125 327
125 467
125 852
125 601
125 352
125 878
125 334
125 597
125 335
125 400
125 881
125 984
125 240
125 149
125 504
125 670
125 403
125 511
126 795
126 299
126 302
126 322
126 591
126 598
126 602
126 355
126 305
126 394
126 357
126 950
126 159
126 477
126 236
126 626
126 128
126 390
126 456
127 276
127 796
127 620
127 363
127 612
127 180
127 610
127 749
127 161
127 905
127 663
127 674
127 937
127 475
128 773
128 795
128 561
128 569
128 577
128 591
128 598
128 622
128 372
128 629
128 630
128 638
128 150
128 477
128 357
128 456
128 355
128 159
128 394
128 941
128 322
128 305
128 239
128 602
128 299
128 950
128 255
128 236
129 256
129 396
129 541
129 816
129 212
129 512
129 559
129 144
129 139
129 550
129 776
129 687
130 459
130 200
130 719
130 708
130 186
130 516
130 198
130 500
130 956
130 319
130 747
130 574
130 308
131 736
131 666
131 519
131 551
131 592
131 628
131 623
131 962
131 354
131 906
131 655
131 977
131 645
131 389
131 936
131 896
131 360
131 926
131 154
131 174
131 201
131 233
131 754
131 758
131 331
131 925
131 935
131 964
131 988
131 505
131 507
132 523
132 575
132 586
132 646
132 217
132 361
132 437
132 684
132 358
132 855
132 847
132 931
132 485
132 431
132 872
132 328
132 801
132 298
132 811
132 814
132 311
132 832
132 841
132 351
132 869
132 909
132 406
132 927
132 419
132 933
132 497
133 536
133 643
133 370
133 798
133 369
133 794
133 165
133 332
133 831
133 151
133 152
133 666
133 157
133 722
133 224
133 744
133 241
133 755
133 756
133 259
133 838
133 867
133 378
133 401
133 920
133 426
134 335
134 966
134 149
134 881
134 597
134 504
134 337
134 447
134 511
134 984
134 240
134 400
134 670
134 467
134 601
134 878
134 403
134 352
134 327
134 852
135 523
135 530
135 555
135 575
135 586
135 893
135 437
135 406
135 478
135 818
135 420
135 677
135 637
135 757
135 832
135 931
135 341
135 380
135 658
135 975
135 361
135 490
135 457
135 803
135 909
135 813
135 814
135 311
135 321
135 358
135 869
135 877
135 933
135 485
135 497
136 571
136 244
136 275
136 938
136 464
136 873
136 356
136 671
136 230
136 911
136 293
136 167
136 336
136 826
136 868
136 412
136 213
136 703
136 731
136 323
136 860
136 683
136 768
136 193
136 635
136 653
136 664
136 169
136 205
136 721
136 215
136 736
136 223
136 743
136 254
136 779
136 384
136 432
137 531
137 340
137 866
137 640
137 904
137 649
137 391
137 908
137 676
137 143
137 469
137 187
137 572
137 652
137 421
137 991
137 221
137 701
137 693
137 440
137 436
137 656
137 695
137 942
137 685
137 209
137 225
138 533
138 165
138 204
138 332
138 934
138 885
138 325
138 755
138 196
138 831
138 798
138 838
138 861
138 206
138 834
138 698
138 666
138 659
138 151
138 157
138 160
138 176
138 178
138 207
138 722
138 735
138 224
138 744
138 756
138 761
138 259
138 777
138 794
138 284
138 800
138 348
138 867
138 369
138 395
138 401
138 920
138 454
138 995
139 512
139 393
139 687
139 256
139 423
139 144
139 560
139 212
139 387
139 550
139 529
139 776
139 396
139 274
140 276
140 796
140 289
140 875
140 905
140 610
140 980
140 749
140 937
140 663
140 945
140 475
141 651
141 992
141 840
141 657
141 502
141 856
141 631
141 982
141 450
141 661
141 455
141 713
141 989
141 741
142 536
142 644
142 196
142 787
142 735
142 325
142 259
142 409
142 798
142 426
142 395
142 774
142 152
142 165
142 917
142 301
142 278
142 928
142 454
142 425
142 722
142 369
142 861
142 800
142 920
142 176
142 831
142 812
142 934
142 332
142 413
142 794
142 151
142 398
142 494
142 744
142 697
142 643
142 533
142 208
142 614
142 809
142 378
142 157
142 418
142 659
142 296
142 241
142 397
142 666
142 160
142 698
142 756
142 761
142 777
142 284
142 797
142 834
142 838
142 867
142 370
142 885
142 407
142 995
143 340
143 866
143 640
143 904
143 391
143 908
143 676
143 153
143 265
143 693
143 531
143 209
143 225
143 443
143 509
143 991
143 656
143 436
143 695
143 701
143 942
143 959
143 469
143 649
143 421
143 648
143 685
143 440
143 506
144 512
144 776
144 393
144 396
144 550
144 387
144 274
144 541
144 559
144 816
145 356
145 464
145 384
145 736
145 412
145 194
145 215
145 260
145 244
145 339
145 323
145 155
145 671
145 169
145 688
145 699
145 193
145 197
145 205
145 721
145 731
145 220
145 223
145 743
145 254
145 779
145 826
145 868
145 873
146 523
146 884
146 790
146 261
146 402
146 729
146 199
146 918
146 802
146 392
146 647
146 718
146 740
146 329
146 734
146 993
146 765
146 246
146 489
146 410
146 709
146 472
146 876
146 366
146 465
146 716
146 405
146 851
146 433
146 264
146 179
146 211
146 738
146 745
146 269
146 312
146 371
146 427
146 452
146 979
146 491
147 949
147 513
147 519
147 528
147 551
147 590
147 628
147 645
147 389
147 964
147 655
147 988
147 373
147 621
147 887
147 778
147 154
147 542
147 359
147 201
147 362
147 936
147 376
147 386
147 906
147 977
147 493
147 483
147 218
147 929
147 864
147 470
147 570
147 623
147 618
147 156
147 174
147 233
147 754
147 758
147 820
147 925
147 926
147 415
147 428
147 462
147 474
148 523
148 530
148 532
148 586
148 595
148 642
148 646
148 217
148 285
148 298
148 811
148 813
148 814
148 818
148 311
148 832
148 321
148 841
148 341
148 854
148 358
148 877
148 406
148 408
148 927
148 933
148 485
148 497
148 501
149 337
149 240
149 511
149 447
149 966
149 467
149 352
149 400
149 335
149 601
149 403
149 852
149 984
149 334
149 881
149 670
150 795
150 591
150 598
150 357
150 372
150 638
150 390
150 394
150 477
150 255
151 975
151 644
151 659
151 800
151 370
151 206
151 792
151 917
151 735
151 494
151 204
151 178
151 317
151 794
151 418
151 332
151 270
151 834
151 831
151 165
151 697
151 157
151 461
151 369
151 774
151 756
151 398
151 196
151 278
151 401
151 301
151 426
151 787
151 152
151 348
151 248
151 268
151 761
151 812
151 838
151 727
151 809
151 614
151 928
151 995
151 867
151 296
151 378
151 536
151 425
151 208
151 395
151 365
151 777
151 874
151 224
151 241
151 934
151 698
151 643
151 722
151 981
151 409
151 407
151 861
151 798
151 920
151 454
151 284
151 533
151 416
151 666
151 160
151 207
151 744
151 259
151 325
151 885
151 413
152 206
152 798
152 787
152 196
152 698
152 727
152 861
152 398
152 981
152 917
152 270
152 241
152 644
152 792
152 407
152 920
152 756
152 666
152 157
152 160
152 165
152 176
152 208
152 722
152 735
152 224
152 744
152 761
152 259
152 777
152 794
152 284
152 800
152 809
152 812
152 834
152 838
152 348
152 867
152 885
152 401
152 413
152 454
153 531
153 572
153 340
153 866
153 640
153 908
153 652
153 656
153 443
153 469
153 391
153 676
153 436
153 695
153 440
153 209
153 225
154 519
154 542
154 551
154 608
154 618
154 645
154 495
154 359
154 373
154 592
154 386
154 505
154 962
154 156
154 621
154 988
154 362
154 233
154 628
154 896
154 679
154 820
154 342
154 655
154 929
154 754
154 864
154 375
154 936
154 470
154 397
154 428
154 474
154 951
154 507
154 389
154 977
154 331
154 377
154 483
154 590
154 926
154 201
154 906
154 623
154 376
154 513
154 354
154 778
154 528
154 887
154 935
154 712
154 174
154 758
154 850
154 925
154 462
155 571
155 653
155 249
155 356
155 932
155 215
155 743
155 671
155 244
155 293
155 762
155 384
155 498
155 230
155 827
155 686
155 664
155 194
155 169
155 193
155 197
155 205
155 721
155 731
155 223
155 779
155 826
155 868
156 519
156 645
156 988
156 906
156 428
156 483
156 375
156 493
156 507
156 462
156 820
156 926
156 754
156 377
156 174
156 505
156 542
156 590
156 373
156 359
156 608
156 864
156 964
156 925
156 354
156 655
156 628
156 929
156 951
156 503
156 382
156 896
156 977
156 887
156 470
156 623
156 362
156 850
156 218
156 415
156 528
156 397
156 386
156 495
156 474
156 331
156 592
156 233
156 580
156 758
156 342
157 644
157 659
157 301
157 643
157 278
157 756
157 755
157 369
157 800
157 494
157 995
157 208
157 317
157 874
157 241
157 398
157 248
157 348
157 861
157 831
157 454
157 204
157 178
157 407
157 259
157 401
157 176
157 160
157 207
157 418
157 797
157 409
157 304
157 533
157 787
157 165
157 425
157 697
157 744
157 370
157 715
157 224
157 284
157 325
157 206
157 885
157 395
157 777
157 727
157 916
157 614
157 735
157 196
157 812
157 838
157 867
157 798
157 809
157 761
157 794
157 934
157 268
157 955
157 722
157 920
158 526
158 222
158 227
158 632
158 733
158 399
158 182
158 171
158 863
158 617
158 243
158 173
158 946
159 773
159 299
159 561
159 322
159 591
159 602
159 622
159 372
159 629
159 630
159 302
159 638
159 236
159 577
159 950
159 569
159 456
159 394
159 357
159 390
159 284
160 465
160 643
160 774
160 917
160 165
160 794
160 268
160 196
160 418
160 916
160 981
160 278
160 744
160 284
160 995
160 812
160 369
160 831
160 426
160 809
160 296
160 304
160 885
160 454
160 398
160 697
160 317
160 413
160 401
160 666
160 874
160 792
160 176
160 722
160 735
160 224
160 756
160 259
160 777
160 797
160 800
160 301
160 838
160 348
160 867
160 370
160 920
161 276
161 289
161 612
161 875
161 620
161 363
161 663
161 416
161 937
161 475
161 674
161 702
161 192
161 749
162 276
162 610
162 612
162 875
162 674
162 289
162 620
162 796
162 475
162 945
162 749
163 564
163 578
163 593
163 603
163 606
163 627
163 805
163 195
163 707
163 714
163 229
163 234
163 252
163 770
163 824
163 919
163 949
163 953
163 967
163 458
163 492
164 210
164 987
164 996
164 766
164 871
164 250
164 694
164 633
164 681
164 251
164 297
165 666
165 774
165 348
165 317
165 722
165 248
165 207
165 206
165 407
165 874
165 325
165 176
165 301
165 284
165 418
165 831
165 659
165 268
165 454
165 369
165 533
165 787
165 756
165 735
165 934
165 861
165 296
165 208
165 426
165 812
165 398
165 744
165 494
165 178
165 917
165 370
165 278
165 797
165 259
165 378
165 727
165 916
165 995
165 461
165 755
165 395
165 643
165 224
165 304
165 401
165 413
165 365
165 425
165 332
165 920
165 928
165 777
165 800
165 204
165 981
165 834
165 809
165 644
165 794
165 196
165 838
165 270
165 792
165 867
165 761
165 885
165 798
165 697
165 614
165 241
165 409
165 311
165 698
166 527
166 290
166 291
166 547
166 300
166 573
166 581
166 599
166 605
166 890
166 669
166 522
166 172
166 705
167 571
167 671
167 699
167 223
167 664
167 193
167 412
167 275
167 762
167 827
167 721
167 230
167 731
167 889
167 169
167 686
167 688
167 703
167 197
167 215
167 736
167 743
167 244
167 779
167 826
167 356
167 384
167 932
167 998
168 571
168 653
168 664
168 671
168 339
168 412
168 998
168 464
168 683
168 197
168 762
168 169
168 686
168 688
168 703
168 193
168 205
168 721
168 215
168 731
168 220
168 736
168 223
168 244
168 356
168 868
168 873
168 384
169 571
169 635
169 653
169 671
169 672
169 449
169 205
169 339
169 788
169 293
169 432
169 213
169 868
169 768
169 889
169 464
169 249
169 323
169 784
169 275
169 223
169 932
169 827
169 412
169 779
169 703
169 699
169 683
169 911
169 743
169 826
169 938
169 384
169 498
169 336
169 664
169 873
169 215
169 731
169 736
169 998
169 230
169 193
169 254
169 197
169 762
169 860
169 194
169 732
169 721
169 244
170 263
170 522
170 290
170 547
170 807
170 300
170 848
170 599
170 862
170 616
170 900
170 921
170 605
170 544
170 279
170 177
170 594
170 819
170 585
170 619
170 527
170 581
170 272
170 682
170 434
170 705
171 526
171 399
171 243
171 863
171 222
171 733
171 632
171 182
171 946
171 617
171 227
171 173
172 522
172 527
172 272
172 544
172 547
172 300
172 573
172 599
172 862
172 900
172 921
172 669
172 791
172 581
172 705
173 526
173 399
173 946
173 227
173 222
173 863
173 632
173 243
173 182
173 617
173 733
174 519
174 551
174 570
174 590
174 592
174 618
174 474
174 906
174 389
174 513
174 962
174 754
174 493
174 495
174 608
174 342
174 331
174 820
174 362
174 988
174 360
174 935
174 623
174 505
174 382
174 386
174 218
174 628
174 896
174 925
174 778
174 359
174 375
174 977
174 926
174 758
174 887
174 462
174 951
174 528
174 483
174 621
174 850
174 377
174 233
174 507
174 936
174 415
174 503
174 201
174 929
174 397
174 428
174 655
174 478
174 964
175 782
175 539
175 286
175 546
175 295
175 806
175 576
175 579
175 609
175 368
175 374
175 253
175 364
175 780
175 910
175 835
175 781
175 404
175 842
175 660
175 548
175 783
175 775
175 245
175 600
175 303
175 344
175 960
176 884
176 659
176 797
176 761
176 787
176 398
176 995
176 777
176 248
176 454
176 798
176 666
176 934
176 644
176 874
176 296
176 722
176 614
176 981
176 241
176 792
176 317
176 224
176 370
176 533
176 461
176 697
176 698
176 278
176 413
176 727
176 809
176 395
176 259
176 744
176 494
176 715
176 325
176 365
176 928
176 831
176 867
176 861
176 401
176 756
176 888
176 178
176 735
176 268
176 284
176 838
176 369
176 885
176 378
176 920
177 522
177 527
177 279
177 791
177 544
177 290
177 547
177 300
177 581
177 585
177 599
177 921
177 669
177 682
177 272
177 807
177 385
177 900
177 903
177 434
177 705
178 666
178 296
178 792
178 777
178 369
178 798
178 744
178 861
178 206
178 916
178 395
178 920
178 800
178 794
178 407
178 365
178 208
178 270
178 536
178 348
178 885
178 774
178 838
178 797
178 370
178 787
178 304
178 698
178 207
178 715
178 755
178 756
178 248
178 761
178 259
178 284
178 301
178 325
178 867
179 647
179 846
179 347
179 184
179 366
179 993
179 228
179 266
179 943
179 246
179 294
179 433
179 971
179 269
179 312
179 882
179 306
179 851
179 730
179 326
179 491
179 742
179 876
179 918
179 588
179 790
179 371
179 740
179 410
179 979
179 836
179 898
179 729
179 402
179 718
179 219
179 886
179 725
179 211
179 482
179 901
179 452
179 765
179 804
179 216
179 884
179 734
179 465
179 442
179 199
179 716
179 489
179 343
179 738
179 745
179 264
179 427
180 796
180 612
180 363
180 905
180 416
180 674
180 937
180 192
180 875
180 945
181 258
181 907
181 914
181 615
181 915
181 793
181 888
181 238
181 710
181 976
181 226
182 526
182 399
182 946
182 863
182 733
182 227
182 243
182 222
182 617
183 899
183 772
183 383
183 271
183 767
183 662
183 292
183 424
183 940
183 267
183 556
183 880
183 611
183 448
183 580
183 843
183 912
183 673
183 333
184 898
184 884
184 313
184 901
184 943
184 402
184 742
184 825
184 347
184 882
184 489
184 718
184 734
184 730
184 851
184 211
184 745
184 876
184 264
184 405
184 294
184 465
184 738
184 433
184 716
184 918
184 802
184 381
184 410
184 228
184 472
184 993
184 725
184 790
184 452
184 326
184 246
184 199
184 740
184 765
184 804
184 312
184 329
184 846
184 366
184 886
185 899
185 772
185 892
185 267
185 292
185 424
185 808
185 939
185 451
185 839
185 271
185 843
185 471
185 611
186 308
186 500
186 516
186 459
186 200
186 198
186 574
186 719
186 319
186 747
186 708
186 584
186 338
187 904
187 648
187 656
187 685
187 942
187 209
187 421
187 991
187 959
187 221
187 652
187 391
187 443
187 225
187 506
187 509
188 282
188 553
188 549
188 567
188 566
188 844
188 346
188 944
188 947
188 728
188 711
188 700
188 453
188 446
188 990
188 763
189 769
189 521
189 785
189 288
189 309
189 830
189 349
189 613
189 636
189 902
189 948
189 191
189 704
189 438
189 232
189 524
189 510
190 518
190 564
190 578
190 593
190 606
190 641
190 468
190 195
190 919
190 724
190 714
190 229
190 234
190 252
190 770
190 786
190 367
190 922
190 949
190 953
190 967
190 458
190 488
191 515
191 521
191 785
191 534
191 288
191 543
191 558
191 309
191 565
191 830
191 857
191 349
191 948
191 438
191 969
191 769
191 445
191 986
191 476
191 524
191 545
191 994
191 974
191 435
191 281
191 636
191 514
191 704
191 613
191 712
191 203
191 510
191 978
191 486
192 276
192 796
192 610
192 875
192 363
192 905
192 416
192 674
192 937
192 289
192 702
192 475
192 749
193 571
193 686
193 688
193 699
193 254
193 323
193 275
193 784
193 671
193 260
193 277
193 938
193 339
193 194
193 827
193 384
193 672
193 889
193 653
193 664
193 721
193 860
193 412
193 249
193 215
193 635
193 998
193 768
193 449
193 736
193 703
193 911
193 826
193 205
193 220
193 213
193 762
193 244
193 432
193 197
193 336
193 743
193 293
193 223
193 498
193 683
193 356
193 788
193 464
193 754
193 779
193 873
193 932
194 653
194 671
194 688
194 699
194 223
194 254
194 197
194 205
194 721
194 215
194 731
194 220
194 736
194 230
194 244
194 762
194 779
194 788
194 826
194 356
194 384
194 432
194 464
195 296
195 518
195 564
195 606
195 627
195 641
195 690
195 724
195 568
195 589
195 367
195 924
195 625
195 707
195 961
195 770
195 283
195 468
195 422
195 829
195 520
195 919
195 488
195 692
195 786
195 460
195 922
195 535
195 578
195 824
195 968
195 603
195 252
195 714
195 229
195 717
195 214
195 963
195 739
195 463
195 639
195 596
195 665
195 484
195 967
195 467
195 234
195 458
195 492
196 533
196 659
196 698
196 838
196 204
196 722
196 224
196 241
196 755
196 756
196 761
196 259
196 774
196 777
196 284
196 800
196 834
196 348
196 867
196 369
196 401
196 407
196 920
196 413
196 995
197 571
197 635
197 671
197 686
197 688
197 223
197 260
197 230
197 743
197 323
197 653
197 998
197 244
197 356
197 768
197 464
197 827
197 731
197 762
197 213
197 736
197 873
197 275
197 277
197 664
197 498
197 220
197 432
197 449
197 215
197 254
197 339
197 868
197 412
197 699
197 249
197 703
197 911
197 784
197 683
197 336
197 889
197 384
197 938
197 293
197 860
197 826
197 721
197 205
197 779
197 932
198 516
198 308
198 314
198 956
198 319
198 708
198 459
198 584
198 200
198 338
199 588
199 211
199 738
199 846
199 729
199 742
199 647
199 366
199 269
199 898
199 491
199 730
199 943
199 718
199 709
199 489
199 381
199 228
199 745
199 876
199 264
199 246
199 266
199 482
199 427
199 836
199 371
199 465
199 725
199 452
199 261
199 326
199 734
199 216
199 804
199 993
199 442
199 740
199 219
199 884
199 306
199 402
199 765
199 392
199 405
199 901
199 825
199 433
199 494
199 312
199 329
199 886
200 516
200 314
200 956
200 574
200 708
200 500
200 747
200 308
200 338
200 459
200 719
201 519
201 570
201 618
201 621
201 645
201 590
201 428
201 542
201 608
201 864
201 679
201 513
201 655
201 359
201 376
201 493
201 386
201 754
201 397
201 218
201 592
201 233
201 758
201 778
201 331
201 850
201 906
201 935
201 964
201 462
201 988
202 517
202 552
202 549
202 566
202 346
202 668
202 944
202 696
202 446
202 453
202 689
202 553
202 728
202 990
202 752
203 514
203 515
203 534
203 281
203 288
203 565
203 349
203 902
203 438
203 445
203 958
203 704
203 974
203 978
203 510
203 627
204 536
204 614
204 659
204 666
204 698
204 207
204 407
204 885
204 398
204 296
204 809
204 208
204 722
204 224
204 744
204 756
204 248
204 761
204 259
204 301
204 838
204 348
204 867
204 369
204 378
204 401
204 920
204 413
204 454
204 995
205 571
205 671
205 686
205 688
205 703
205 244
205 998
205 779
205 938
205 277
205 762
205 215
205 932
205 432
205 254
205 653
205 889
205 784
205 323
205 860
205 293
205 464
205 223
205 449
205 731
205 868
205 260
205 683
205 498
205 275
205 384
205 220
205 721
205 873
205 743
205 249
205 412
205 788
205 635
205 826
205 336
205 213
205 664
205 911
205 230
205 827
205 736
205 717
205 356
206 533
206 536
206 644
206 659
206 418
206 920
206 874
206 413
206 224
206 296
206 208
206 735
206 744
206 241
206 756
206 761
206 259
206 284
206 809
206 301
206 834
206 838
206 348
206 867
206 369
206 401
206 407
206 454
206 995
207 533
207 536
207 614
207 659
207 666
207 698
207 208
207 248
207 454
207 317
207 270
207 284
207 755
207 874
207 332
207 369
207 792
207 995
207 920
207 722
207 735
207 744
207 241
207 756
207 259
207 774
207 794
207 812
207 301
207 834
207 838
207 867
207 885
207 398
207 413
208 644
208 666
208 698
208 727
208 370
208 722
208 395
208 797
208 787
208 398
208 874
208 755
208 301
208 248
208 365
208 735
208 744
208 241
208 756
208 761
208 259
208 774
208 284
208 296
208 809
208 812
208 838
208 348
208 867
208 369
208 401
208 407
208 413
208 454
208 995
209 265
209 572
209 866
209 640
209 904
209 391
209 676
209 685
209 942
209 440
209 225
209 648
209 908
209 991
209 221
209 509
209 652
209 701
209 443
209 959
209 340
209 693
209 656
209 506
209 421
209 649
209 436
209 531
210 297
210 251
210 250
210 987
210 766
210 694
210 499
210 681
210 871
210 229
211 647
211 718
211 261
211 329
211 269
211 882
211 734
211 729
211 266
211 489
211 294
211 943
211 392
211 306
211 804
211 790
211 410
211 381
211 491
211 465
211 851
211 716
211 371
211 228
211 216
211 738
211 884
211 452
211 725
211 730
211 219
211 264
211 312
211 846
211 347
211 366
211 886
211 427
211 979
212 512
212 387
212 529
212 423
212 559
212 560
212 816
212 541
212 550
213 635
213 664
213 671
213 686
213 688
213 721
213 215
213 220
213 736
213 223
213 244
213 254
213 779
213 784
213 826
213 860
213 932
213 432
213 464
214 518
214 520
214 578
214 606
214 690
214 229
214 234
214 770
214 824
214 919
214 922
214 967
214 481
214 488
214 492
215 671
215 688
215 699
215 721
215 911
215 275
215 356
215 868
215 743
215 635
215 860
215 277
215 826
215 323
215 464
215 932
215 449
215 244
215 220
215 938
215 762
215 498
215 384
215 683
215 889
215 254
215 339
215 703
215 249
215 653
215 571
215 412
215 779
215 686
215 998
215 788
215 768
215 293
215 736
215 223
215 784
216 588
216 228
216 246
216 742
216 901
216 371
216 347
216 734
216 738
216 765
216 264
216 804
216 294
216 312
216 836
216 329
216 846
216 876
216 366
216 886
216 898
216 918
216 427
216 442
216 452
216 979
216 993
217 523
217 555
217 563
217 575
217 586
217 637
217 287
217 872
217 298
217 803
217 437
217 595
217 419
217 490
217 854
217 310
217 431
217 351
217 497
217 361
217 975
217 658
217 285
217 328
217 757
217 894
217 530
217 897
217 810
217 877
217 855
217 478
217 315
217 341
217 321
217 406
217 849
217 501
217 870
217 814
217 684
217 532
217 954
217 945
217 813
217 311
217 832
217 841
217 358
217 909
217 408
217 927
217 933
218 519
218 528
218 542
218 570
218 618
218 621
218 362
218 590
218 505
218 386
218 951
218 679
218 233
218 758
218 331
218 342
218 354
218 360
218 925
218 935
218 462
218 988
218 507
219 716
219 718
219 730
219 442
219 452
219 971
219 371
219 884
219 347
219 312
219 472
219 729
219 918
219 740
219 266
219 738
219 745
219 264
219 790
219 329
219 846
219 366
219 886
219 901
219 427
219 433
219 465
219 482
220 653
220 671
220 683
220 699
220 721
220 260
220 911
220 932
220 384
220 249
220 703
220 826
220 356
220 938
220 762
220 788
220 860
220 571
220 743
220 736
220 672
220 336
220 889
220 827
220 498
220 686
220 998
220 223
220 244
220 254
220 779
220 868
220 432
221 340
221 866
221 640
221 904
221 648
221 908
221 656
221 676
221 685
221 942
221 436
221 652
221 509
221 649
221 506
222 526
222 399
222 733
222 863
222 946
222 617
222 227
222 243
223 571
223 653
223 671
223 688
223 703
223 721
223 736
223 323
223 498
223 464
223 932
223 938
223 244
223 293
223 826
223 768
223 784
223 911
223 339
223 356
223 998
223 779
223 432
223 277
223 743
223 336
223 449
223 664
223 860
223 230
223 275
223 873
223 672
223 889
223 260
223 412
223 788
223 699
223 683
223 254
223 384
223 868
223 827
223 686
223 635
223 679
224 533
224 536
224 644
224 666
224 698
224 722
224 735
224 407
224 643
224 874
224 348
224 920
224 425
224 774
224 317
224 284
224 332
224 259
224 792
224 401
224 369
224 365
224 241
224 916
224 831
224 934
224 370
224 867
224 727
224 409
224 809
224 301
224 382
224 744
224 756
224 761
224 812
224 838
224 398
224 413
224 426
224 454
224 995
225 572
225 340
225 866
225 640
225 391
225 656
225 676
225 942
225 436
225 440
225 701
225 648
225 649
225 443
225 695
225 469
225 685
225 265
225 509
225 904
225 652
225 693
225 506
225 959
225 531
226 606
226 258
226 914
226 915
226 793
226 710
226 976
226 737
226 231
226 753
226 615
227 526
227 946
227 733
227 863
227 243
227 617
227 632
228 647
228 716
228 718
228 730
228 734
228 738
228 264
228 898
228 740
228 825
228 266
228 313
228 918
228 846
228 410
228 433
228 427
228 876
228 482
228 993
228 312
228 489
228 294
228 745
228 790
228 804
228 329
228 347
228 366
228 371
228 405
228 465
228 979
229 520
229 535
229 564
229 568
229 578
229 589
229 593
229 627
229 690
229 481
229 724
229 596
229 252
229 853
229 606
229 739
229 957
229 525
229 786
229 582
229 707
229 367
229 283
229 972
229 770
229 714
229 717
229 953
229 460
229 492
229 665
229 417
229 919
229 603
229 488
229 961
229 924
229 824
229 639
229 968
229 805
229 963
229 234
229 692
229 829
229 625
229 949
229 967
229 468
229 922
229 422
229 458
229 641
229 484
230 571
230 671
230 686
230 688
230 699
230 703
230 721
230 731
230 736
230 249
230 827
230 464
230 762
230 260
230 356
230 384
230 826
230 743
230 244
230 254
230 779
230 784
230 860
230 868
230 998
231 907
231 914
231 915
231 793
231 540
231 710
231 737
231 615
231 976
231 238
231 753
232 515
232 534
232 288
232 309
232 316
232 830
232 349
232 636
232 435
232 438
232 704
232 974
232 986
232 521
232 613
232 510
233 519
233 542
233 551
233 592
233 618
233 621
233 628
233 645
233 820
233 470
233 331
233 623
233 896
233 906
233 655
233 590
233 887
233 528
233 503
233 850
233 483
233 570
233 362
233 376
233 359
233 428
233 382
233 386
233 354
233 864
233 962
233 505
233 925
233 397
233 926
233 342
233 474
233 360
233 507
233 513
233 377
233 778
233 758
233 951
233 754
233 493
233 608
233 375
233 415
233 954
233 935
234 535
234 589
234 593
234 606
234 627
234 690
234 717
234 641
234 770
234 488
234 924
234 692
234 961
234 963
234 724
234 639
234 492
234 824
234 968
234 564
234 367
234 786
234 967
234 568
234 417
234 603
234 422
234 252
234 665
234 307
234 714
234 582
234 919
234 829
234 949
234 596
234 484
234 625
234 805
234 463
234 957
234 739
234 707
234 468
234 520
234 518
234 458
234 972
234 578
234 953
234 460
234 853
234 401
235 514
235 785
235 281
235 288
235 435
235 948
235 438
235 958
235 704
235 974
235 986
235 510
236 773
236 795
236 569
236 591
236 598
236 357
236 626
236 629
236 239
236 622
236 305
236 372
236 456
236 255
236 561
237 651
237 657
237 661
237 280
237 429
237 450
237 455
237 856
237 989
237 607
237 741
237 634
237 840
237 624
237 713
237 502
237 631
238 258
238 907
238 914
238 793
238 540
238 615
238 737
238 753
239 773
239 795
239 299
239 302
239 305
239 561
239 569
239 591
239 598
240 400
240 447
240 334
240 335
240 337
240 467
240 597
240 984
240 601
240 878
240 403
240 511
240 327
240 504
241 533
241 536
241 659
241 666
241 698
241 722
241 727
241 744
241 395
241 348
241 378
241 920
241 787
241 697
241 774
241 916
241 317
241 248
241 296
241 369
241 874
241 735
241 301
241 413
241 838
241 777
241 259
241 809
241 418
241 792
241 398
241 861
241 995
241 761
241 304
241 407
241 934
241 715
241 454
241 981
241 365
241 644
241 755
241 268
241 798
241 867
241 797
241 800
241 756
241 425
241 278
241 834
241 332
241 812
241 803
241 794
241 284
241 370
241 885
241 401
242 330
242 538
242 859
242 923
242 414
242 680
242 815
242 799
242 833
242 828
242 318
242 562
243 526
243 399
243 946
243 863
243 632
243 733
244 571
244 671
244 683
244 686
244 703
244 721
244 736
244 743
244 826
244 860
244 336
244 323
244 788
244 932
244 339
244 998
244 731
244 275
244 449
244 664
244 498
244 779
244 432
244 762
244 889
244 249
244 868
244 356
244 412
244 277
244 293
244 827
244 464
244 938
244 260
244 688
244 911
244 768
244 672
244 699
244 759
244 254
244 873
245 781
245 783
245 546
245 548
245 295
245 576
245 579
245 609
245 368
245 404
245 660
245 960
245 600
245 253
245 780
245 842
245 806
245 344
245 835
245 539
245 760
245 364
245 910
245 858
245 303
245 782
246 716
246 718
246 730
246 734
246 738
246 846
246 306
246 886
246 745
246 851
246 433
246 313
246 329
246 261
246 898
246 884
246 326
246 269
246 765
246 264
246 790
246 312
246 347
246 366
246 371
246 410
246 427
246 442
246 452
246 465
246 979
247 262
247 553
247 566
247 844
247 668
247 691
247 955
247 446
247 453
247 728
247 990
247 752
247 557
247 282
248 644
248 698
248 722
248 735
248 744
248 755
248 756
248 659
248 809
248 461
248 666
248 407
248 395
248 370
248 259
248 777
248 284
248 800
248 296
248 301
248 834
248 838
248 867
248 369
248 401
248 920
248 454
248 995
249 571
249 635
249 688
249 736
249 743
249 762
249 336
249 827
249 873
249 672
249 449
249 911
249 254
249 779
249 860
249 868
249 412
249 932
249 464
249 998
250 987
250 996
250 871
250 681
250 297
250 499
250 694
250 633
250 251
250 766
251 987
251 996
251 871
251 681
251 297
251 499
251 633
251 766
252 568
252 578
252 593
252 606
252 690
252 707
252 972
252 961
252 953
252 603
252 488
252 717
252 417
252 724
252 589
252 627
252 963
252 641
252 283
252 468
252 957
252 307
252 770
252 786
252 367
252 919
252 922
252 967
252 484
253 775
253 780
253 781
253 782
253 286
253 295
253 817
253 579
253 609
253 368
253 374
254 571
254 671
254 686
254 721
254 736
254 998
254 635
254 911
254 703
254 827
254 412
254 498
254 336
254 826
254 873
254 779
254 784
254 762
254 323
254 788
254 938
254 743
254 464
254 275
254 868
254 293
254 683
254 889
254 672
254 932
254 384
254 339
254 860
254 260
254 397
254 432
254 535
255 773
255 795
255 305
255 561
255 322
255 591
255 622
255 372
255 630
255 390
255 941
255 355
255 602
255 629
255 638
255 456
255 569
255 626
255 950
255 885
256 559
256 687
256 393
256 423
256 274
256 541
256 560
256 816
256 512
256 396
256 550
257 844
257 446
257 346
257 822
257 453
257 947
257 691
257 553
257 990
257 689
257 944
257 479
257 557
257 262
257 517
257 552
257 566
257 696
257 983
257 752
258 710
258 793
258 915
258 753
258 914
258 615
258 888
258 976
258 907
259 533
259 536
259 644
259 666
259 698
259 722
259 727
259 744
259 755
259 756
259 792
259 454
259 332
259 270
259 426
259 797
259 659
259 794
259 834
259 296
259 461
259 425
259 787
259 284
259 401
259 494
259 777
259 304
259 874
259 268
259 800
259 395
259 934
259 325
259 398
259 317
259 369
259 838
259 917
259 301
259 761
259 831
259 407
259 920
259 885
259 643
259 418
259 409
259 798
259 981
259 614
259 348
259 312
259 809
259 812
259 867
259 378
259 995
260 571
260 635
260 671
260 688
260 699
260 721
260 736
260 743
260 277
260 779
260 826
260 356
260 868
260 873
260 464
261 718
261 738
261 740
261 392
261 465
261 489
261 851
261 264
261 294
261 312
261 329
261 846
261 347
261 366
261 371
261 884
261 886
261 901
261 993
261 482
262 944
262 346
262 955
262 691
262 711
262 446
262 952
262 282
262 552
262 728
262 553
262 549
262 557
262 822
262 566
262 668
262 696
262 973
262 763
263 605
263 527
263 385
263 272
263 619
263 544
263 921
263 807
263 837
263 300
263 848
263 522
263 290
263 291
263 547
263 819
263 573
263 585
263 599
263 900
263 705
264 647
264 709
264 738
264 742
264 765
264 313
264 392
264 825
264 898
264 266
264 433
264 745
264 716
264 588
264 979
264 442
264 884
264 901
264 326
264 790
264 452
264 381
264 312
264 993
264 876
264 725
264 730
264 269
264 472
264 402
264 971
264 410
264 740
264 294
264 489
264 491
264 427
264 804
264 886
264 347
264 306
264 371
264 718
264 329
264 405
264 729
264 851
264 918
264 943
264 366
264 482
264 963
264 465
265 443
265 648
265 572
265 991
265 649
265 640
265 676
265 440
265 701
265 866
265 908
265 656
265 685
265 942
265 506
266 716
266 718
266 738
266 993
266 433
266 405
266 790
266 312
266 836
266 329
266 366
266 371
266 884
266 901
266 427
266 442
266 452
266 465
266 301
267 899
267 383
267 292
267 271
267 471
267 451
267 556
267 808
267 333
267 611
267 912
267 939
267 843
267 767
267 673
267 839
267 424
267 448
267 880
268 533
268 536
268 644
268 659
268 666
268 698
268 715
268 722
268 744
268 756
268 761
268 774
268 777
268 369
268 398
268 325
268 395
268 348
268 461
268 494
268 284
268 800
268 296
268 809
268 812
268 301
268 838
268 867
268 885
268 401
268 407
268 920
268 454
269 588
269 718
269 725
269 738
269 745
269 943
269 898
269 410
269 392
269 876
269 442
269 427
269 790
269 294
269 312
269 836
269 329
269 366
269 371
269 884
269 405
269 918
269 452
269 465
269 993
270 533
270 644
270 659
270 666
270 698
270 735
270 744
270 756
270 761
270 774
270 777
270 284
270 797
270 800
270 296
270 834
270 325
270 838
270 885
270 398
270 401
270 920
270 454
271 899
271 892
271 880
271 839
271 448
271 556
271 772
271 843
271 580
271 912
271 767
271 662
271 424
271 808
271 939
271 333
271 611
272 522
272 675
272 290
272 682
272 604
272 585
272 616
272 573
272 837
272 599
272 594
272 705
272 791
272 544
272 547
272 300
272 848
272 890
272 385
272 900
272 921
272 669
273 865
273 930
273 583
273 650
273 496
273 537
273 823
273 723
273 466
274 512
274 387
274 393
274 396
274 529
274 550
274 816
274 423
274 541
274 687
275 571
275 664
275 671
275 686
275 688
275 721
275 779
275 788
275 826
275 827
275 356
275 868
275 464
275 998
276 875
276 289
276 980
276 416
276 796
276 612
276 674
276 702
276 610
276 749
276 905
276 475
277 571
277 671
277 721
277 743
277 779
277 826
277 860
277 356
277 868
277 412
277 464
278 644
278 659
278 666
278 698
278 722
278 756
278 761
278 794
278 284
278 301
278 838
278 348
278 369
278 370
278 885
278 401
278 920
278 454
278 995
279 522
279 527
279 807
279 547
279 594
279 434
279 585
279 837
279 581
279 903
279 791
279 705
279 921
279 599
279 616
279 900
279 290
279 544
279 300
279 862
279 669
279 682
280 661
280 840
280 631
280 992
280 634
280 624
280 429
280 989
280 657
280 713
280 607
280 651
280 982
280 741
280 455
280 502
280 450
280 845
281 445
281 785
281 978
281 720
281 316
281 857
281 958
281 309
281 515
281 349
281 994
281 986
281 974
281 636
281 514
281 769
281 948
281 558
281 613
281 521
281 288
281 545
281 902
281 438
281 704
281 510
282 517
282 668
282 566
282 973
282 955
282 553
282 732
282 453
282 763
282 728
282 689
282 549
282 557
282 346
282 691
282 696
282 446
282 983
282 479
282 752
282 464
283 535
283 564
283 589
283 606
283 627
283 639
283 690
283 786
283 853
283 805
283 520
283 641
283 596
283 481
283 824
283 919
283 949
283 953
283 967
283 484
283 488
284 341
284 644
284 659
284 666
284 698
284 722
284 727
284 735
284 744
284 756
284 761
284 794
284 407
284 861
284 774
284 809
284 536
284 614
284 928
284 332
284 715
284 461
284 787
284 643
284 838
284 301
284 325
284 398
284 413
284 296
284 798
284 981
284 370
284 401
284 920
284 395
284 697
284 348
284 867
284 995
284 800
284 874
284 426
284 494
284 418
284 812
284 831
284 409
284 834
284 304
284 885
284 755
284 369
284 454
285 523
285 555
285 563
285 575
285 642
285 646
285 677
285 684
285 358
285 480
285 457
285 508
285 879
285 298
285 811
285 814
285 311
285 321
285 841
285 854
285 869
285 909
285 406
285 408
285 933
285 497
285 501
286 782
286 539
286 364
286 579
286 344
286 910
286 858
286 554
286 817
286 548
286 546
286 609
286 368
286 374
286 960
287 523
287 530
287 532
287 555
287 575
287 586
287 595
287 637
287 642
287 646
287 658
287 684
287 909
287 341
287 811
287 813
287 814
287 311
287 321
287 328
287 841
287 358
287 877
287 408
287 927
287 933
287 457
287 485
287 497
287 501
288 769
288 514
288 524
288 438
288 636
288 309
288 785
288 476
288 534
288 712
288 902
288 435
288 948
288 857
288 316
288 720
288 543
288 445
288 521
288 994
288 830
288 515
288 704
288 349
288 486
288 726
288 613
288 958
288 978
288 510
288 545
288 974
288 969
288 986
289 796
289 475
289 905
289 875
289 749
289 674
289 620
289 663
289 937
290 522
290 527
290 544
290 604
290 573
290 682
290 862
290 619
290 791
290 585
290 434
290 300
290 599
290 675
290 385
290 430
290 616
290 669
290 594
290 291
290 547
290 848
290 900
290 921
290 705
291 522
291 527
291 791
291 544
291 604
291 921
291 619
291 837
291 547
291 819
291 300
291 573
291 581
291 585
291 599
291 862
291 616
291 890
291 900
291 903
291 669
291 705
292 772
292 892
292 673
292 662
292 611
292 767
292 839
292 451
292 899
292 808
292 843
292 912
292 556
292 939
292 940
292 333
292 471
292 454
293 571
293 672
293 686
293 731
293 736
293 762
293 779
293 784
293 998
293 788
293 449
293 703
293 826
293 356
293 384
293 932
293 938
293 464
293 964
294 647
294 718
294 730
294 738
294 825
294 886
294 971
294 381
294 405
294 918
294 851
294 742
294 482
294 804
294 740
294 846
294 306
294 312
294 836
294 329
294 366
294 371
294 884
294 898
294 427
294 433
294 452
294 465
294 979
294 491
295 775
295 782
295 783
295 546
295 548
295 781
295 303
295 760
295 539
295 404
295 817
295 660
295 835
295 609
295 600
295 579
295 374
295 576
295 858
295 842
295 910
295 806
295 554
295 344
295 368
295 960
296 533
296 659
296 666
296 698
296 722
296 727
296 744
296 756
296 761
296 777
296 798
296 920
296 917
296 812
296 454
296 461
296 735
296 317
296 418
296 378
296 981
296 861
296 494
296 792
296 407
296 916
296 614
296 794
296 409
296 715
296 365
296 797
296 413
296 874
296 304
296 774
296 885
296 332
296 301
296 834
296 325
296 838
296 867
296 369
296 401
296 995
297 996
297 681
297 694
297 871
297 987
297 766
297 499
298 523
298 530
298 555
298 563
298 575
298 637
298 642
298 658
298 684
298 801
298 501
298 913
298 328
298 351
298 419
298 814
298 437
298 841
298 933
298 508
298 431
298 897
298 813
298 909
298 380
298 490
298 810
298 872
298 532
298 310
298 757
298 478
298 677
298 480
298 408
298 361
298 894
298 358
298 877
298 595
298 855
298 497
298 975
298 311
298 869
298 870
298 341
298 954
298 315
298 324
298 646
298 457
298 883
298 444
298 347
298 811
298 818
298 321
298 406
298 927
299 773
299 477
299 626
299 394
299 630
299 302
299 569
299 355
299 322
299 305
299 602
299 561
299 577
299 598
299 372
299 629
299 941
300 522
300 544
300 547
300 675
300 605
300 599
300 385
300 619
300 616
300 819
300 848
300 669
300 527
300 921
300 430
300 581
300 434
300 807
300 682
300 573
300 837
300 604
300 585
300 900
300 890
300 903
300 791
300 594
300 705
300 311
301 533
301 644
301 698
301 722
301 735
301 744
301 761
301 777
301 800
301 809
301 798
301 369
301 867
301 916
301 409
301 398
301 454
301 643
301 934
301 365
301 774
301 797
301 614
301 874
301 787
301 494
301 727
301 917
301 834
301 928
301 885
301 332
301 426
301 831
301 861
301 697
301 407
301 995
301 325
301 317
301 348
301 536
301 370
301 920
301 715
301 838
301 395
302 941
302 626
302 598
302 355
302 477
302 390
302 629
302 561
302 569
302 322
302 591
302 357
302 630
302 638
302 456
303 775
303 781
303 782
303 783
303 546
303 960
303 609
303 858
303 364
303 554
303 760
303 817
303 576
303 579
303 368
303 404
304 659
304 666
304 697
304 698
304 727
304 744
304 756
304 777
304 794
304 797
304 800
304 809
304 838
304 348
304 867
304 885
304 398
304 920
304 413
304 454
304 981
304 995
305 773
305 795
305 630
305 638
305 355
305 577
305 602
305 950
305 569
305 591
305 622
305 626
305 372
305 629
305 390
305 941
306 588
306 730
306 738
306 851
306 846
306 329
306 765
306 825
306 802
306 402
306 971
306 312
306 313
306 366
306 371
306 884
306 886
306 918
306 465
306 979
307 535
307 564
307 568
307 578
307 582
307 589
307 593
307 606
307 627
307 641
307 665
307 690
307 786
307 968
307 492
307 460
307 707
307 770
307 692
307 596
307 463
307 853
307 824
307 919
307 922
307 417
307 949
307 953
307 488
308 516
308 338
308 708
308 314
308 584
308 319
308 500
308 574
308 719
308 459
308 956
309 785
309 543
309 558
309 857
309 316
309 994
309 435
309 438
309 534
309 565
309 712
309 476
309 521
309 978
309 613
309 524
309 986
309 349
309 726
309 704
309 720
309 769
309 515
309 545
309 948
309 486
309 510
310 523
310 563
310 575
310 586
310 637
310 646
310 658
310 684
310 801
310 811
310 927
310 439
310 832
310 321
310 841
310 358
310 877
310 909
310 406
310 408
310 933
310 485
310 497
311 523
311 555
311 575
311 586
311 646
311 684
311 801
311 811
311 813
311 380
311 877
311 532
311 818
311 530
311 658
311 757
311 933
311 324
311 351
311 883
311 894
311 869
311 847
311 315
311 508
311 361
311 501
311 832
311 457
311 677
311 328
311 975
311 444
311 478
311 814
311 490
311 358
311 931
311 437
311 855
311 849
311 870
311 420
311 431
311 803
311 485
311 595
311 419
311 408
311 854
311 909
311 879
311 321
311 841
311 341
311 927
311 497
312 647
312 716
312 718
312 730
312 738
312 886
312 405
312 918
312 442
312 465
312 979
312 734
312 804
312 588
312 313
312 433
312 884
312 392
312 347
312 943
312 993
312 898
312 427
312 971
312 381
312 802
312 901
312 725
312 790
312 489
312 410
312 836
312 765
312 366
312 452
312 491
312 729
312 709
312 851
312 876
312 742
312 326
312 745
312 825
312 329
312 482
312 740
312 846
312 402
312 827
313 718
313 730
313 734
313 738
313 790
313 804
313 347
313 725
313 851
313 740
313 410
313 433
313 836
313 329
313 366
313 371
313 884
313 886
313 898
313 901
313 427
313 452
313 979
313 491
314 516
314 747
314 708
314 459
314 500
314 719
314 956
314 574
314 319
314 584
315 523
315 575
315 637
315 642
315 658
315 684
315 801
315 811
315 813
315 321
315 341
315 358
315 877
315 909
315 406
315 927
315 933
315 444
315 975
315 497
316 514
316 515
316 521
316 785
316 534
316 558
316 565
316 769
316 524
316 830
316 636
316 948
316 438
316 704
316 712
316 986
316 510
316 744
316 331
317 536
317 659
317 698
317 722
317 744
317 756
317 761
317 777
317 794
317 798
317 800
317 809
317 325
317 838
317 867
317 885
317 398
317 401
317 407
317 920
317 413
317 995
318 833
318 706
318 330
318 859
318 923
318 414
318 799
318 562
318 680
318 815
318 538
318 828
319 956
319 574
319 338
319 719
319 459
319 584
319 516
319 747
320 388
320 667
320 821
320 759
320 997
320 764
320 751
320 985
321 523
321 530
321 555
321 563
321 575
321 637
321 642
321 646
321 811
321 813
321 814
321 818
321 847
321 927
321 954
321 909
321 532
321 490
321 341
321 358
321 894
321 854
321 803
321 351
321 877
321 508
321 801
321 684
321 879
321 849
321 361
321 931
321 586
321 832
321 893
321 324
321 913
321 501
321 497
321 328
321 841
321 431
321 441
321 380
321 757
321 883
321 872
321 480
321 485
321 855
321 420
321 978
321 869
321 406
321 933
321 975
321 979
322 795
322 561
322 569
322 355
322 626
322 629
322 591
322 598
322 357
323 927
323 571
323 686
323 688
323 721
323 736
323 762
323 779
323 826
323 356
323 868
323 873
323 384
323 932
323 938
323 464
323 998
324 523
324 555
324 575
324 637
324 646
324 813
324 814
324 832
324 341
324 444
324 595
324 883
324 677
324 894
324 328
324 933
324 869
324 801
324 485
324 490
324 457
324 358
324 658
324 877
324 406
324 927
324 419
324 975
324 501
325 533
325 644
325 659
325 698
325 722
325 727
325 735
325 744
325 756
325 798
325 809
325 697
325 332
325 365
325 369
325 409
325 407
325 401
325 398
325 761
325 834
325 812
325 934
325 800
325 666
325 861
325 885
325 378
325 838
325 867
325 370
325 920
325 413
325 454
325 995
326 716
326 718
326 725
326 729
326 730
326 745
326 790
326 405
326 347
326 366
326 371
326 898
326 427
326 442
326 465
326 979
327 400
327 670
327 447
327 966
327 334
327 352
327 601
327 467
327 597
327 878
327 984
327 881
327 511
328 523
328 575
328 595
328 637
328 646
328 801
328 811
328 813
328 818
328 841
328 897
328 684
328 909
328 975
328 555
328 419
328 480
328 441
328 872
328 530
328 341
328 854
328 358
328 406
328 927
328 501
329 725
329 729
329 738
329 745
329 790
329 347
329 433
329 918
329 482
329 851
329 366
329 588
329 742
329 901
329 709
329 647
329 491
329 765
329 392
329 489
329 371
329 716
329 427
329 876
329 452
329 465
329 802
329 730
329 405
329 898
329 381
329 442
329 718
329 402
329 804
329 410
329 882
329 886
329 993
329 386
329 846
329 979
330 833
330 706
330 538
330 815
330 923
330 828
330 414
330 799
330 859
330 562
331 551
331 608
331 618
331 628
331 645
331 758
331 462
331 592
331 778
331 377
331 887
331 359
331 503
331 375
331 962
331 623
331 519
331 754
331 977
331 389
331 679
331 382
331 428
331 376
331 925
331 988
331 495
331 415
331 926
331 590
331 470
331 570
331 655
331 850
331 397
331 360
331 929
331 513
331 964
331 528
331 820
331 386
331 906
331 507
332 533
332 536
332 643
332 659
332 666
332 698
332 744
332 755
332 756
332 777
332 794
332 798
332 809
332 812
332 834
332 838
332 348
332 867
332 401
332 407
332 920
332 413
332 454
333 899
333 383
333 912
333 662
333 424
333 808
333 939
333 556
333 839
333 580
333 892
333 843
333 940
333 471
333 448
333 611
333 767
333 772
333 880
334 400
334 403
334 447
334 966
334 337
334 467
334 852
334 352
334 878
334 335
334 984
334 504
334 511
334 786
335 400
335 670
335 966
335 352
335 878
335 881
335 984
335 467
335 601
335 511
336 571
336 686
336 721
336 736
336 743
336 762
336 779
336 784
336 788
336 826
336 860
336 356
336 873
336 412
336 432
337 555
337 447
337 966
337 352
337 852
337 878
337 400
337 467
337 511
337 601
337 984
337 597
337 881
337 504
338 516
338 956
338 574
338 708
338 584
338 719
338 500
338 459
338 747
339 571
339 671
339 683
339 688
339 703
339 721
339 731
339 736
339 779
339 356
339 868
339 873
339 412
340 656
340 640
340 701
340 436
340 469
340 649
340 959
340 904
340 866
340 391
340 908
340 676
340 685
340 942
341 523
341 575
341 586
341 595
341 637
341 646
341 811
341 813
341 814
341 818
341 841
341 501
341 954
341 757
341 508
341 913
341 877
341 480
341 909
341 869
341 832
341 849
341 975
341 879
341 931
341 408
341 658
341 854
341 803
341 361
341 563
341 894
341 897
341 870
341 532
341 420
341 358
341 406
341 927
341 933
341 485
341 497
342 519
342 551
342 570
342 590
342 592
342 608
342 618
342 621
342 628
342 754
342 758
342 820
342 936
342 462
342 850
342 964
342 962
342 977
342 377
342 493
342 375
342 507
342 354
342 906
342 925
342 415
342 935
342 428
342 988
342 495
343 771
343 891
343 411
343 965
343 970
343 587
343 750
343 487
343 350
343 353
343 999
343 473
343 379
344 780
344 782
344 783
344 539
344 546
344 576
344 579
344 609
345 771
345 965
345 970
345 587
345 473
345 891
345 746
345 353
345 487
345 750
345 379
346 553
346 567
346 844
346 990
346 557
346 955
346 711
346 446
346 973
346 552
346 691
346 944
346 952
346 453
346 822
346 549
346 668
346 696
346 479
346 752
347 730
347 790
347 804
347 392
347 381
347 943
347 427
347 802
347 740
347 745
347 825
347 405
347 971
347 846
347 366
347 371
347 884
347 886
347 898
347 901
347 465
347 472
347 993
348 536
348 644
348 666
348 698
348 722
348 744
348 756
348 774
348 809
348 838
348 369
348 407
348 395
348 378
348 418
348 792
348 643
348 834
348 917
348 454
348 398
348 812
348 409
348 614
348 981
348 798
348 426
348 494
348 797
348 885
348 735
348 533
348 761
348 413
348 755
348 995
348 787
348 370
348 916
348 934
348 874
348 794
348 697
348 727
348 365
348 867
348 659
348 425
348 461
348 861
348 800
348 508
348 401
348 920
349 514
349 515
349 785
349 521
349 712
349 857
349 726
349 435
349 974
349 445
349 565
349 476
349 613
349 510
349 994
349 978
349 534
349 902
349 438
349 704
350 771
350 891
350 411
350 965
350 473
350 970
350 487
350 746
350 999
350 750
350 379
351 523
351 555
351 563
351 575
351 646
351 684
351 801
351 811
351 813
351 814
351 818
351 841
351 883
351 478
351 877
351 408
351 480
351 361
351 869
351 586
351 441
351 358
351 909
351 406
351 927
351 933
351 975
351 497
351 501
351 721
352 698
352 400
352 403
352 670
352 447
352 966
352 852
352 511
352 878
352 597
352 504
352 881
352 984
353 771
353 891
353 411
353 965
353 970
353 587
353 999
353 379
353 473
353 750
353 487
353 746
354 519
354 618
354 645
354 679
354 758
354 820
354 551
354 850
354 935
354 373
354 926
354 590
354 623
354 386
354 377
354 360
354 592
354 389
354 375
354 608
354 542
354 428
354 528
354 964
354 359
354 462
354 483
354 887
354 415
354 962
354 988
354 495
355 773
355 795
355 561
355 569
355 577
355 591
355 598
355 357
355 622
355 372
355 630
355 941
356 571
356 671
356 686
356 688
356 699
356 721
356 736
356 743
356 788
356 826
356 384
356 873
356 653
356 868
356 449
356 464
356 827
356 932
356 412
356 635
356 998
356 768
356 683
356 672
356 664
356 432
356 779
356 911
357 795
357 591
357 598
357 602
357 372
357 569
357 390
357 638
357 477
357 394
357 622
357 629
358 523
358 530
358 555
358 575
358 637
358 642
358 646
358 811
358 813
358 818
358 841
358 757
358 457
358 408
358 406
358 849
358 877
358 931
358 419
358 437
358 478
358 913
358 658
358 444
358 361
358 897
358 595
358 508
358 485
358 869
358 933
358 872
358 879
358 894
358 441
358 893
358 854
358 501
358 677
358 532
358 883
358 801
358 380
358 420
358 480
358 490
358 810
358 847
358 814
358 855
358 803
358 975
358 870
358 684
358 586
358 954
358 832
358 909
358 497
358 409
358 927
359 570
359 608
359 758
359 820
359 483
359 389
359 936
359 503
359 360
359 386
359 906
359 925
359 926
359 964
359 977
359 988
359 507
360 519
360 528
360 551
360 590
360 608
360 618
360 679
360 820
360 864
360 896
360 373
360 926
360 386
360 645
360 507
360 962
360 977
360 964
360 951
360 906
360 925
360 415
360 935
360 428
360 988
360 495
361 523
361 530
361 532
361 555
361 575
361 586
361 637
361 646
361 684
361 801
361 811
361 813
361 814
361 854
361 894
361 870
361 595
361 677
361 883
361 480
361 642
361 877
361 927
361 933
361 975
362 551
362 570
362 592
362 618
362 645
362 754
362 758
362 386
362 906
362 428
362 964
362 462
362 977
362 474
362 505
362 507
363 796
363 612
363 620
363 475
363 416
363 905
363 980
363 945
363 663
363 674
363 702
364 775
364 780
364 782
364 783
364 546
364 548
364 554
364 817
364 579
364 835
364 609
364 576
364 760
364 368
364 374
365 533
365 644
365 659
365 666
365 698
365 744
365 756
365 777
365 809
365 812
365 838
365 867
365 407
365 920
365 454
366 716
366 718
366 738
366 742
366 876
366 943
366 392
366 734
366 971
366 882
366 489
366 433
366 851
366 410
366 740
366 482
366 405
366 765
366 745
366 918
366 402
366 725
366 804
366 465
366 730
366 886
366 472
366 588
366 647
366 427
366 846
366 836
366 993
366 979
366 901
366 452
366 898
366 491
366 371
366 442
366 802
366 790
366 928
366 884
367 535
367 564
367 568
367 578
367 606
367 627
367 770
367 786
367 824
367 458
367 468
367 707
367 422
367 460
367 639
367 949
367 714
367 968
367 463
367 690
367 919
367 922
367 967
367 481
367 488
367 492
367 925
368 775
368 782
368 539
368 546
368 548
368 554
368 817
368 576
368 835
368 609
368 660
368 842
368 579
368 404
368 960
368 600
368 910
368 858
368 806
368 374
368 781
368 780
369 533
369 644
369 659
369 666
369 698
369 722
369 744
369 756
369 809
369 812
369 834
369 838
369 867
369 777
369 792
369 798
369 398
369 697
369 831
369 885
369 916
369 800
369 934
369 401
369 426
369 755
369 995
369 797
369 395
369 407
369 378
369 761
369 461
369 874
369 425
369 735
369 614
369 981
369 418
369 454
369 370
369 536
369 928
369 630
369 920
370 533
370 659
370 666
370 698
370 722
370 735
370 744
370 756
370 777
370 800
370 809
370 812
370 834
370 838
370 867
370 792
370 715
370 418
370 831
370 644
370 614
370 395
370 755
370 774
370 920
370 785
370 378
370 401
370 413
370 426
370 995
371 718
371 730
371 738
371 804
371 716
371 943
371 882
371 790
371 742
371 491
371 898
371 402
371 392
371 482
371 381
371 489
371 452
371 979
371 825
371 802
371 709
371 901
371 405
371 442
371 410
371 851
371 971
371 729
371 472
371 427
371 846
371 876
371 765
371 745
371 433
371 740
371 993
371 588
371 886
371 884
371 725
371 602
371 918
371 465
372 598
372 626
372 477
372 941
372 602
372 394
372 591
373 513
373 528
373 542
373 551
373 570
373 592
373 618
373 628
373 758
373 820
373 850
373 864
373 906
373 925
373 926
373 935
373 474
373 507
374 781
374 782
374 539
374 546
374 548
374 554
374 817
374 579
374 609
374 835
374 760
374 806
374 660
374 783
374 775
374 960
374 404
374 842
375 519
375 528
375 551
375 592
375 754
375 758
375 386
375 906
375 925
375 926
375 428
375 507
376 519
376 528
376 570
376 592
376 608
376 618
376 621
376 758
376 850
376 864
376 623
376 386
376 925
376 926
376 935
376 428
376 988
376 495
377 519
377 542
377 592
377 623
377 754
377 758
377 850
377 864
377 503
377 507
377 428
377 470
377 887
377 513
377 495
377 483
377 551
377 386
377 906
377 925
377 926
377 935
377 964
377 988
377 505
378 533
378 536
378 614
378 644
378 659
378 666
378 698
378 722
378 735
378 744
378 756
378 761
378 794
378 800
378 809
378 867
378 885
378 916
378 426
378 407
378 934
378 418
378 398
378 755
378 995
378 425
378 917
378 395
378 401
378 920
378 413
378 454
379 771
379 891
379 411
379 965
379 970
379 487
379 746
379 750
379 473
379 999
380 523
380 530
380 575
380 586
380 646
380 684
380 813
380 814
380 841
380 854
380 757
380 408
380 419
380 832
380 406
380 927
380 933
380 485
380 497
380 501
381 647
381 718
381 734
381 742
381 765
381 884
381 886
381 901
381 427
381 465
381 979
382 513
382 519
382 528
382 551
382 570
382 590
382 754
382 758
382 850
382 864
382 925
382 926
382 415
382 428
382 962
382 495
382 507
383 899
383 556
383 808
383 939
383 580
383 448
383 772
383 940
383 673
383 839
383 767
383 662
383 424
383 471
383 611
383 880
384 571
384 653
384 671
384 688
384 736
384 743
384 779
384 826
384 860
384 683
384 889
384 412
384 868
384 932
384 827
384 498
384 784
384 998
384 664
384 686
384 432
384 464
385 522
385 527
385 544
385 547
385 581
385 585
385 599
385 616
385 605
385 900
385 921
385 669
385 705
386 519
386 570
386 592
386 621
386 628
386 754
386 820
386 850
386 936
386 474
386 483
386 528
386 906
386 513
386 925
386 542
386 505
386 864
386 415
386 507
386 645
386 493
386 608
386 964
386 462
386 470
386 618
386 896
386 503
386 397
386 929
386 926
386 935
386 428
386 951
386 977
386 988
386 495
387 512
387 687
387 560
387 776
387 529
387 541
387 396
387 550
387 423
387 816
388 759
388 654
388 985
388 789
388 751
388 667
388 997
388 895
388 821
388 764
389 519
389 542
389 551
389 592
389 618
389 628
389 754
389 758
389 864
389 925
389 935
389 428
389 962
389 462
389 977
389 988
389 505
389 507
390 773
390 795
390 561
390 569
390 591
390 602
390 629
390 638
390 477
390 626
390 630
390 622
390 950
390 507
391 531
391 572
391 866
391 640
391 904
391 469
391 685
391 656
391 509
391 676
391 959
391 506
391 695
391 991
391 440
391 908
391 648
391 652
391 443
391 649
391 436
391 421
391 942
391 693
392 588
392 730
392 738
392 884
392 886
392 452
392 465
393 776
393 559
393 423
393 550
393 512
393 541
393 396
393 687
393 529
393 816
394 773
394 795
394 561
394 569
394 591
394 622
394 626
394 629
394 477
394 602
394 941
395 666
395 698
395 722
395 727
395 744
395 756
395 761
395 777
395 800
395 809
395 838
395 867
395 885
395 401
395 418
395 874
395 787
395 413
395 398
395 928
395 755
395 920
395 494
395 715
395 643
395 461
395 533
395 444
395 407
395 454
395 995
396 512
396 687
396 541
396 559
396 816
396 560
396 423
396 550
396 529
397 519
397 542
397 592
397 758
397 850
397 864
397 906
397 925
397 926
397 935
397 988
398 666
398 698
398 722
398 735
398 756
398 761
398 774
398 794
398 809
398 812
398 867
398 885
398 838
398 426
398 981
398 934
398 413
398 425
398 777
398 916
398 861
398 834
398 755
398 614
398 835
398 401
398 407
398 920
398 454
398 995
399 526
399 946
399 863
399 632
399 733
400 601
400 984
400 966
400 403
400 511
400 467
400 447
400 670
400 597
400 878
401 644
401 659
401 698
401 735
401 744
401 756
401 761
401 774
401 777
401 809
401 834
401 838
401 867
401 885
401 792
401 831
401 409
401 812
401 794
401 461
401 715
401 413
401 928
401 797
401 454
401 697
401 533
401 722
401 643
401 425
401 934
401 787
401 407
401 874
401 727
401 755
401 917
401 995
401 418
401 981
401 916
401 798
401 920
401 666
401 536
401 494
401 614
401 861
401 518
402 716
402 718
402 730
402 738
402 804
402 898
402 410
402 465
402 979
402 993
403 597
403 966
403 670
403 601
403 511
403 984
403 447
403 852
403 504
404 919
404 782
404 546
404 576
404 579
404 842
404 609
404 817
404 554
404 548
404 858
404 780
404 781
405 588
405 716
405 718
405 734
405 738
405 740
405 742
405 790
405 884
405 886
405 647
405 410
405 427
405 482
406 523
406 555
406 563
406 575
406 586
406 637
406 658
406 684
406 801
406 811
406 813
406 814
406 832
406 841
406 877
406 869
406 893
406 879
406 532
406 975
406 870
406 478
406 677
406 485
406 501
406 810
406 872
406 927
406 420
406 855
406 847
406 419
406 431
406 894
406 408
406 931
406 441
406 490
406 437
406 803
406 883
406 854
406 954
406 757
406 508
406 913
406 818
406 530
406 646
406 933
406 541
406 497
407 644
407 666
407 698
407 722
407 727
407 744
407 755
407 756
407 761
407 794
407 800
407 838
407 867
407 697
407 735
407 928
407 798
407 809
407 413
407 774
407 874
407 920
407 831
407 916
407 461
407 834
407 425
407 659
407 885
407 782
407 454
407 995
408 523
408 555
408 575
408 637
408 646
408 801
408 811
408 813
408 818
408 832
408 841
408 877
408 909
408 913
408 803
408 757
408 431
408 849
408 893
408 814
408 439
408 847
408 931
408 444
408 933
408 480
408 954
408 677
408 684
408 897
408 420
408 642
408 419
408 497
408 501
408 812
409 644
409 666
409 722
409 735
409 744
409 756
409 761
409 777
409 794
409 809
409 838
409 867
409 885
409 920
409 413
409 454
409 995
410 709
410 718
410 730
410 738
410 790
410 884
410 898
410 886
410 846
410 971
410 825
410 491
410 472
410 427
410 452
410 465
410 979
411 771
411 473
411 746
411 999
411 487
411 970
412 635
412 653
412 671
412 672
412 686
412 688
412 721
412 743
412 779
412 826
412 860
412 868
412 873
412 932
412 889
412 911
412 768
412 703
412 683
412 432
412 464
413 533
413 536
413 659
413 666
413 698
413 722
413 727
413 744
413 756
413 777
413 812
413 838
413 867
413 885
413 920
413 425
413 614
413 800
413 834
413 426
413 874
413 861
413 787
413 494
413 755
413 916
413 798
413 981
413 917
413 457
413 454
413 995
414 706
414 538
414 923
414 828
414 799
414 562
414 680
415 528
415 551
415 621
415 628
415 758
415 850
415 864
415 906
415 925
415 926
415 778
415 519
415 929
415 977
415 820
415 896
415 590
415 608
415 679
415 570
415 964
415 951
415 935
415 962
415 428
415 462
415 988
415 505
415 507
416 620
416 937
416 663
416 875
416 674
416 945
416 702
416 475
416 749
417 578
417 589
417 606
417 627
417 690
417 786
417 824
417 919
417 972
417 520
417 603
417 458
417 829
417 639
417 707
417 949
417 953
417 967
417 481
417 488
417 492
418 533
418 614
418 659
418 666
418 698
418 722
418 744
418 756
418 761
418 812
418 838
418 867
418 885
418 454
418 995
419 523
419 555
419 575
419 586
419 637
419 684
419 811
419 813
419 814
419 818
419 841
419 854
419 869
419 877
419 927
419 530
419 933
419 646
419 894
419 832
419 870
419 913
419 457
419 420
419 431
419 849
419 441
419 532
419 931
419 687
419 975
419 485
419 501
420 523
420 532
420 555
420 575
420 586
420 595
420 637
420 642
420 646
420 813
420 814
420 832
420 841
420 877
420 909
420 933
420 431
420 975
420 485
420 501
421 531
421 572
421 866
421 640
421 904
421 648
421 908
421 652
421 656
421 676
421 685
421 942
421 440
421 469
421 506
422 518
422 535
422 564
422 589
422 593
422 606
422 625
422 627
422 690
422 707
422 824
422 919
422 949
422 953
422 458
422 481
422 492
423 512
423 529
423 550
423 560
423 816
423 559
424 899
424 892
424 767
424 662
424 471
424 451
424 912
424 556
424 448
424 580
424 880
424 808
424 940
424 839
424 843
425 536
425 644
425 666
425 698
425 722
425 744
425 756
425 761
425 777
425 794
425 800
425 838
425 867
425 920
425 454
425 995
426 536
426 614
426 666
426 698
426 722
426 727
426 735
426 744
426 756
426 774
426 838
426 867
426 885
426 920
426 916
426 643
426 995
427 647
427 738
427 740
427 836
427 846
427 884
427 886
427 898
427 901
427 742
427 442
427 709
427 745
427 472
427 491
427 851
427 979
427 918
427 729
427 882
427 718
427 725
427 790
427 734
427 465
427 943
427 489
427 433
427 825
427 804
427 802
427 730
427 810
427 482
428 570
428 592
428 618
428 645
428 758
428 820
428 864
428 925
428 926
428 935
428 495
428 964
428 503
428 962
428 519
428 462
428 754
428 505
428 493
428 929
428 551
428 483
428 470
428 507
428 655
428 997
428 988
429 651
429 657
429 661
429 713
429 741
429 607
429 992
429 502
429 455
429 982
429 631
429 856
429 840
429 845
429 989
430 527
430 544
430 547
430 807
430 585
430 848
430 599
430 862
430 890
430 921
430 669
430 682
430 605
430 791
430 659
431 523
431 555
431 575
431 586
431 637
431 677
431 811
431 813
431 814
431 818
431 841
431 877
431 909
431 927
431 933
431 485
431 439
431 954
431 457
431 975
431 501
432 571
432 671
432 683
432 688
432 721
432 736
432 743
432 826
432 932
432 868
432 664
432 449
432 731
432 784
432 998
433 811
433 716
433 718
433 738
433 765
433 790
433 884
433 898
433 918
433 851
433 971
433 730
433 725
433 882
433 836
433 979
433 709
433 804
433 825
433 465
433 647
433 729
433 846
433 943
433 472
434 522
434 527
434 547
434 573
434 585
434 890
434 900
434 921
434 669
434 682
434 791
434 807
434 837
434 604
434 705
435 514
435 521
435 524
435 534
435 545
435 558
435 613
435 902
435 704
435 769
435 712
435 438
435 785
435 958
435 543
435 565
435 476
435 857
435 486
435 830
435 510
435 978
435 515
435 445
435 974
436 531
436 866
436 640
436 904
436 648
436 908
436 652
436 656
436 676
436 942
436 701
436 509
436 695
436 440
436 649
436 991
436 959
436 685
436 572
436 506
437 523
437 555
437 563
437 575
437 637
437 642
437 646
437 658
437 813
437 814
437 841
437 877
437 893
437 909
437 933
437 485
437 497
437 501
438 769
438 515
438 524
438 558
438 565
438 830
438 636
438 534
438 994
438 974
438 476
438 613
438 486
438 704
438 978
438 545
438 958
438 720
438 712
438 510
438 986
438 521
438 857
438 514
438 543
438 445
438 726
438 785
439 523
439 532
439 555
439 563
439 575
439 586
439 637
439 646
439 684
439 801
439 811
439 813
439 814
439 818
439 832
439 841
439 877
439 927
439 457
439 975
439 485
439 501
440 531
440 640
440 904
440 649
440 648
440 908
440 652
440 656
440 676
440 942
440 693
440 443
440 695
440 469
440 991
440 506
441 523
441 532
441 555
441 563
441 637
441 801
441 813
441 814
441 818
441 841
441 849
441 869
441 877
441 975
441 485
441 497
441 501
442 933
442 501
442 716
442 718
442 730
442 742
442 765
442 790
442 846
442 884
442 898
442 918
442 804
442 876
442 740
442 452
442 489
442 802
442 709
442 482
442 738
442 725
442 943
442 465
442 979
443 640
443 649
443 908
443 676
443 685
443 531
443 701
443 469
443 991
443 506
443 509
444 523
444 555
444 575
444 595
444 637
444 811
444 814
444 818
444 841
444 877
444 883
444 933
444 913
444 485
445 785
445 545
445 565
445 613
445 558
445 902
445 476
445 712
445 769
445 726
445 978
445 636
445 524
445 969
445 704
445 974
445 720
445 986
445 510
446 517
446 549
446 822
446 567
446 844
446 944
446 696
446 955
446 728
446 983
446 752
446 700
446 479
446 557
446 763
446 732
446 748
446 453
446 689
446 947
446 973
446 990
446 668
446 952
446 877
447 966
447 597
447 504
447 852
447 467
447 511
447 878
447 601
447 670
447 984
447 881
448 899
448 772
448 767
448 662
448 673
448 940
448 912
448 892
448 808
448 580
448 611
448 839
448 471
448 926
449 571
449 671
449 672
449 683
449 686
449 688
449 699
449 721
449 736
449 743
449 779
449 788
449 826
449 860
449 932
449 464
450 992
450 989
450 607
450 455
450 840
450 845
450 661
450 741
450 856
450 713
450 634
450 982
450 624
450 631
451 497
451 899
451 772
451 892
451 912
451 662
451 808
451 939
451 940
451 839
451 471
451 611
452 588
452 716
452 730
452 738
452 790
452 836
452 884
452 886
452 918
452 765
452 943
452 901
452 851
452 725
452 482
452 740
452 882
452 898
452 491
452 802
452 979
452 472
453 517
453 553
453 549
453 822
453 567
453 844
453 696
453 700
453 566
453 990
453 691
453 983
453 711
453 479
453 752
453 668
453 728
453 947
454 533
454 536
454 698
454 722
454 727
454 735
454 744
454 755
454 756
454 761
454 800
454 809
454 838
454 867
454 885
454 920
454 981
454 787
454 643
454 494
454 928
454 715
454 644
454 861
454 777
454 834
454 798
454 774
454 794
454 917
454 995
454 614
454 666
454 792
454 461
454 934
454 831
454 659
454 916
454 697
455 651
455 657
455 661
455 624
455 845
455 982
455 840
455 631
455 502
455 989
455 856
455 992
455 607
455 713
455 634
455 741
456 773
456 795
456 591
456 638
456 941
456 629
456 477
457 523
457 555
457 563
457 575
457 637
457 642
457 684
457 801
457 811
457 813
457 814
457 818
457 832
457 841
457 854
457 869
457 877
457 883
457 909
457 933
457 931
457 879
457 803
457 478
457 975
457 497
457 501
458 525
458 535
458 606
458 627
458 665
458 690
458 829
458 919
458 922
458 953
458 967
458 568
458 492
458 949
458 639
458 460
458 853
458 484
458 957
458 968
458 963
458 468
458 805
458 481
458 641
458 488
458 786
458 625
458 520
458 714
458 463
458 972
458 770
458 824
458 692
458 518
458 733
459 516
459 584
459 719
459 826
460 518
460 535
460 564
460 568
460 578
460 589
460 606
460 627
460 707
460 714
460 919
460 949
460 953
460 967
460 582
460 481
460 488
460 492
461 533
461 536
461 698
461 722
461 727
461 744
461 755
461 756
461 794
461 809
461 812
461 838
461 867
461 885
461 920
462 519
462 551
462 592
462 655
462 758
462 820
462 850
462 864
462 906
462 925
462 926
462 964
462 962
462 778
462 623
462 977
462 754
462 570
462 618
462 679
462 470
462 935
462 988
462 505
462 507
463 518
463 535
463 564
463 568
463 589
463 606
463 690
463 707
463 714
463 919
463 949
463 953
463 967
463 488
463 492
464 571
464 664
464 683
464 721
464 736
464 743
464 779
464 826
464 860
464 868
464 938
464 873
464 932
464 688
464 911
464 686
464 762
464 671
464 889
464 998
464 498
464 731
464 653
464 699
464 827
465 718
465 725
465 846
465 884
465 886
465 898
465 901
465 647
465 745
465 765
465 489
465 472
465 740
465 729
465 825
465 918
465 709
465 738
465 836
465 804
465 802
465 730
465 734
465 979
466 865
466 930
466 678
466 583
466 650
466 496
466 723
466 537
467 966
467 881
467 670
467 852
467 504
467 984
468 518
468 520
468 535
468 582
468 589
468 606
468 625
468 627
468 641
468 690
468 707
468 714
468 786
468 824
468 919
468 953
468 967
468 488
469 866
469 640
469 904
469 649
469 908
469 656
469 676
469 685
469 942
469 531
469 693
469 509
470 519
470 528
470 592
470 608
470 628
470 754
470 758
470 864
470 906
470 925
470 926
470 935
470 977
470 618
470 621
470 988
470 505
471 899
471 772
471 662
471 673
471 556
471 580
471 912
471 611
471 940
471 722
472 647
472 718
472 738
472 742
472 765
472 802
472 836
472 884
472 918
472 979
472 716
472 489
472 882
472 851
473 771
473 965
473 970
473 587
473 746
473 750
474 513
474 519
474 551
474 570
474 590
474 592
474 618
474 754
474 758
474 820
474 906
474 925
474 926
474 935
474 964
474 977
474 951
474 655
474 628
474 528
474 988
475 612
475 620
475 905
475 663
475 674
475 937
475 702
475 610
475 875
476 514
476 515
476 521
476 785
476 543
476 545
476 558
476 565
476 830
476 636
476 902
476 948
476 704
476 712
476 486
477 773
477 561
477 569
477 577
477 591
477 598
477 602
477 629
477 630
477 941
477 622
478 523
478 530
478 575
478 586
478 637
478 642
478 811
478 813
478 814
478 818
478 854
478 877
478 883
478 933
478 803
478 841
478 532
478 894
478 501
479 553
479 552
479 567
479 566
479 668
479 944
479 955
479 728
479 732
479 689
479 700
479 696
479 952
479 947
479 752
480 523
480 563
480 575
480 595
480 637
480 642
480 646
480 813
480 818
480 841
480 877
480 883
480 909
480 933
480 975
480 497
481 518
481 568
481 578
481 589
481 593
481 606
481 690
481 770
481 922
481 949
481 953
481 967
481 492
481 627
481 641
482 734
482 738
482 790
482 884
482 898
482 489
482 740
482 725
482 836
482 709
482 851
482 876
482 742
482 943
482 886
483 519
483 542
483 551
483 570
483 590
483 592
483 628
483 645
483 754
483 758
483 850
483 925
483 926
483 935
483 962
483 964
483 495
483 507
484 518
484 520
484 535
484 564
484 582
484 589
484 603
484 606
484 627
484 641
484 690
484 770
484 786
484 824
484 919
484 949
484 967
484 665
484 968
484 957
484 961
484 707
484 724
484 488
484 492
485 563
485 575
485 586
485 637
485 642
485 677
485 684
485 801
485 811
485 814
485 832
485 841
485 869
485 877
485 927
485 933
485 975
485 818
485 894
485 813
485 872
485 555
485 523
485 646
485 893
485 810
485 757
485 508
485 803
485 497
485 530
485 909
485 879
485 490
485 954
485 870
485 913
485 855
485 897
485 501
486 769
486 521
486 785
486 545
486 565
486 830
486 704
486 712
486 857
486 948
486 974
486 510
486 978
486 515
486 514
486 558
487 756
487 891
487 970
487 587
487 965
487 999
487 750
487 746
488 518
488 535
488 578
488 593
488 606
488 690
488 770
488 786
488 824
488 919
488 949
488 953
488 967
488 963
488 564
488 596
488 707
488 639
488 924
488 582
488 961
488 972
488 568
488 739
488 714
488 492
488 603
488 520
488 922
488 589
488 829
488 692
488 665
488 805
488 641
488 853
488 968
488 525
488 625
488 531
489 716
489 730
489 802
489 804
489 836
489 886
489 918
489 993
490 523
490 555
490 563
490 575
490 586
490 595
490 637
490 646
490 811
490 813
490 814
490 818
490 832
490 841
490 869
490 877
490 933
491 647
491 718
491 730
491 734
491 738
491 742
491 790
491 884
491 886
491 898
491 802
491 729
492 518
492 564
492 568
492 578
492 589
492 606
492 627
492 641
492 690
492 805
492 824
492 919
492 922
492 949
492 953
492 967
492 639
492 968
492 739
492 603
492 963
492 692
492 972
492 829
492 525
492 957
492 665
492 853
492 582
492 535
492 625
492 724
492 714
492 770
493 519
493 542
493 590
493 592
493 608
493 618
493 628
493 758
493 864
493 906
493 925
493 988
493 505
494 533
494 536
494 643
494 644
494 666
494 698
494 722
494 727
494 735
494 744
494 756
494 761
494 774
494 777
494 794
494 800
494 809
494 838
494 867
494 885
494 920
494 995
494 758
495 519
495 528
495 551
495 590
495 592
495 618
495 754
495 758
495 850
495 864
495 926
495 964
495 513
495 608
495 896
495 645
495 570
495 962
495 929
496 930
496 678
496 583
496 650
496 537
496 823
496 723
497 523
497 555
497 563
497 575
497 637
497 646
497 801
497 811
497 813
497 814
497 818
497 832
497 841
497 849
497 869
497 877
497 927
497 933
497 870
497 894
497 872
497 810
497 854
497 909
497 883
497 954
497 897
497 530
497 757
497 684
497 893
497 501
498 571
498 653
498 671
498 672
498 699
498 721
498 736
498 743
498 779
498 826
498 868
498 873
499 987
499 996
499 871
499 681
499 694
499 633
499 766
499 571
500 832
500 516
500 956
500 747
500 708
501 523
501 563
501 575
501 586
501 637
501 801
501 811
501 813
501 814
501 832
501 841
501 854
501 877
501 927
501 933
501 847
501 869
501 909
501 913
501 883
501 818
501 872
501 555
501 658
501 508
501 646
501 595
501 975
501 532
501 677
501 954
501 803
501 810
501 870
501 684
501 757
502 661
502 713
502 982
502 989
502 992
502 631
502 845
502 624
502 634
503 519
503 551
503 590
503 758
503 850
503 906
503 925
503 962
503 964
503 513
503 505
504 670
504 966
504 852
504 597
504 878
504 601
504 511
505 519
505 528
505 551
505 570
505 590
505 592
505 618
505 628
505 754
505 758
505 820
505 850
505 906
505 925
505 935
505 988
505 513
505 977
505 608
505 778
505 929
506 690
506 531
506 640
506 904
506 649
506 652
506 656
506 942
506 572
506 959
506 509
506 908
506 648
507 519
507 528
507 592
507 618
507 623
507 628
507 754
507 758
507 820
507 850
507 925
507 935
507 977
507 988
507 936
507 645
507 864
507 962
507 951
507 542
507 655
507 551
507 621
507 590
507 906
508 523
508 555
508 563
508 575
508 586
508 658
508 811
508 813
508 814
508 818
508 841
508 854
508 869
508 877
508 927
508 933
508 975
509 866
509 640
509 648
509 676
509 685
509 942
509 959
509 656
509 991
509 908
509 701
510 785
510 613
510 636
510 712
510 978
510 986
510 969
510 902
510 514
510 974
510 565
510 830
510 769
510 515
510 948
510 726
510 958
510 545
510 720
510 534
510 857
510 521
510 543
510 994
511 597
511 984
511 601
511 966
511 670
511 881
511 878
512 529
512 541
512 560
512 776
512 687
512 816
513 951
513 929
513 887
513 936
513 977
513 778
513 864
513 935
513 519
513 570
513 592
513 618
513 645
513 754
513 758
513 850
513 925
513 964
513 988
514 769
514 902
514 613
514 515
514 534
514 948
514 830
514 704
514 986
514 978
514 524
514 785
514 545
514 558
514 712
514 974
514 720
515 986
515 534
515 524
515 948
515 712
515 857
515 726
515 785
515 545
515 565
515 830
515 636
515 704
515 969
515 978
516 574
516 747
516 584
516 956
516 708
516 719
517 696
517 944
517 763
517 748
517 689
517 553
517 691
517 983
517 952
517 567
517 990
517 947
517 549
517 728
517 552
517 668
517 732
517 752
518 707
518 525
518 949
518 957
518 786
518 589
518 665
518 568
518 564
518 692
518 535
518 603
518 606
518 627
518 824
518 919
518 922
518 967
519 864
519 778
519 528
519 951
519 608
519 621
519 926
519 887
519 570
519 618
519 623
519 850
519 758
519 679
519 592
519 936
519 655
519 988
519 935
519 551
519 754
519 925
519 962
519 964
519 906
519 977
519 542
519 998
519 590
520 770
520 739
520 853
520 953
520 535
520 639
520 724
520 525
520 568
520 578
520 593
520 606
520 627
520 641
520 690
520 707
520 786
520 919
520 922
520 949
520 967
521 769
521 704
521 636
521 969
521 830
521 978
521 565
521 958
521 534
521 543
521 545
521 902
521 986
522 791
522 682
522 837
522 619
522 862
522 604
522 585
522 890
522 675
522 605
522 616
522 705
522 903
522 594
522 669
522 599
522 900
522 547
522 573
522 921
522 838
523 893
523 854
523 872
523 879
523 563
523 855
523 811
523 832
523 849
523 658
523 757
523 575
523 933
523 532
523 595
523 897
523 869
523 877
523 883
523 810
523 555
523 818
523 530
523 975
523 927
523 894
523 813
523 847
523 677
523 814
523 803
523 801
523 841
523 646
523 637
523 870
523 913
523 954
523 909
523 586
523 931
524 986
524 974
524 565
524 545
524 948
524 978
524 712
524 785
524 534
524 830
524 636
524 704
525 963
525 967
525 853
525 535
525 564
525 568
525 606
525 690
525 824
525 922
525 949
525 953
526 733
526 617
526 863
526 632
527 547
527 605
527 819
527 890
527 573
527 900
527 903
527 599
527 862
527 791
527 544
527 585
527 921
527 807
527 837
527 669
527 705
528 936
528 679
528 618
528 608
528 964
528 655
528 820
528 551
528 758
528 850
528 906
528 925
528 926
528 988
529 776
529 816
529 550
529 687
529 559
529 541
529 560
530 814
530 954
530 933
530 813
530 872
530 532
530 854
530 931
530 803
530 841
530 975
530 897
530 832
530 801
530 869
530 555
530 575
530 595
530 637
530 646
530 811
530 877
531 649
531 904
531 656
531 572
531 640
531 676
531 685
531 942
532 818
532 975
532 869
532 801
532 677
532 872
532 555
532 563
532 575
532 595
532 637
532 646
532 811
532 813
532 814
532 841
532 877
532 883
532 927
532 933
533 614
533 698
533 934
533 800
533 536
533 722
533 735
533 928
533 861
533 666
533 812
533 809
533 792
533 787
533 744
533 755
533 644
533 697
533 727
533 756
533 761
533 838
533 867
533 885
533 920
534 785
534 902
534 558
534 543
534 769
534 830
534 613
534 969
534 974
534 850
535 564
535 972
535 770
535 963
535 919
535 665
535 603
535 578
535 692
535 593
535 724
535 589
535 924
535 967
535 717
535 606
535 953
535 829
535 805
535 714
535 786
535 853
535 957
535 949
535 627
535 690
535 824
535 922
536 787
536 981
536 809
536 812
536 722
536 761
536 917
536 744
536 756
536 659
536 838
536 715
536 644
536 885
536 995
536 831
536 834
536 755
536 666
536 698
536 777
536 800
536 867
536 920
537 865
537 678
537 723
537 823
537 650
537 583
538 833
538 815
538 562
538 828
538 859
538 706
538 799
538 923
538 680
539 775
539 780
539 781
539 782
539 760
539 548
539 554
539 576
539 609
540 907
540 914
540 915
540 793
540 737
540 753
540 888
540 615
540 976
541 559
541 816
541 550
541 687
542 906
542 951
542 679
542 936
542 758
542 623
542 618
542 551
542 570
542 778
542 925
542 935
542 964
542 988
543 785
543 613
543 769
543 704
543 902
543 712
544 605
544 547
544 791
544 581
544 921
544 903
544 604
544 669
544 900
544 599
544 675
544 807
544 573
544 585
544 862
544 890
545 785
545 958
545 902
545 969
545 558
545 994
545 712
545 986
545 857
545 613
545 704
546 775
546 660
546 781
546 806
546 835
546 910
546 609
546 842
546 760
546 817
546 780
546 783
546 960
546 600
546 548
546 554
546 576
546 579
547 791
547 819
547 604
547 862
547 675
547 669
547 900
547 619
547 594
547 837
547 921
547 682
547 605
547 616
547 585
547 890
547 573
547 599
547 807
547 705
547 848
548 775
548 781
548 783
548 600
548 780
548 858
548 782
548 576
548 579
548 609
548 817
548 760
549 553
549 552
549 566
549 944
549 689
549 763
549 700
549 732
549 711
549 752
549 990
549 668
549 567
549 696
550 776
550 559
550 560
550 687
550 816
551 929
551 964
551 864
551 618
551 679
551 962
551 906
551 623
551 754
551 850
551 951
551 570
551 590
551 592
551 628
551 758
551 935
552 696
552 668
552 732
552 567
552 752
552 944
552 728
552 983
552 763
552 995
553 822
553 689
553 763
553 696
553 711
553 944
553 566
553 748
553 952
553 732
553 955
553 973
553 947
553 700
553 557
553 983
553 728
553 990
553 752
554 775
554 781
554 782
554 609
554 960
554 835
554 858
554 660
554 910
554 760
554 842
555 975
555 757
555 877
555 841
555 575
555 563
555 803
555 931
555 586
555 684
555 814
555 870
555 595
555 847
555 933
555 646
555 811
555 849
555 658
555 909
555 872
555 818
555 879
555 869
555 913
555 637
555 642
555 813
555 854
555 927
556 899
556 662
556 939
556 767
556 912
556 611
556 940
557 668
557 763
557 711
557 566
557 732
557 696
557 700
557 973
557 952
557 844
557 944
557 983
557 990
557 752
558 785
558 857
558 720
558 902
558 613
558 769
558 974
558 994
558 565
558 830
558 704
558 712
558 986
559 560
559 816
560 816
561 818
561 773
561 795
561 591
561 629
561 950
561 941
561 638
561 626
561 630
561 598
561 569
561 622
562 833
562 706
562 859
562 799
562 680
562 815
562 923
562 828
562 738
563 595
563 913
563 869
563 879
563 658
563 847
563 818
563 832
563 575
563 893
563 811
563 909
563 855
563 642
563 854
563 872
563 637
563 646
563 684
563 801
563 813
563 814
563 841
563 877
563 927
563 933
563 975
564 671
564 770
564 853
564 582
564 568
564 739
564 957
564 596
564 949
564 665
564 603
564 627
564 724
564 593
564 922
564 707
564 714
564 968
564 919
564 717
564 690
564 967
564 972
564 829
564 692
564 606
564 828
564 824
564 953
565 785
565 986
565 769
565 704
565 969
565 978
565 974
565 857
565 902
565 712
565 830
565 613
565 636
565 958
565 794
566 822
566 947
566 728
566 952
566 844
566 711
566 748
566 696
566 763
566 689
566 955
566 983
567 748
567 844
567 983
567 696
567 691
567 668
567 822
567 973
567 990
567 752
567 711
567 947
567 728
567 732
567 689
567 824
568 800
568 919
568 824
568 690
568 786
568 922
568 967
568 692
568 770
568 665
568 641
568 593
568 639
568 714
568 717
568 578
568 582
568 589
568 606
569 773
569 795
569 626
569 950
569 638
569 598
569 629
569 622
569 591
570 618
570 926
570 929
570 906
570 977
570 608
570 964
570 621
570 592
570 645
570 754
570 758
570 778
570 820
570 850
570 864
570 925
570 935
570 988
571 827
571 672
571 860
571 779
571 911
571 788
571 703
571 635
571 671
571 998
571 826
571 653
571 686
571 932
571 688
571 664
571 784
571 762
571 743
571 873
571 736
571 721
571 938
572 841
572 942
572 649
572 866
572 991
572 693
572 676
572 959
572 640
572 904
572 652
572 685
573 791
573 819
573 903
573 585
573 616
573 605
573 594
573 890
573 669
573 862
573 921
573 604
573 581
573 848
573 900
574 956
574 584
574 719
574 708
575 897
575 684
575 646
575 801
575 954
575 803
575 658
575 931
575 854
575 847
575 677
575 586
575 855
575 841
575 869
575 813
575 757
575 870
575 913
575 810
575 879
575 811
575 637
575 894
575 933
575 832
575 814
575 595
575 975
575 818
575 883
575 849
575 642
575 872
575 909
575 927
575 893
575 738
576 782
576 806
576 817
576 858
576 842
576 781
576 760
576 609
576 960
576 783
576 600
576 579
577 773
577 795
577 950
577 591
577 598
577 629
578 922
578 582
578 770
578 829
578 805
578 714
578 717
578 603
578 967
578 707
578 963
578 641
578 665
578 919
578 949
578 606
578 627
578 786
579 775
579 782
579 783
579 817
579 660
579 960
579 780
579 806
579 760
579 609
580 899
580 772
580 892
580 912
580 662
580 673
580 939
580 839
581 682
581 585
581 669
581 604
581 605
581 807
581 675
581 921
581 890
581 903
581 705
581 599
581 900
582 707
582 665
582 805
582 625
582 690
582 593
582 770
582 924
582 739
582 692
582 606
582 627
582 714
582 919
582 949
582 967
583 865
583 930
583 678
583 650
583 823
584 956
584 708
585 791
585 890
585 705
585 903
585 594
585 837
585 604
585 682
585 605
585 619
585 848
585 675
585 616
585 921
585 900
585 819
585 669
585 807
585 599
586 909
586 841
586 646
586 818
586 810
586 933
586 677
586 595
586 847
586 814
586 872
586 757
586 801
586 877
586 879
586 637
586 813
586 854
586 869
586 927
586 975
587 771
587 891
587 965
587 970
587 999
587 746
587 750
588 647
588 730
588 709
588 901
588 876
588 718
588 738
588 740
588 846
588 918
589 805
589 922
589 829
589 627
589 596
589 953
589 717
589 739
589 972
589 919
589 957
589 853
589 603
589 724
589 593
589 606
589 707
589 786
589 824
589 967
590 645
590 887
590 925
590 655
590 906
590 864
590 935
590 896
590 608
590 618
590 964
590 621
590 623
590 628
590 754
590 758
590 850
590 926
590 977
591 773
591 795
591 626
591 598
591 638
591 941
591 950
591 629
591 630
591 622
591 602
592 936
592 820
592 951
592 608
592 926
592 645
592 679
592 758
592 964
592 618
592 778
592 864
592 988
592 621
592 896
592 754
592 850
592 656
592 906
593 603
593 625
593 690
593 639
593 919
593 949
593 953
593 665
593 968
593 770
593 786
593 805
593 717
593 724
593 627
593 641
593 967
593 961
593 606
593 922
594 807
594 819
594 599
594 616
594 900
594 921
594 669
594 705
595 813
595 684
595 879
595 646
595 931
595 894
595 642
595 757
595 849
595 927
595 975
595 637
595 658
595 801
595 814
595 841
595 933
596 606
596 739
596 692
596 603
596 690
596 770
596 824
596 919
596 953
596 967
597 852
597 878
597 601
597 670
597 966
597 984
598 773
598 795
598 629
598 630
598 602
598 638
598 950
598 941
599 604
599 837
599 921
599 900
599 791
599 682
599 619
599 675
599 862
599 890
599 848
599 669
599 819
599 616
599 807
599 705
600 775
600 783
600 806
600 609
600 960
601 670
601 966
601 852
601 878
602 626
602 941
602 795
602 630
602 773
602 622
602 629
602 638
603 739
603 972
603 606
603 627
603 786
603 824
603 919
603 922
603 949
603 953
604 705
604 669
604 619
604 890
604 900
604 921
605 807
605 819
605 862
605 900
605 921
605 669
605 682
605 705
606 949
606 967
606 829
606 665
606 641
606 692
606 724
606 953
606 625
606 770
606 627
606 961
606 717
606 972
606 853
606 707
606 922
606 968
606 963
606 805
606 919
606 786
606 690
606 639
606 714
606 957
606 739
607 661
607 982
607 856
607 992
607 840
607 713
607 657
607 631
607 651
607 741
608 929
608 645
608 850
608 926
608 925
608 628
608 679
608 935
608 896
608 988
608 623
608 964
608 754
608 655
608 618
608 758
608 864
608 906
609 780
609 782
609 783
609 817
609 858
609 775
609 660
609 842
609 781
609 960
609 910
609 835
610 796
610 875
610 980
610 612
610 620
610 905
610 663
610 674
610 937
610 702
611 899
611 767
611 939
611 839
611 880
611 843
611 892
611 953
612 796
612 937
612 980
612 749
612 620
612 905
612 674
613 785
613 712
613 902
613 978
613 636
613 704
614 643
614 812
614 761
614 744
614 666
614 698
614 715
614 722
614 727
614 755
614 756
614 774
614 794
614 800
614 838
614 867
614 885
614 920
614 995
615 915
615 976
615 737
615 710
615 753
615 907
615 888
616 791
616 807
616 848
616 862
616 682
616 619
616 903
616 890
616 900
616 921
616 705
617 946
617 863
617 733
618 951
618 820
618 887
618 962
618 906
618 850
618 925
618 864
618 758
618 929
618 679
618 645
618 964
618 754
618 655
618 936
618 935
618 926
618 977
618 988
619 807
619 862
619 900
619 921
619 669
619 682
619 705
620 796
620 945
620 875
620 905
620 980
620 674
620 663
620 937
621 988
621 926
621 623
621 628
621 754
621 758
621 864
621 925
621 935
621 977
622 773
622 950
622 941
622 629
622 795
623 820
623 628
623 754
623 758
623 864
623 906
623 925
623 935
623 964
623 988
624 779
624 651
624 661
624 840
624 713
624 989
624 992
624 741
624 657
624 634
624 631
625 714
625 853
625 627
625 639
625 690
625 919
625 922
625 949
625 967
626 773
626 795
626 950
626 941
626 638
627 717
627 853
627 824
627 968
627 639
627 957
627 922
627 665
627 770
627 961
627 690
627 786
627 963
627 692
627 972
627 805
627 919
627 949
627 953
627 967
628 655
628 906
628 850
628 778
628 896
628 645
628 964
628 977
628 887
628 988
628 864
628 935
628 758
628 679
628 754
628 820
629 638
629 941
629 630
629 795
630 773
630 795
630 950
630 638
631 651
631 661
631 845
631 856
631 992
631 741
631 713
631 840
631 657
631 989
631 982
631 634
632 946
632 733
633 987
633 996
633 681
633 694
633 766
634 657
634 982
634 989
634 992
634 856
634 840
634 713
635 868
635 672
635 873
635 827
635 826
635 699
635 860
635 788
635 762
635 688
635 784
635 653
635 671
635 686
635 721
635 736
635 743
635 779
636 785
636 830
636 978
636 986
636 902
636 704
636 948
636 969
636 974
637 642
637 801
637 849
637 931
637 894
637 869
637 893
637 879
637 877
637 870
637 810
637 677
637 855
637 872
637 818
637 883
637 927
637 684
637 975
637 655
637 646
637 811
637 813
637 814
637 832
637 841
637 909
637 933
638 773
638 795
638 950
639 690
639 824
639 922
639 949
639 953
639 967
640 866
640 652
640 695
640 693
640 908
640 648
640 676
640 991
640 904
640 656
640 649
640 942
640 685
640 959
640 701
641 853
641 665
641 714
641 717
641 786
641 824
641 919
641 922
641 953
641 967
642 684
642 855
642 818
642 872
642 813
642 841
642 975
642 810
642 849
642 801
642 811
642 814
642 854
642 927
643 756
643 809
643 666
643 831
643 659
643 744
643 777
643 800
643 812
643 838
643 867
643 885
643 920
644 666
644 798
644 867
644 659
644 715
644 797
644 812
644 920
644 831
644 777
644 916
644 861
644 774
644 809
644 874
644 727
644 761
644 681
644 722
644 744
644 756
644 834
644 838
644 885
644 995
645 964
645 778
645 962
645 926
645 951
645 754
645 758
645 820
645 864
645 925
645 935
645 988
646 909
646 897
646 814
646 883
646 811
646 975
646 894
646 847
646 893
646 803
646 801
646 933
646 849
646 810
646 832
646 927
646 931
646 658
646 757
646 855
646 918
646 818
646 841
646 869
647 742
647 825
647 876
647 918
647 718
647 730
647 734
647 898
647 901
647 979
648 777
648 866
648 904
648 908
648 693
648 942
648 676
648 652
648 656
648 685
649 866
649 904
649 695
649 693
649 908
649 685
649 942
649 701
650 865
650 930
650 678
650 723
651 661
651 982
651 845
651 741
651 713
651 989
651 657
652 693
652 695
652 701
652 959
652 676
652 942
653 889
653 860
653 788
653 873
653 699
653 736
653 671
653 721
653 743
653 779
653 826
653 868
653 932
654 759
654 985
654 751
654 789
654 895
654 764
654 667
654 821
654 997
655 679
655 754
655 758
655 850
655 864
655 906
655 926
655 935
656 866
656 904
656 942
656 991
656 959
656 701
656 908
656 695
656 676
657 661
657 989
657 982
657 992
657 845
657 713
657 856
657 840
657 741
658 975
658 854
658 883
658 913
658 931
658 894
658 877
658 810
658 869
658 801
658 811
658 813
658 814
658 818
658 832
658 841
658 909
658 927
658 933
659 934
659 698
659 812
659 756
659 792
659 831
659 727
659 794
659 981
659 744
659 715
659 774
659 809
659 916
659 735
659 722
659 798
659 861
659 797
659 666
659 755
659 800
659 838
659 867
659 885
659 920
660 782
660 783
660 817
660 960
661 840
661 713
661 982
661 856
661 845
661 741
661 989
661 992
662 899
662 912
662 808
662 843
662 940
662 839
662 880
662 767
663 796
663 905
663 674
663 702
663 875
663 749
663 937
664 889
664 938
664 826
664 868
664 788
664 998
664 768
664 873
664 671
664 672
664 688
664 703
664 721
664 736
664 779
664 784
665 690
665 770
665 919
665 953
665 967
666 735
666 812
666 809
666 761
666 861
666 756
666 838
666 834
666 934
666 755
666 831
666 981
666 916
666 698
666 798
666 928
666 715
666 874
666 727
666 800
666 777
666 885
666 794
666 867
666 722
666 744
666 920
666 995
667 789
667 821
667 895
667 759
667 751
667 985
667 764
668 822
668 844
668 700
668 711
668 990
668 947
668 728
668 763
668 983
668 955
668 944
668 689
668 696
668 752
668 952
669 807
669 675
669 682
669 837
669 705
669 848
669 900
669 890
669 819
669 791
669 862
669 921
669 903
670 852
670 966
671 699
671 889
671 688
671 762
671 788
671 784
671 860
671 686
671 932
671 731
671 768
671 743
671 868
671 736
671 703
671 826
671 827
671 779
671 721
671 911
671 873
671 672
671 938
672 788
672 686
672 736
672 889
672 932
672 868
672 699
672 688
672 703
672 743
672 779
672 826
672 860
673 899
673 772
673 892
673 767
673 839
673 939
673 940
673 843
674 796
674 905
674 980
674 749
674 875
674 945
674 937
675 807
675 862
675 890
675 900
675 921
675 819
675 705
676 866
676 904
676 908
676 959
676 695
676 942
676 693
676 685
676 701
677 913
677 803
677 872
677 811
677 813
677 814
677 877
677 883
677 927
677 933
678 865
678 930
678 823
678 723
679 758
679 754
679 820
679 906
679 925
679 935
679 964
679 988
680 833
680 706
680 859
680 923
680 799
680 815
680 828
681 987
681 996
681 871
681 766
681 694
682 807
682 890
682 900
682 921
682 848
682 705
683 889
683 721
683 731
683 743
683 779
683 860
683 868
683 873
684 813
684 841
684 757
684 877
684 869
684 883
684 909
684 801
684 855
684 872
684 894
684 933
684 913
684 897
684 870
684 803
684 893
684 811
684 814
684 818
685 866
685 904
685 908
685 959
685 693
685 991
685 695
685 942
686 731
686 826
686 721
686 873
686 736
686 699
686 743
686 788
686 860
686 932
687 816
688 826
688 868
688 736
688 911
688 788
688 779
688 784
688 932
688 699
688 703
688 889
688 873
688 860
688 731
688 721
688 743
688 762
688 827
688 938
689 822
689 844
689 944
689 691
689 696
689 752
690 953
690 724
690 972
690 805
690 961
690 919
690 770
690 963
690 707
690 853
690 829
690 692
690 824
690 968
690 922
690 786
690 949
690 967
691 844
691 711
691 952
691 947
691 973
691 700
691 983
691 728
691 732
691 990
691 752
692 707
692 717
692 770
692 919
692 922
692 949
692 967
693 866
693 904
693 908
693 991
694 987
694 996
694 871
694 766
695 866
695 904
695 908
695 942
696 822
696 944
696 955
696 700
696 952
696 728
696 732
696 748
696 752
697 917
697 698
697 722
697 735
697 744
697 756
697 761
697 777
697 800
697 809
697 838
697 867
697 885
697 920
698 809
698 727
698 800
698 798
698 755
698 885
698 831
698 777
698 834
698 920
698 792
698 794
698 744
698 874
698 756
698 981
698 774
698 916
698 715
698 787
698 917
698 761
698 928
698 867
698 722
698 995
698 812
698 934
698 797
698 735
698 838
698 861
699 731
699 743
699 860
699 868
699 784
699 768
699 721
699 736
699 779
699 826
699 932
700 844
700 955
700 973
700 711
700 763
701 866
701 904
701 908
701 942
701 959
702 875
702 905
702 945
702 749
702 980
702 796
702 809
703 768
703 911
703 736
703 860
703 873
703 721
703 779
703 826
703 932
703 938
704 785
704 830
704 720
704 958
704 857
704 902
704 948
704 994
704 974
704 712
705 862
705 900
705 921
705 819
705 903
705 890
705 848
705 807
705 791
706 833
706 799
706 859
706 923
706 815
706 828
707 786
707 967
707 805
707 824
707 963
707 957
707 714
707 770
707 919
707 949
707 953
708 956
708 719
709 979
709 876
709 882
709 718
709 901
709 918
709 993
710 922
710 907
710 914
710 793
710 915
710 976
710 737
710 888
710 753
711 752
712 720
712 978
712 785
712 726
712 958
712 769
712 974
712 986
712 948
712 969
713 840
713 992
713 741
714 770
714 829
714 805
714 824
714 919
714 949
714 953
714 967
715 861
715 722
715 744
715 755
715 756
715 797
715 800
715 809
715 867
715 885
715 920
715 995
716 745
716 725
716 825
716 846
716 851
716 729
716 802
716 876
716 718
716 730
716 734
716 738
716 790
716 884
716 918
716 979
717 924
717 824
717 919
717 949
717 953
717 967
718 851
718 740
718 742
718 886
718 979
718 971
718 825
718 836
718 884
718 802
718 729
718 943
718 790
718 846
718 804
718 730
718 876
718 745
718 882
718 738
718 850
718 734
718 765
718 918
719 956
719 747
720 769
720 785
720 902
720 726
720 986
721 826
721 873
721 827
721 932
721 911
721 788
721 938
721 731
721 998
721 784
721 743
721 889
721 762
721 768
721 860
721 736
721 868
721 779
722 885
722 794
722 809
722 981
722 800
722 834
722 861
722 727
722 916
722 761
722 735
722 812
722 797
722 920
722 755
722 792
722 838
722 787
722 928
722 995
722 934
722 831
722 756
722 917
722 744
722 867
723 865
723 930
723 823
724 770
724 786
724 919
724 949
725 901
725 802
725 738
725 742
725 790
725 836
725 846
725 898
726 785
726 902
726 948
726 978
727 761
727 995
727 794
727 787
727 809
727 744
727 756
727 777
727 838
727 885
727 920
728 844
728 955
728 973
728 983
728 947
728 763
728 748
728 732
728 952
728 822
728 990
728 752
729 971
729 901
729 825
729 738
729 765
729 882
729 898
730 993
730 876
730 734
730 738
730 802
730 886
730 836
730 901
730 884
730 918
731 736
731 911
731 873
731 889
731 779
731 743
731 826
731 860
731 932
732 822
732 844
732 983
732 990
732 748
732 763
733 946
733 863
734 882
734 836
734 802
734 825
734 971
734 738
734 745
734 846
734 884
734 901
734 979
735 794
735 874
735 834
735 800
735 831
735 744
735 867
735 838
735 928
735 916
735 774
735 981
735 809
735 995
735 851
735 756
735 885
735 920
736 768
736 826
736 779
736 762
736 827
736 860
736 788
736 998
736 873
736 743
736 784
736 911
736 889
736 938
736 932
736 868
737 907
737 914
737 915
737 793
737 976
737 888
737 753
738 851
738 884
738 979
738 740
738 825
738 898
738 882
738 742
738 943
738 876
738 918
738 846
738 804
738 901
738 745
738 993
738 765
739 770
739 786
739 824
739 919
739 949
739 967
740 898
740 971
740 804
740 851
740 876
740 884
740 979
740 993
741 989
741 992
741 845
741 982
741 856
742 884
742 846
742 836
742 745
742 765
742 901
742 979
743 779
743 826
743 938
743 788
743 911
743 932
743 860
743 873
743 762
743 784
743 827
743 868
743 998
744 812
744 787
744 920
744 867
744 774
744 838
744 831
744 981
744 798
744 928
744 916
744 995
744 809
744 792
744 874
744 800
744 797
744 756
744 885
744 794
744 834
744 755
744 777
744 861
744 917
745 851
745 993
745 804
745 876
745 836
745 884
745 886
745 979
746 771
746 965
746 999
746 970
746 750
747 956
748 822
748 947
748 955
748 990
748 844
748 763
749 796
749 905
749 937
749 980
749 945
749 875
750 771
750 965
750 970
750 999
750 891
751 997
751 895
751 764
751 759
751 789
752 947
752 952
752 955
752 990
752 763
752 822
752 944
753 907
753 914
753 976
753 793
753 888
754 778
754 936
754 962
754 935
754 906
754 850
754 896
754 988
754 925
754 820
754 926
754 864
754 951
754 771
754 758
754 964
754 977
755 809
755 774
755 934
755 928
755 800
755 920
755 867
755 794
755 761
755 756
755 777
755 812
755 885
755 995
756 885
756 934
756 867
756 800
756 874
756 928
756 792
756 917
756 794
756 787
756 809
756 916
756 861
756 761
756 774
756 995
756 838
756 981
756 797
756 920
756 831
756 834
756 798
756 812
757 811
757 813
757 832
758 887
758 925
758 951
758 778
758 935
758 929
758 926
758 977
758 820
758 896
758 962
758 850
758 988
758 964
758 936
758 906
759 789
759 821
759 895
759 997
759 985
759 764
760 782
760 783
760 806
760 835
760 960
761 861
761 917
761 981
761 920
761 777
761 794
761 774
761 838
761 792
761 934
761 867
761 800
761 916
761 797
761 834
761 831
761 809
761 812
761 885
761 995
762 788
762 779
762 868
762 932
762 938
763 822
763 947
763 983
763 990
763 952
764 821
764 997
764 789
765 943
765 790
765 918
765 971
765 886
765 979
765 993
766 987
766 996
766 871
767 899
767 912
767 892
767 772
767 843
767 808
767 940
767 939
767 839
767 880
768 779
768 860
768 868
768 932
769 902
769 948
769 785
769 857
769 986
770 786
770 957
770 961
770 924
770 972
770 967
770 824
770 919
770 922
770 949
770 953
771 891
771 999
771 965
771 970
772 899
772 939
772 912
772 940
772 839
773 950
773 941
773 795
774 831
774 809
774 794
774 812
774 838
774 867
774 885
774 920
774 995
775 817
775 806
775 910
775 858
775 780
775 782
776 816
777 867
777 934
777 800
777 809
777 916
777 834
777 981
777 798
777 812
777 920
777 831
777 874
777 787
777 917
777 794
777 838
777 885
777 995
778 820
778 929
778 896
778 906
778 925
778 926
778 988
779 873
779 911
779 826
779 998
779 788
779 889
779 827
779 932
779 860
779 938
779 868
780 842
780 910
780 858
780 783
780 781
780 835
780 960
780 806
780 817
781 783
781 960
781 782
782 783
782 835
782 842
782 806
782 910
782 817
782 960
783 858
783 842
783 806
783 835
784 873
784 860
784 868
784 932
785 986
785 969
785 958
785 948
785 902
786 957
786 968
786 829
786 805
786 963
786 949
786 824
786 953
786 967
787 794
787 809
787 812
787 838
787 867
787 885
787 920
787 995
788 868
788 826
788 873
788 932
789 997
789 985
789 821
789 895
790 918
790 979
790 804
790 825
790 886
790 884
790 846
790 943
790 836
791 903
791 819
791 837
791 921
791 807
791 900
792 794
792 800
792 809
792 838
792 867
792 885
792 920
793 907
793 914
793 915
793 976
793 888
794 861
794 874
794 812
794 797
794 809
794 838
794 867
794 885
794 981
794 995
795 941
796 937
796 875
796 905
797 934
797 981
797 874
797 809
797 800
797 834
797 838
797 867
797 885
797 920
797 995
798 885
798 874
798 981
798 834
798 838
798 920
798 995
799 833
799 859
799 828
799 815
799 923
800 838
800 831
800 874
800 812
800 934
800 885
800 834
800 867
800 995
801 954
801 810
801 811
801 832
801 854
801 913
801 879
801 847
801 814
801 893
801 849
801 818
801 894
801 975
801 841
801 869
801 877
801 933
802 836
802 884
802 886
802 993
803 811
803 813
803 832
803 841
803 869
803 927
803 933
804 836
804 884
804 901
804 918
804 979
805 824
805 953
805 967
806 817
807 903
807 890
807 900
808 899
808 912
808 892
808 939
808 839
808 843
809 831
809 928
809 874
809 934
809 920
809 812
809 838
809 867
809 885
810 894
810 811
810 813
810 814
810 832
810 841
810 849
810 909
810 933
810 975
811 897
811 832
811 869
811 870
811 954
811 872
811 813
811 894
811 854
811 877
811 909
811 849
811 847
811 893
811 883
811 913
811 975
811 814
811 818
811 841
811 927
811 935
812 831
812 920
812 867
813 814
813 933
813 854
813 879
813 954
813 818
813 931
813 893
813 883
813 913
813 832
813 855
813 849
813 872
813 975
813 870
813 927
813 841
813 964
813 869
813 877
813 909
814 975
814 897
814 847
814 879
814 869
814 841
814 870
814 893
814 931
814 832
814 877
814 927
814 818
814 855
814 913
814 854
814 883
814 933
815 833
815 923
815 828
817 842
818 933
818 897
818 913
818 931
818 893
818 847
818 849
818 879
818 877
818 832
818 909
818 975
819 903
819 848
819 837
819 862
819 900
819 921
820 864
820 977
820 906
820 964
820 896
820 951
820 935
820 887
820 850
820 925
820 962
820 988
821 985
821 895
822 955
822 947
822 944
822 990
823 865
823 930
824 957
824 953
824 963
824 949
824 967
824 968
824 919
824 829
824 922
824 972
825 886
825 918
825 979
825 993
826 938
826 911
826 860
826 873
826 868
826 827
826 932
826 889
827 860
827 932
827 868
827 938
828 833
828 859
828 923
829 919
829 922
829 967
830 857
830 986
830 978
830 994
830 958
830 974
831 838
831 867
831 885
831 920
831 995
832 913
832 897
832 870
832 931
832 883
832 854
832 894
832 855
832 841
832 877
832 909
832 927
832 933
832 975
833 859
833 923
834 934
834 838
834 867
834 885
834 920
834 995
836 943
836 882
836 898
836 901
836 979
836 884
836 918
836 993
837 890
837 900
837 921
838 995
838 981
838 920
838 874
838 885
838 861
838 917
838 916
838 928
838 867
839 899
839 939
839 940
839 843
839 880
839 892
840 845
840 989
840 992
841 931
841 913
841 897
841 869
841 870
841 854
841 879
841 975
841 855
841 872
841 893
841 954
841 849
841 927
841 877
841 933
843 892
843 939
843 940
843 880
843 912
844 952
844 973
844 947
844 983
845 989
845 992
846 979
846 851
846 886
847 877
847 933
847 975
848 862
848 900
848 921
849 854
849 869
849 883
849 909
849 927
849 933
849 975
850 977
850 864
850 896
850 925
850 935
850 988
850 906
850 964
851 884
851 898
851 918
851 979
852 966
852 984
852 881
853 919
853 922
853 949
853 967
854 879
854 931
854 894
854 913
854 877
854 883
854 909
854 927
854 933
855 877
855 883
855 927
855 933
856 982
856 989
856 992
857 974
857 986
858 960
859 923
860 932
860 873
860 868
861 920
861 867
861 885
861 995
862 903
862 921
862 890
863 946
864 887
864 896
864 935
864 988
864 962
864 906
864 925
864 926
864 964
865 930
866 904
866 942
866 908
866 959
867 981
867 885
867 920
867 995
867 928
867 934
867 874
867 917
867 916
868 911
868 998
868 873
868 889
869 913
869 872
869 909
869 893
869 883
869 933
869 975
870 877
871 987
871 996
872 877
872 927
872 933
872 975
873 932
874 920
874 995
875 945
875 937
876 884
876 886
876 898
876 918
876 979
877 954
877 879
877 933
877 897
877 931
877 975
877 913
877 894
877 893
877 927
878 966
878 881
879 933
879 975
880 899
880 892
880 912
880 939
880 940
881 966
882 884
882 886
882 898
883 897
883 954
883 927
883 931
883 909
883 933
883 975
884 901
884 979
884 898
884 943
884 886
884 918
885 995
885 920
885 916
885 981
885 934
885 917
886 918
886 993
886 943
886 979
887 906
887 925
887 926
887 935
887 964
887 988
888 907
888 914
888 915
888 976
889 932
890 903
890 921
890 900
891 965
891 999
891 970
892 899
892 912
892 940
892 939
893 927
893 933
894 927
894 933
894 975
895 985
895 997
896 906
896 926
896 935
896 988
897 975
898 901
898 943
898 979
898 971
898 918
899 912
899 939
899 940
900 903
900 921
901 993
901 979
901 918
902 969
902 994
902 958
902 978
904 991
904 908
904 959
904 942
905 980
905 937
906 926
906 929
906 977
906 964
906 935
906 951
906 987
906 925
906 988
907 976
907 915
908 959
909 927
909 931
909 975
909 933
910 960
911 932
912 939
913 927
913 933
913 975
914 976
914 915
915 976
916 920
917 920
917 995
918 979
918 971
919 968
919 963
919 961
919 972
919 924
919 957
919 967
919 953
919 949
920 995
920 934
920 981
920 928
922 972
922 953
922 963
922 961
922 957
922 949
922 967
924 949
924 967
925 988
925 936
925 926
925 929
925 951
925 935
925 964
925 962
926 929
926 977
926 988
926 964
926 936
926 935
926 951
927 933
927 975
927 931
927 954
929 964
929 988
931 933
932 998
933 975
933 954
934 995
935 936
935 988
935 951
935 964
935 977
936 964
936 988
937 980
939 940
944 973
944 952
944 983
947 955
947 983
947 990
948 978
948 958
948 986
949 957
949 961
949 953
949 968
949 963
949 972
949 967
951 962
951 964
951 988
952 955
952 983
953 972
953 968
953 967
953 957
955 983
955 990
957 967
958 978
958 969
961 967
962 977
962 964
962 988
963 967
964 977
964 988
965 970
965 999
967 968
967 972
969 986
970 999
971 993
973 983
973 990
974 994
974 978
974 986
978 994
978 986
979 993
981 995
982 992
982 989
983 990
985 997
986 994
987 996
988 999
989 992
