0 564
0 11
0 364
0 341
0 501
0 315
0 456
0 712
0 993
0 686
0 641
0 170
0 795
0 470
0 535
0 666
0 761
0 777
0 824
0 838
0 329
0 868
0 358
0 949
0 272
0 920
0 922
1 573
1 189
1 85
1 436
1 497
1 612
1 53
1 716
1 970
1 171
1 260
1 604
1 218
1 763
1 693
1 346
1 138
1 394
1 655
1 789
1 948
1 351
1 291
1 669
1 237
1 304
1 326
1 872
1 779
1 223
1 887
2 577
2 179
2 77
2 662
2 434
2 558
2 378
2 33
2 13
2 368
2 233
2 333
2 415
2 672
2 474
2 527
2 834
2 732
2 299
2 867
2 816
2 670
2 909
2 794
2 702
2 907
2 89
2 863
2 429
2 319
2 891
2 447
2 887
2 922
2 440
2 232
2 727
2 277
2 849
2 57
2 458
2 755
2 676
2 618
2 25
2 315
2 649
2 304
2 556
2 701
2 82
2 962
2 555
2 673
2 533
2 123
2 591
2 63
2 935
2 127
2 102
2 771
2 971
2 864
2 223
2 756
2 836
2 366
2 920
3 228
3 262
3 85
3 123
3 289
3 23
3 568
3 967
3 510
3 374
3 463
3 723
3 791
3 801
3 56
3 571
3 64
3 67
3 850
3 861
3 627
3 117
3 184
3 877
3 977
3 846
3 401
3 909
4 775
4 561
4 101
4 111
4 718
4 488
4 220
4 793
4 398
4 486
4 73
4 121
4 325
4 962
4 637
4 990
4 647
4 6
4 65
4 170
4 366
4 406
5 564
5 965
5 161
5 551
5 123
5 603
5 798
5 570
5 818
5 520
5 341
5 24
5 824
5 386
5 61
5 412
5 851
5 169
5 62
5 988
5 735
6 667
6 820
6 793
6 145
6 516
6 19
6 410
6 821
6 378
6 166
6 926
6 129
6 621
6 751
6 287
6 127
6 808
6 190
6 351
6 418
6 499
6 686
6 501
6 446
6 363
6 263
6 451
6 407
6 66
6 448
6 130
6 454
6 365
6 487
6 969
6 230
6 345
6 328
6 142
6 361
6 548
6 735
7 152
7 453
7 965
7 206
7 813
7 48
7 102
7 883
7 908
7 407
7 642
7 254
7 671
7 329
7 358
7 61
7 479
7 623
7 861
7 800
7 565
7 578
7 71
7 370
7 178
7 988
7 244
7 507
8 23
8 774
8 301
8 488
8 217
8 359
8 789
8 121
8 373
8 395
8 303
8 290
8 19
8 26
8 40
8 575
8 79
8 446
8 964
8 458
8 975
8 995
8 981
8 229
8 176
8 736
8 377
8 396
9 213
9 224
9 814
9 885
9 431
9 53
9 908
9 964
9 949
9 992
9 803
9 253
9 61
9 772
9 223
9 62
9 370
10 775
10 606
10 330
10 141
10 902
10 541
10 898
10 198
10 640
10 505
10 889
10 524
10 876
10 930
10 875
10 671
10 597
10 804
10 46
10 599
10 609
10 394
10 519
10 944
10 259
10 555
10 245
10 16
10 552
10 545
10 912
10 553
10 194
10 675
10 858
10 517
10 157
10 598
10 997
10 267
10 331
10 401
10 586
10 494
10 143
10 549
10 987
10 769
10 766
10 821
10 960
10 319
10 859
10 643
10 819
10 674
10 617
10 584
10 978
10 91
10 350
10 543
10 677
10 27
10 390
10 465
10 627
10 961
10 472
10 682
10 236
10 396
10 462
10 185
10 37
10 691
10 403
10 121
10 820
10 469
10 312
10 690
10 177
10 372
10 637
10 669
10 779
10 492
10 914
11 261
11 582
11 408
11 467
11 684
11 696
11 468
11 895
11 956
11 784
11 160
11 52
11 532
11 39
11 856
11 393
11 401
11 491
11 849
11 367
11 428
11 442
11 745
11 333
11 668
11 128
11 901
11 391
11 405
11 156
11 826
11 296
11 993
11 620
11 313
11 476
11 508
12 582
12 644
12 814
12 427
12 201
12 728
12 825
12 711
12 193
12 977
12 989
12 747
12 844
12 215
12 491
12 390
12 420
12 566
12 49
12 581
12 643
12 532
12 784
12 536
12 169
12 690
12 195
12 744
12 234
12 288
12 307
12 356
12 369
12 465
12 14
12 407
12 976
12 846
12 505
12 666
12 547
12 274
13 950
13 528
13 68
13 680
13 904
13 684
13 826
13 905
13 811
13 420
13 523
13 731
13 223
13 756
13 300
13 834
13 395
13 406
13 920
14 952
14 23
14 109
14 291
14 413
14 897
14 656
14 932
14 883
14 73
14 364
14 268
14 740
14 538
14 562
14 383
14 944
14 466
14 223
14 727
14 540
14 435
14 151
14 984
14 363
14 28
14 53
14 869
14 102
14 618
14 632
14 964
14 792
14 485
14 61
14 233
14 300
14 433
14 510
15 30
15 117
15 468
15 925
15 798
15 755
15 254
15 520
15 445
15 108
15 341
15 183
15 642
15 219
15 733
15 746
15 248
15 620
15 500
15 713
15 209
15 400
15 230
15 146
15 638
15 27
15 953
15 805
15 835
15 631
15 686
15 23
15 613
15 202
15 507
15 99
15 940
15 424
15 299
15 937
15 960
15 789
15 724
15 672
15 677
15 797
15 646
16 165
16 979
16 901
16 536
16 371
16 995
16 953
16 335
16 766
16 378
16 812
16 586
16 657
16 245
16 401
16 313
16 553
16 938
16 492
16 417
16 948
16 609
16 501
16 330
16 310
16 517
16 557
16 555
16 194
16 675
16 944
16 552
16 331
16 633
16 921
16 598
16 990
16 267
16 900
16 271
16 708
16 876
16 951
16 348
16 779
16 24
16 950
16 774
16 351
16 689
16 619
16 485
16 205
16 964
16 355
16 512
16 387
16 991
16 490
16 882
16 849
16 837
16 942
16 850
16 605
16 300
16 217
16 971
16 713
16 937
16 199
16 420
16 280
16 278
16 904
16 508
16 52
16 172
16 391
16 549
16 640
16 157
16 229
16 927
16 494
16 98
16 636
16 523
17 278
17 165
17 391
17 405
17 468
17 309
17 108
17 482
17 609
17 72
17 330
17 769
17 859
17 504
17 673
17 434
17 906
17 783
17 895
17 359
17 553
17 555
17 46
17 586
17 151
17 229
17 812
17 331
17 348
17 401
17 505
17 300
17 366
17 522
18 966
18 369
18 131
18 266
18 655
18 612
18 506
18 148
18 631
18 554
18 605
18 365
18 144
18 121
18 901
18 734
18 124
18 397
18 139
18 347
18 25
18 798
18 357
18 755
18 932
18 618
18 785
18 735
19 515
19 269
19 801
19 56
19 273
19 312
19 932
19 972
19 438
19 874
19 362
19 446
19 424
19 942
19 939
19 49
19 150
19 458
19 851
19 722
19 340
19 511
19 510
19 498
19 786
19 551
19 620
19 821
19 688
19 319
19 945
19 812
19 31
19 40
19 570
19 591
19 606
19 738
19 818
19 407
19 975
19 517
19 81
19 135
19 621
20 627
20 902
20 769
20 143
20 992
20 194
20 336
20 812
20 930
20 766
20 265
20 838
20 648
20 995
20 453
20 762
20 46
20 151
20 671
20 229
20 259
20 779
20 348
20 378
20 921
20 442
20 494
20 501
20 178
21 860
21 179
21 862
21 465
21 625
21 918
21 964
21 645
21 159
21 835
21 795
21 768
21 726
21 139
21 405
21 131
21 294
21 566
21 444
21 812
21 525
21 752
21 787
22 613
22 77
22 957
22 328
22 545
22 198
22 229
22 921
22 828
22 755
22 244
22 281
22 874
22 637
22 640
22 157
22 671
22 348
22 898
22 454
22 492
22 501
22 703
22 704
22 794
23 528
23 37
23 44
23 627
23 880
23 861
23 270
23 531
23 289
23 848
23 80
23 873
23 67
23 596
23 568
23 518
23 791
23 594
23 563
23 282
23 117
23 560
23 64
23 302
23 30
23 807
23 850
23 571
23 537
23 63
23 109
23 122
23 56
23 801
23 691
23 551
23 533
23 624
23 206
23 546
23 600
23 529
23 477
23 603
23 843
23 324
23 218
23 65
23 137
23 895
23 704
23 296
23 597
23 329
23 292
23 249
23 451
23 507
23 666
23 445
23 435
23 97
23 526
23 198
23 53
23 715
23 541
23 823
23 85
23 123
23 116
23 86
23 696
23 744
23 897
23 811
23 986
23 756
24 585
24 119
24 695
24 809
24 884
24 812
24 141
24 676
24 417
24 454
24 927
24 46
24 524
24 793
24 373
24 247
24 453
24 507
24 173
24 614
24 662
24 586
24 229
24 259
24 378
24 492
24 665
24 92
24 70
25 509
25 502
25 64
25 707
25 717
25 205
25 722
25 349
25 322
25 966
25 74
25 720
25 359
25 690
25 481
25 506
25 458
25 699
25 76
26 564
26 221
26 215
26 693
26 851
26 857
26 738
26 995
26 458
26 831
26 50
26 367
26 31
26 29
26 308
26 874
26 457
26 959
26 235
26 974
26 309
26 296
26 976
26 446
26 942
26 606
26 471
26 975
26 985
26 570
26 328
26 362
26 918
26 986
26 811
26 105
26 575
26 345
26 344
26 993
26 591
26 972
26 40
26 886
26 56
26 919
26 572
26 128
26 905
26 148
26 523
26 238
26 668
26 474
26 455
26 766
26 286
26 186
26 798
26 55
26 323
26 292
26 635
26 573
26 331
26 502
26 752
26 554
26 548
26 910
26 808
26 170
26 912
26 560
26 592
26 407
26 964
26 464
26 401
26 432
26 135
26 65
26 433
27 801
27 111
27 967
27 977
27 465
27 763
27 40
27 390
27 400
27 462
27 113
27 765
27 278
27 428
27 984
27 588
27 855
27 307
27 261
27 936
27 849
27 864
27 108
27 646
27 410
27 209
27 484
27 749
27 545
27 151
27 401
27 135
27 785
27 817
28 546
28 571
28 820
28 877
28 589
28 813
28 897
28 268
28 658
28 656
28 869
28 73
28 383
28 890
28 374
28 503
28 629
28 516
28 121
28 740
28 699
28 733
28 534
28 537
28 207
28 85
28 175
28 651
28 451
28 235
28 437
28 361
28 780
28 941
28 297
28 557
28 558
28 53
28 102
28 618
28 628
28 275
28 854
28 287
28 892
28 663
28 333
29 563
29 197
29 778
29 285
29 684
29 841
29 369
29 235
29 50
29 457
29 831
29 296
29 811
29 591
29 818
29 972
29 999
29 590
29 566
29 54
29 923
29 298
29 264
29 425
29 720
29 429
29 374
29 515
29 593
29 40
29 575
29 592
29 79
29 105
29 738
29 309
29 964
29 464
29 993
29 630
29 553
29 46
29 698
29 920
30 515
30 775
30 228
30 518
30 531
30 551
30 37
30 80
30 594
30 861
30 67
30 646
30 106
30 967
30 819
30 497
30 817
30 561
30 44
30 56
30 568
30 850
30 85
30 123
30 47
30 918
30 797
30 586
30 157
30 671
30 324
30 293
30 523
31 750
31 963
31 160
31 73
31 260
31 424
31 738
31 381
31 995
31 458
31 972
31 974
31 367
31 976
31 159
31 711
31 642
31 263
31 938
31 836
31 350
31 181
31 370
31 472
31 222
31 40
31 575
31 592
31 606
31 105
31 296
31 811
31 325
31 407
31 446
31 457
31 975
31 620
31 484
31 900
31 167
31 174
31 754
31 777
31 329
31 548
31 920
31 244
32 323
32 85
32 786
32 919
32 884
32 658
32 995
32 46
32 875
32 454
32 730
32 354
32 705
33 123
33 295
33 744
33 371
33 932
33 309
33 380
33 96
33 265
33 513
33 327
33 167
33 635
33 452
34 256
34 530
34 262
34 590
34 742
34 211
34 611
34 534
34 207
34 695
34 847
34 586
34 57
34 36
34 725
34 832
34 815
34 372
34 571
34 925
34 520
34 209
34 736
34 800
35 179
35 40
35 454
35 924
35 78
35 723
35 167
35 84
35 60
35 720
35 337
35 181
35 755
35 822
35 544
35 36
35 682
35 81
35 42
35 409
35 920
35 988
36 967
36 701
36 342
36 586
36 708
36 935
36 81
36 544
36 437
36 924
36 937
36 57
36 888
36 185
36 922
36 591
36 595
36 194
36 594
36 123
36 291
36 875
36 172
36 422
36 329
36 167
36 682
36 829
36 324
36 84
36 181
36 472
36 396
37 518
37 533
37 546
37 551
37 861
37 560
37 214
37 228
37 589
37 103
37 197
37 233
37 44
37 563
37 571
37 596
37 85
37 109
37 627
37 123
37 687
37 884
37 998
37 346
37 993
37 91
37 259
37 223
37 510
37 258
38 495
38 742
38 685
38 184
38 488
38 784
38 217
38 684
38 701
38 468
38 580
38 393
38 696
38 569
38 901
38 273
38 60
38 532
38 107
38 391
38 202
38 589
38 773
38 385
38 850
38 308
38 526
38 808
38 73
38 644
38 421
38 778
38 774
38 255
38 529
38 662
38 294
38 586
38 128
38 911
38 408
38 156
38 467
38 441
38 399
38 465
38 464
38 555
38 609
38 938
38 660
38 756
38 272
39 64
39 85
39 107
39 160
39 217
39 532
39 408
39 86
39 391
39 460
39 911
39 95
39 784
39 574
39 449
39 562
39 591
39 386
39 615
39 341
39 990
39 825
39 625
39 664
39 213
39 128
39 901
39 405
39 156
39 684
39 468
39 436
39 558
39 637
40 477
40 179
40 464
40 985
40 362
40 986
40 487
40 367
40 976
40 381
40 972
40 407
40 993
40 471
40 49
40 975
40 592
40 235
40 296
40 918
40 457
40 50
40 738
40 575
40 959
40 147
40 942
40 325
40 974
40 939
40 962
40 964
40 446
40 570
40 831
40 308
40 439
40 345
40 591
40 995
40 606
40 818
40 908
40 344
40 397
40 458
40 424
40 435
40 811
40 857
40 105
40 851
40 917
40 613
40 673
40 47
40 819
40 371
40 533
40 305
40 630
40 740
40 400
40 528
40 521
40 80
40 281
40 279
40 602
40 626
40 527
40 59
40 216
40 978
40 839
40 816
40 515
40 410
40 175
40 290
40 752
40 46
40 690
40 364
40 454
40 261
40 271
40 338
40 578
40 632
40 571
40 951
41 130
41 861
41 165
41 536
41 346
41 849
41 953
41 586
41 779
41 313
41 754
41 386
41 636
41 70
41 433
41 522
41 787
41 512
41 556
41 100
41 607
41 370
41 988
41 991
41 178
41 244
41 507
41 292
41 828
41 806
41 71
41 76
41 653
41 776
41 945
41 414
41 288
41 590
41 424
41 488
41 970
41 264
41 714
41 372
41 97
41 711
41 762
41 316
41 323
41 234
41 463
41 364
41 783
41 181
41 363
41 454
41 736
41 307
41 578
42 402
42 154
42 172
42 195
42 599
42 151
42 824
42 428
42 275
42 788
42 666
42 719
42 712
42 760
42 335
42 627
42 68
42 359
42 301
42 98
42 595
42 174
42 176
42 698
42 721
42 761
42 283
42 933
42 485
42 547
42 920
43 158
43 860
43 402
43 644
43 219
43 620
43 445
43 726
43 818
43 915
43 310
43 757
43 460
43 341
43 864
43 108
43 646
43 462
43 484
43 254
43 259
43 280
44 528
44 533
44 791
44 546
44 568
44 807
44 80
44 850
44 117
44 123
44 594
44 109
44 873
44 571
44 801
44 627
44 64
44 56
44 206
44 63
44 531
44 596
44 85
44 67
44 560
44 880
44 302
44 848
44 563
44 289
44 537
44 282
44 296
44 207
44 898
44 932
44 724
44 773
44 397
44 505
44 945
44 606
44 154
44 304
44 105
44 346
44 486
44 83
44 160
44 656
44 468
44 884
44 660
44 714
44 956
44 428
44 659
44 685
44 718
44 684
44 312
44 331
44 824
44 837
44 735
45 207
45 211
45 488
45 195
45 743
45 813
45 864
45 812
45 927
45 521
45 274
45 63
45 238
45 223
45 333
46 173
46 189
46 691
46 427
46 341
46 230
46 699
46 576
46 380
46 157
46 549
46 597
46 921
46 330
46 804
46 327
46 348
46 555
46 948
46 902
46 683
46 769
46 671
46 336
46 143
46 900
46 310
46 313
46 378
46 927
46 609
46 139
46 271
46 141
46 637
46 304
46 930
46 758
46 657
46 960
46 858
46 633
46 708
46 198
46 938
46 492
46 501
46 656
46 702
46 187
46 419
46 190
46 778
46 478
46 743
46 413
46 881
46 540
46 481
46 342
46 443
46 774
46 61
46 87
46 651
46 866
46 936
46 716
46 554
46 696
46 964
46 122
46 163
46 614
46 186
46 244
46 904
46 736
46 408
46 58
46 259
46 812
46 331
46 442
46 454
46 665
46 170
46 836
46 507
47 207
47 919
47 813
47 897
47 658
47 932
47 121
47 538
47 364
47 656
47 374
47 618
47 73
47 558
47 629
47 231
47 117
47 445
47 785
47 586
47 144
47 979
47 573
47 885
47 620
47 114
47 869
47 102
47 883
47 964
47 462
47 254
47 676
47 329
47 363
47 428
47 686
47 104
47 739
48 546
48 64
48 301
48 904
48 574
48 312
48 436
48 266
48 798
48 554
48 131
48 636
48 946
48 177
48 398
48 54
48 49
48 622
48 255
48 779
48 666
48 698
48 250
49 750
49 841
49 371
49 869
49 629
49 975
49 214
49 187
49 264
49 382
49 783
49 249
49 575
49 591
49 105
49 296
49 818
49 942
49 438
49 146
49 927
49 736
49 727
50 775
50 154
50 882
50 111
50 179
50 722
50 195
50 369
50 407
50 235
50 976
50 606
50 79
50 105
50 592
50 446
50 575
50 362
50 458
50 974
50 424
50 344
50 818
50 874
50 438
50 147
50 328
50 53
50 838
50 674
50 740
50 711
50 203
50 666
50 281
50 709
50 871
50 544
50 898
50 777
50 905
50 159
50 151
50 672
50 879
50 428
50 271
50 158
50 354
50 738
50 811
50 964
50 410
50 401
50 921
50 485
50 290
51 257
51 644
51 359
51 267
51 454
51 838
51 92
51 284
51 512
51 800
51 991
51 225
51 71
51 142
51 737
51 429
51 670
51 863
51 970
51 618
51 587
51 55
51 578
51 595
51 370
51 988
51 244
52 537
52 774
52 784
52 643
52 460
52 405
52 150
52 928
52 889
52 925
52 725
52 60
52 901
52 408
52 156
52 160
52 468
52 121
52 675
52 501
52 937
52 777
52 354
52 252
53 965
53 616
53 119
53 184
53 467
53 744
53 841
53 255
53 932
53 558
53 562
53 374
53 121
53 629
53 102
53 394
53 856
53 571
53 482
53 692
53 312
53 254
53 211
53 878
53 260
53 382
53 869
53 618
53 641
53 758
53 78
53 232
54 860
54 767
54 999
54 585
54 786
54 101
54 971
54 904
54 593
54 616
54 384
54 245
54 658
54 249
54 216
54 382
54 633
54 231
54 501
54 567
54 68
54 124
54 667
54 165
54 197
54 205
54 770
54 264
54 301
54 814
54 877
54 967
54 475
54 201
54 481
54 469
54 575
54 995
54 444
54 557
54 378
54 736
54 739
54 782
55 551
55 841
55 296
55 609
55 671
55 176
55 129
55 983
55 885
55 352
55 327
55 470
55 438
55 293
55 430
55 578
55 76
55 370
55 988
55 244
55 246
56 297
56 518
56 801
56 551
56 563
56 594
56 206
56 791
56 861
56 628
56 433
56 834
56 493
56 981
56 567
56 925
56 728
56 571
56 67
56 850
56 873
56 627
56 117
56 301
56 393
56 156
56 288
56 356
56 497
56 554
56 581
56 918
56 645
56 553
56 637
56 176
56 103
57 419
57 110
57 967
57 398
57 981
57 348
57 682
57 937
57 544
57 185
57 848
57 898
57 546
57 785
57 174
57 908
57 987
57 241
57 296
57 81
57 84
57 734
57 191
58 75
58 222
58 184
58 869
58 430
58 147
58 555
58 599
58 330
58 472
58 372
58 612
58 660
58 602
58 533
58 637
58 157
58 669
58 758
58 348
58 378
58 898
58 401
58 492
58 501
58 698
58 704
58 686
58 333
58 507
59 261
59 564
59 473
59 946
59 152
59 278
59 760
59 263
59 741
59 928
59 91
59 494
59 711
59 244
59 984
59 673
59 573
59 88
59 860
59 154
59 419
59 224
59 495
59 463
59 184
59 884
59 995
59 598
59 340
59 284
59 415
60 664
60 563
60 295
60 895
60 156
60 460
60 408
60 107
60 95
60 468
60 574
60 86
60 227
60 379
60 450
60 695
60 431
60 90
60 488
60 731
60 862
60 760
60 589
60 128
60 405
60 160
60 684
60 217
60 811
60 457
60 341
60 646
60 785
60 191
60 272
60 800
61 537
61 124
61 446
61 698
61 136
61 739
61 340
61 96
61 170
61 548
61 339
61 186
61 476
61 969
61 408
61 925
61 589
61 714
61 705
61 715
61 706
61 107
61 782
61 62
61 735
62 117
62 668
62 413
62 619
62 321
62 465
62 883
62 964
62 259
62 485
62 663
62 756
62 988
62 664
62 377
62 676
62 423
62 768
62 886
62 866
62 544
62 178
63 419
63 270
63 528
63 533
63 807
63 568
63 571
63 546
63 231
63 237
63 278
63 995
63 220
63 487
63 67
63 848
63 850
63 85
63 627
63 123
63 972
63 151
63 935
63 182
63 409
64 518
64 531
64 533
64 791
64 801
64 546
64 551
64 563
64 568
64 571
64 123
64 67
64 594
64 289
64 691
64 861
64 302
64 270
64 109
64 206
64 528
64 80
64 596
64 624
64 880
64 122
64 727
64 604
64 678
64 673
64 790
64 868
64 319
64 671
64 920
64 944
64 165
64 915
64 933
64 154
64 542
64 575
64 902
64 427
64 85
64 627
64 117
64 669
64 83
64 126
64 510
64 507
65 461
65 172
65 211
65 528
65 567
65 809
65 212
65 758
65 142
65 926
65 426
65 499
65 547
65 808
65 127
65 543
65 166
65 98
65 92
65 803
65 647
65 89
65 733
65 689
65 683
65 966
65 957
65 312
65 581
65 403
65 919
65 136
65 570
65 266
65 471
65 104
65 878
66 850
66 188
66 264
66 77
66 438
66 401
66 84
66 276
66 476
66 852
66 969
66 314
66 170
66 870
66 316
66 542
66 244
66 263
66 223
66 802
66 884
66 522
66 931
66 368
67 564
67 801
67 551
67 563
67 571
67 861
67 270
67 531
67 627
67 624
67 807
67 302
67 282
67 546
67 85
67 560
67 873
67 528
67 289
67 80
67 206
67 594
67 109
67 123
67 791
67 596
67 880
67 533
67 537
67 691
67 518
67 850
67 600
67 822
67 670
67 90
67 296
67 94
67 135
67 860
67 470
67 871
67 647
67 306
67 324
67 139
67 930
67 496
67 956
67 713
67 76
67 951
67 622
67 218
67 993
67 446
67 487
67 869
67 522
67 377
67 502
67 651
67 184
67 826
67 932
67 666
67 777
67 485
68 775
68 116
68 680
68 707
68 226
68 668
68 626
68 613
68 770
68 967
68 945
68 295
68 347
68 610
68 722
68 764
68 197
68 285
68 175
68 454
68 801
68 121
68 629
68 302
68 361
68 693
68 716
68 934
68 106
68 942
68 82
68 686
68 585
68 593
68 87
68 615
68 659
68 718
68 774
68 264
68 301
68 877
68 413
68 393
68 208
68 407
68 401
68 501
68 719
68 868
68 311
68 867
69 799
69 814
69 279
69 786
69 504
69 737
69 87
69 226
69 134
69 674
69 482
69 663
69 917
69 777
69 428
69 644
69 175
69 197
69 722
69 774
69 264
69 809
69 298
69 301
69 906
69 919
69 967
69 488
69 690
69 288
69 755
69 268
69 102
69 575
69 642
69 401
69 838
69 136
69 233
70 518
70 685
70 77
70 957
70 296
70 676
70 900
70 454
70 334
70 126
70 352
70 274
70 521
70 635
70 678
70 666
70 460
70 402
70 279
70 675
70 301
70 850
70 347
70 790
70 794
71 228
71 668
71 427
71 481
71 622
71 864
71 522
71 800
71 578
71 539
71 828
71 370
71 76
71 78
71 324
71 884
71 901
71 894
71 345
71 739
71 873
71 543
71 961
71 975
71 136
71 178
72 278
72 224
72 196
72 384
72 967
72 883
72 606
72 988
72 982
72 688
72 104
72 716
72 754
72 609
72 669
72 245
72 758
72 812
72 331
72 348
72 401
72 927
72 492
72 535
72 634
72 433
73 222
73 531
73 848
73 674
73 486
73 622
73 268
73 656
73 932
73 558
73 890
73 383
73 897
73 398
73 101
73 446
73 400
73 270
73 594
73 475
73 702
73 559
73 294
73 102
73 618
73 883
73 121
73 171
73 645
73 519
73 867
73 406
74 593
74 614
74 322
74 212
74 720
74 210
74 619
74 973
74 343
74 936
74 287
74 588
74 333
74 850
74 486
74 342
74 150
74 81
74 550
74 841
74 712
74 329
74 933
74 934
74 339
74 988
75 323
75 515
75 269
75 709
75 664
75 639
75 842
75 729
75 122
75 467
75 650
75 775
75 823
75 652
75 158
75 94
75 480
75 295
75 813
75 346
75 902
75 395
75 406
76 419
76 742
76 631
76 218
76 105
76 942
76 995
76 382
76 484
76 501
76 176
76 933
76 663
76 199
76 867
76 800
76 865
76 225
76 512
76 249
76 292
76 828
76 653
76 522
76 607
76 787
76 991
76 735
76 498
76 178
76 100
76 806
76 975
76 913
76 220
76 647
76 480
76 214
76 700
76 569
76 352
76 667
76 285
76 573
76 775
76 454
76 770
76 891
76 711
76 189
76 423
76 98
76 584
76 888
76 193
77 237
77 289
77 298
77 967
77 856
77 392
77 195
77 434
77 153
77 862
77 234
77 379
77 841
77 497
77 674
77 177
77 201
77 977
77 356
77 905
77 925
77 436
77 369
77 662
77 215
77 169
77 871
77 342
77 747
77 486
77 813
77 422
77 866
77 337
77 481
77 687
77 208
77 375
77 220
77 398
77 823
77 371
77 940
77 957
77 312
77 295
77 766
77 404
77 456
77 574
77 624
77 795
77 852
77 851
77 492
77 850
77 351
77 84
77 682
77 800
77 915
77 576
77 713
77 583
77 960
77 102
77 621
77 516
77 467
77 494
77 383
77 156
77 608
77 688
77 690
77 193
77 744
77 288
77 321
77 884
77 465
77 328
77 183
77 283
77 949
77 137
77 204
77 412
78 882
78 211
78 885
78 234
78 313
78 938
78 454
78 501
78 324
78 723
78 93
78 888
78 829
78 725
78 404
78 931
78 481
78 309
78 994
78 552
78 717
78 897
78 81
78 386
78 727
78 794
79 149
79 128
79 307
79 356
79 942
79 309
79 986
79 235
79 985
79 959
79 874
79 296
79 993
79 464
79 344
79 381
79 976
79 591
79 458
79 857
79 843
79 227
79 272
79 653
79 648
79 355
79 832
79 890
79 772
79 774
79 978
79 651
79 721
79 377
79 491
79 147
79 325
79 918
79 964
79 151
79 804
79 492
79 686
79 274
79 670
79 223
80 573
80 270
80 533
80 791
80 801
80 546
80 551
80 563
80 850
80 861
80 627
80 123
80 786
80 877
80 128
80 427
80 953
80 637
81 955
81 587
81 325
81 675
81 682
81 286
81 324
81 93
81 182
81 167
81 437
81 888
81 924
81 937
81 874
81 704
81 689
81 833
81 823
81 772
81 612
81 731
81 883
81 504
81 989
81 761
81 354
81 170
82 86
82 643
82 193
82 932
82 749
82 519
82 671
82 812
82 858
82 990
82 657
82 335
82 200
82 824
82 233
82 260
82 529
82 861
82 787
82 359
82 637
82 229
82 758
82 927
82 442
82 454
82 501
82 83
82 704
82 754
82 909
82 244
83 215
83 465
83 605
83 625
83 446
83 348
83 829
83 535
83 838
83 721
83 472
83 293
83 174
83 666
83 542
83 943
83 377
83 265
83 788
83 679
83 485
83 214
83 338
83 833
83 947
83 525
83 275
83 736
83 135
83 376
83 730
83 694
83 745
83 181
83 329
83 893
83 868
83 719
83 192
83 724
83 455
83 915
83 114
83 143
83 528
83 451
83 908
83 811
83 894
83 538
83 835
83 637
83 669
83 742
83 583
83 768
83 235
83 361
83 967
83 881
83 314
83 690
83 453
83 759
83 872
83 767
83 327
83 898
83 142
83 977
83 665
83 176
83 241
83 777
83 832
83 354
83 223
83 867
84 685
84 707
84 156
84 925
84 105
84 438
84 975
84 159
84 544
84 437
84 324
84 432
84 187
84 442
84 354
84 296
84 906
84 447
84 762
84 830
84 606
84 93
84 252
84 311
85 518
85 531
85 801
85 551
85 563
85 571
85 848
85 568
85 123
85 289
85 302
85 282
85 117
85 533
85 850
85 537
85 122
85 594
85 270
85 206
85 791
85 861
85 624
85 528
85 691
85 596
85 546
85 873
85 600
85 880
85 560
85 279
85 94
85 743
85 769
85 567
85 274
85 463
85 619
85 821
85 118
85 233
85 381
85 911
85 800
85 104
85 721
85 958
85 252
85 355
85 683
85 845
85 968
85 792
85 321
85 298
85 696
85 581
85 881
85 817
85 223
86 224
86 495
86 282
86 701
86 408
86 956
86 160
86 217
86 643
86 784
86 895
86 574
86 981
86 887
86 491
86 431
86 478
86 363
86 315
86 856
86 128
86 156
86 684
86 468
86 215
86 138
86 921
86 174
86 358
86 623
86 311
87 561
87 282
87 873
87 567
87 585
87 764
87 923
87 667
87 111
87 298
87 347
87 504
87 695
87 616
87 301
87 968
87 877
87 659
87 980
87 814
87 778
87 737
87 896
87 610
87 853
87 626
87 101
87 188
87 971
87 770
87 757
87 124
87 488
87 279
87 774
87 197
87 648
87 795
87 285
87 165
87 251
87 603
87 116
87 205
87 965
87 353
87 225
87 985
87 827
87 931
87 254
87 500
87 972
87 854
87 374
87 688
87 401
87 321
87 952
87 769
87 395
87 628
87 480
87 420
87 266
87 541
87 451
87 523
87 300
87 602
87 436
87 163
87 168
87 833
87 821
87 644
87 184
87 718
87 295
87 809
87 885
87 906
87 441
87 431
87 506
87 296
87 445
87 501
87 679
87 721
87 783
87 360
88 278
88 561
88 564
88 805
88 228
88 773
88 584
88 495
88 164
88 419
88 263
88 860
88 526
88 380
88 937
88 840
88 557
88 567
88 408
88 700
88 971
88 916
88 154
88 931
88 224
88 534
88 179
88 695
88 814
88 235
88 917
88 458
88 331
88 120
89 717
89 210
89 605
89 364
89 738
89 797
89 219
89 259
89 634
89 665
89 142
89 134
89 223
89 284
89 311
89 867
89 366
89 406
89 415
89 433
90 563
90 384
90 856
90 645
90 444
90 576
90 846
90 568
90 809
90 267
90 780
90 675
91 841
91 371
91 328
91 367
91 645
91 444
91 839
91 846
91 847
91 470
91 294
91 572
91 630
91 699
91 236
91 835
91 659
91 600
91 858
91 441
91 583
91 170
91 678
91 778
91 921
91 411
91 410
91 97
91 519
91 492
91 933
91 406
92 269
92 256
92 518
92 241
92 142
92 216
92 499
92 870
92 468
92 703
92 638
92 973
92 103
92 250
92 508
92 366
92 433
93 342
93 932
93 995
93 236
93 671
93 544
93 432
93 888
93 682
93 723
93 182
93 167
93 224
93 568
93 673
93 105
93 824
93 564
93 173
93 814
93 950
93 523
93 712
94 842
94 269
94 664
94 158
94 480
94 515
94 545
94 834
94 450
94 808
94 376
94 797
94 639
94 403
94 916
94 282
94 722
94 780
94 296
94 917
94 699
94 229
94 494
94 660
94 426
95 615
95 923
95 967
95 532
95 856
95 273
95 511
95 128
95 160
95 405
95 407
95 365
95 743
95 518
95 153
95 247
95 762
95 297
95 391
95 408
95 156
95 684
95 460
95 217
95 220
95 427
95 106
95 637
96 659
96 197
96 264
96 786
96 413
96 701
96 465
96 986
96 472
96 136
96 545
96 990
96 190
96 927
96 415
96 244
97 573
97 801
97 546
97 279
97 885
97 813
97 740
97 699
97 470
97 243
97 839
97 910
97 572
97 835
97 700
97 159
97 186
97 207
97 258
97 669
97 936
97 270
97 210
97 348
97 533
97 830
97 744
97 283
97 559
97 812
97 437
97 135
97 595
97 988
98 130
98 801
98 685
98 488
98 169
98 841
98 438
98 520
98 230
98 779
98 926
98 547
98 746
98 542
98 334
98 343
98 120
98 238
99 946
99 408
99 905
99 516
99 658
99 932
99 740
99 869
99 493
99 677
99 562
99 178
99 960
99 348
99 764
99 891
99 692
99 203
99 610
99 102
99 883
99 824
100 590
100 298
100 349
100 156
100 688
100 143
100 182
100 258
100 800
100 369
100 281
100 178
100 498
100 507
101 567
101 111
101 384
101 615
101 200
101 795
101 968
101 380
101 922
101 190
101 150
101 806
101 165
101 778
101 809
101 814
101 820
101 877
101 885
101 919
101 413
101 229
101 286
101 754
101 358
101 548
102 819
102 221
102 537
102 413
102 601
102 193
102 398
102 957
102 268
102 932
102 869
102 890
102 558
102 628
102 658
102 374
102 364
102 493
102 562
102 516
102 231
102 897
102 383
102 821
102 924
102 546
102 912
102 816
102 519
102 723
102 777
102 607
102 482
102 120
102 856
102 556
102 442
102 818
102 910
102 863
102 316
102 618
102 883
102 629
102 872
102 267
102 454
102 104
102 787
103 692
103 563
103 285
103 108
103 492
103 698
103 752
103 949
103 142
103 926
103 418
103 547
103 686
103 426
103 478
103 361
103 803
103 499
103 190
103 943
103 553
103 839
103 734
103 620
103 728
103 169
103 484
103 984
103 745
103 276
103 181
103 197
103 799
103 688
103 817
103 922
104 353
104 885
104 798
104 183
104 754
104 142
104 926
104 983
104 190
104 407
104 107
104 959
104 979
104 305
104 223
105 801
105 644
105 405
105 195
105 307
105 369
105 998
105 656
105 575
105 811
105 972
105 390
105 995
105 458
105 424
105 328
105 591
105 150
105 344
105 874
105 147
105 345
105 487
105 592
105 959
105 235
105 438
105 974
105 439
105 851
105 471
105 325
105 457
105 464
105 818
105 407
105 975
105 446
105 985
105 397
105 942
105 581
105 351
105 626
105 583
105 379
105 999
105 376
105 912
105 350
105 331
105 664
105 245
105 704
105 396
105 137
105 576
105 727
105 646
105 453
105 117
105 526
105 373
105 896
105 911
105 980
105 859
105 293
105 919
105 572
105 229
105 639
105 353
105 738
105 296
105 309
105 669
105 544
105 565
106 133
106 954
106 197
106 820
106 162
106 940
106 431
106 656
106 364
106 894
106 326
106 678
106 611
106 979
106 570
106 827
106 933
106 191
106 756
106 735
107 211
107 589
107 895
107 393
107 537
107 981
107 819
107 341
107 670
107 672
107 128
107 156
107 467
107 217
107 961
107 629
107 503
107 139
107 192
107 777
107 452
108 596
108 205
108 628
108 514
108 520
108 797
108 792
108 872
108 641
108 400
108 448
108 726
108 146
108 219
108 410
108 749
108 484
108 733
108 482
108 620
108 420
108 746
108 254
108 781
108 649
108 500
108 881
108 183
108 445
108 209
108 953
108 462
108 713
108 642
108 624
108 970
108 151
108 611
108 871
108 208
108 724
108 166
108 769
108 855
108 870
108 571
108 928
108 732
108 977
108 800
108 867
108 958
108 374
108 502
108 940
108 933
108 718
108 248
108 765
108 157
108 927
108 300
108 920
108 225
109 518
109 528
109 531
109 533
109 546
109 563
109 568
109 571
109 850
109 596
109 873
109 122
109 691
109 880
109 123
109 282
109 791
109 627
109 848
109 551
109 953
109 939
109 925
109 245
109 841
109 737
109 412
109 610
109 589
109 326
109 833
109 339
109 565
109 330
109 980
109 885
109 813
109 481
109 259
109 501
109 816
109 452
110 571
110 593
110 603
110 980
110 116
110 175
110 651
110 285
110 660
110 748
110 901
110 159
110 710
110 165
110 718
110 722
110 298
110 885
110 906
110 919
110 413
110 967
110 490
110 811
110 792
110 146
110 348
110 501
110 167
110 508
110 223
110 284
110 366
111 588
111 568
111 585
111 610
111 613
111 896
111 488
111 491
111 184
111 205
111 603
111 504
111 774
111 301
111 264
111 285
111 567
111 659
111 778
111 945
111 165
111 971
111 626
111 320
111 436
111 115
111 141
111 812
111 845
111 155
111 841
111 861
111 912
111 909
111 692
111 530
111 299
111 515
111 809
111 298
111 814
111 820
111 885
111 413
111 749
111 721
111 474
112 842
112 124
112 644
112 809
112 688
112 312
112 866
112 559
112 142
112 523
112 245
112 617
112 204
112 233
112 756
112 794
112 284
112 366
112 406
112 440
113 885
113 408
113 322
113 998
113 581
113 490
113 325
113 849
113 341
113 864
113 212
113 953
113 889
113 666
113 941
113 822
113 199
113 284
114 154
114 899
114 149
114 796
114 815
114 954
114 332
114 714
114 740
114 261
114 589
114 657
114 509
114 298
114 497
114 407
114 555
114 935
114 142
114 565
115 648
115 673
115 747
115 886
115 308
115 325
115 879
115 669
115 812
115 417
115 432
115 602
115 590
115 195
115 929
115 388
115 822
116 389
116 611
116 289
116 571
116 613
116 691
116 590
116 390
116 969
116 808
116 165
116 179
116 184
116 722
116 264
116 778
116 809
116 298
116 814
116 885
116 346
116 442
116 492
116 432
116 174
116 719
116 132
117 588
117 270
117 528
117 533
117 801
117 302
117 563
117 568
117 571
117 850
117 627
117 861
117 691
117 807
117 282
117 551
117 289
117 560
117 537
117 624
117 791
117 880
117 518
117 393
117 178
117 854
117 510
117 576
117 828
117 387
117 166
117 284
117 168
117 377
117 463
117 244
117 781
117 218
117 226
117 672
117 123
117 685
117 853
117 201
117 789
117 677
117 296
117 649
117 230
117 293
118 434
118 631
118 738
118 444
118 176
118 654
118 698
118 855
118 783
118 428
118 433
118 250
118 775
118 877
118 509
118 912
118 836
118 222
118 135
118 721
118 785
118 824
118 838
118 949
118 485
118 852
118 909
119 533
119 807
119 585
119 593
119 830
119 644
119 475
119 349
119 919
119 264
119 814
119 449
119 613
119 488
119 667
119 764
119 567
119 722
119 979
119 179
119 707
119 795
119 897
119 937
119 136
119 575
119 379
119 939
119 429
119 286
119 581
119 732
119 887
119 192
119 149
119 134
119 659
119 175
119 770
119 786
119 809
119 628
119 738
119 191
119 867
120 861
120 550
120 208
120 424
120 576
120 839
120 598
120 157
120 401
120 142
120 926
120 547
120 361
120 250
120 980
120 437
120 636
120 724
120 331
120 427
120 819
120 235
120 683
120 705
121 278
121 285
121 932
121 558
121 618
121 883
121 628
121 231
121 562
121 713
121 248
121 728
121 931
121 918
121 582
121 660
121 716
121 733
121 630
121 586
121 203
122 661
122 257
122 528
122 801
122 807
122 568
122 571
122 850
122 861
122 873
122 147
122 635
122 813
122 346
122 614
122 298
122 367
122 185
122 953
122 380
122 204
122 867
123 931
123 518
123 531
123 533
123 801
123 289
123 563
123 571
123 850
123 627
123 861
123 537
123 600
123 270
123 624
123 206
123 848
123 791
123 596
123 302
123 560
123 568
123 691
123 807
123 880
123 180
123 921
123 415
123 391
123 618
123 214
123 486
123 879
123 854
123 405
123 226
123 129
123 839
123 363
123 769
123 994
123 220
123 124
123 859
123 236
123 160
123 512
123 847
123 552
123 417
123 926
123 406
124 263
124 585
124 695
124 413
124 251
124 614
124 896
124 668
124 593
124 967
124 610
124 616
124 722
124 197
124 400
124 486
124 353
124 805
124 921
124 543
124 732
124 916
124 725
124 657
124 659
124 205
124 298
124 814
124 885
124 906
124 488
124 468
124 758
124 401
124 505
124 666
124 192
124 868
124 892
124 244
125 389
125 262
125 530
125 579
125 590
125 211
125 588
125 317
125 256
125 281
125 960
125 137
125 627
125 326
125 491
125 223
125 776
125 510
125 215
125 458
125 864
125 410
125 566
125 428
125 186
125 199
125 433
126 533
126 906
126 744
126 975
126 520
126 448
126 313
126 935
126 442
126 432
126 712
126 721
126 663
126 635
126 769
126 161
126 846
126 300
127 228
127 197
127 885
127 488
127 169
127 307
127 321
127 655
127 365
127 462
127 609
127 637
127 935
127 682
127 827
127 949
127 142
127 361
127 836
127 415
128 668
128 200
128 589
128 393
128 160
128 684
128 273
128 895
128 956
128 784
128 511
128 532
128 901
128 598
128 771
128 681
128 370
128 844
128 431
128 614
128 705
128 783
128 612
128 513
128 581
128 391
128 408
128 468
128 312
128 841
128 458
128 535
128 745
128 377
128 474
129 979
129 813
129 554
129 622
129 629
129 592
129 637
129 808
129 527
129 875
129 598
129 655
129 962
129 926
129 426
130 815
130 256
130 530
130 196
130 211
130 168
130 742
130 590
130 281
130 864
130 319
130 157
130 232
130 317
130 579
130 207
130 353
130 611
130 165
130 399
130 489
130 975
130 248
130 666
130 949
130 426
131 261
131 564
131 741
131 791
131 873
131 179
131 187
131 622
131 631
131 605
131 148
131 655
131 489
131 889
131 310
131 781
131 437
131 711
131 934
131 158
131 279
131 518
131 755
131 506
131 984
131 738
131 637
131 779
131 401
131 827
131 949
131 333
131 867
132 419
132 220
132 813
132 399
132 645
132 598
132 754
132 242
132 681
132 636
132 479
132 388
132 137
132 642
132 730
132 581
132 656
132 183
132 857
132 209
132 171
132 140
132 155
132 817
133 882
133 954
133 509
133 815
133 982
133 461
133 843
133 692
133 609
133 497
133 661
133 600
133 213
133 535
133 546
133 563
133 201
133 744
133 813
133 883
133 970
133 575
133 438
133 797
133 444
133 417
133 679
133 777
133 508
133 756
134 561
134 815
134 799
134 877
134 695
134 614
134 919
134 295
134 968
134 616
134 264
134 918
134 620
134 539
134 710
134 572
134 661
134 720
134 209
134 495
134 668
134 188
134 205
134 722
134 774
134 809
134 301
134 814
134 384
134 979
134 488
134 234
134 288
134 575
134 143
134 867
135 813
135 841
135 802
135 464
135 157
135 812
135 721
135 730
135 679
135 535
135 913
135 893
135 833
135 698
135 854
135 275
135 428
135 909
135 689
135 850
135 240
135 950
135 545
135 521
135 820
135 249
135 427
135 665
135 666
135 174
135 777
135 824
135 358
136 729
136 477
136 281
136 791
136 901
136 674
136 457
136 501
136 666
136 730
136 761
136 852
136 314
136 430
136 599
136 823
136 138
136 660
136 808
136 940
136 208
136 505
136 988
136 616
136 276
136 548
136 191
137 791
137 615
137 371
137 151
137 324
137 665
137 698
137 768
137 140
137 242
137 614
137 891
137 727
137 219
137 182
137 271
137 714
137 559
137 239
137 753
138 495
138 585
138 205
138 786
138 885
138 919
138 532
138 905
138 638
138 646
138 519
138 586
138 599
138 637
138 383
138 878
138 548
138 160
138 497
138 148
138 880
138 151
138 157
138 229
138 758
138 259
138 779
138 331
138 378
138 454
138 501
138 479
138 810
138 800
139 491
139 496
139 592
139 974
139 517
139 640
139 653
139 696
139 242
139 538
139 849
139 671
139 229
139 779
139 331
139 348
139 935
139 442
139 233
139 306
139 920
139 415
139 507
140 616
140 707
140 288
140 811
140 758
140 267
140 822
140 753
140 358
140 191
140 728
140 461
140 393
140 635
141 801
141 603
141 614
141 165
141 589
141 622
141 519
141 555
141 599
141 151
141 245
141 758
141 401
141 501
141 505
141 712
141 300
142 568
142 197
142 264
142 605
142 448
142 758
142 838
142 287
142 216
142 621
142 808
142 483
142 351
142 190
142 426
142 418
142 983
142 350
142 686
142 803
142 751
142 892
142 361
142 166
142 647
142 226
142 460
142 941
142 705
142 614
142 151
142 452
142 354
142 613
142 248
142 580
142 713
142 806
142 371
142 322
142 473
142 683
142 942
142 971
142 294
142 821
142 547
142 223
142 512
143 189
143 546
143 707
143 197
143 279
143 925
143 496
143 373
143 469
143 382
143 519
143 598
143 637
143 944
143 599
143 494
143 527
143 891
143 447
143 954
143 281
143 872
143 600
143 363
143 888
143 979
143 151
143 669
143 259
143 779
143 401
143 935
143 492
143 501
143 176
143 752
143 893
143 647
143 284
143 920
144 179
144 298
144 347
144 156
144 662
144 690
144 266
144 780
144 916
144 783
144 493
144 939
144 554
144 357
144 755
144 886
144 147
144 818
144 410
144 454
144 428
144 485
144 476
144 794
145 999
145 659
145 320
145 365
145 581
145 605
145 266
145 978
145 374
145 372
145 572
145 656
145 886
145 818
145 953
145 721
145 386
145 782
146 796
146 593
146 744
146 427
146 740
146 618
146 792
146 872
146 642
146 646
146 649
146 484
146 953
146 219
146 500
146 248
146 209
146 797
146 520
146 902
146 596
146 720
146 396
146 648
146 584
146 414
146 880
146 560
146 990
146 295
146 367
146 703
146 474
147 161
147 281
147 321
147 575
147 811
147 407
147 150
147 439
147 235
147 471
147 964
147 570
147 309
147 592
147 917
147 446
147 995
147 397
147 296
147 328
147 738
147 484
147 645
147 394
147 783
147 637
147 902
147 268
147 474
147 207
147 525
147 748
147 793
147 560
147 307
147 973
147 325
147 438
147 765
147 386
147 686
147 794
147 988
148 916
148 877
148 404
148 398
148 422
148 780
148 655
148 402
148 714
148 830
148 601
148 802
148 622
148 755
148 886
148 309
148 348
148 935
148 867
149 899
149 509
149 796
149 461
149 982
149 882
149 463
149 843
149 332
149 815
149 862
149 612
149 808
149 263
149 613
149 935
149 723
149 567
149 160
149 658
149 374
149 995
149 758
149 331
149 870
150 515
150 569
150 901
150 195
150 371
150 755
150 575
150 591
150 606
150 325
150 918
150 407
150 942
150 458
150 975
150 993
150 746
150 557
150 666
151 209
151 555
151 637
151 598
151 245
151 417
151 310
151 948
151 779
151 505
151 858
151 935
151 987
151 545
151 708
151 900
151 335
151 557
151 380
151 271
151 990
151 401
151 194
151 671
151 992
151 845
151 821
151 766
151 553
151 944
151 519
151 960
151 494
151 669
151 876
151 157
151 898
151 454
151 683
151 524
151 559
151 930
151 267
151 728
151 297
151 243
151 939
151 340
151 955
151 871
151 422
151 952
151 369
151 354
151 802
151 360
151 615
151 714
151 819
151 792
151 956
151 215
151 377
151 881
151 520
151 523
151 879
151 774
151 679
151 156
151 457
151 449
151 758
151 927
151 492
151 501
151 280
152 773
152 775
152 805
152 564
152 860
152 561
152 760
152 419
152 263
152 916
152 453
152 231
152 615
152 926
152 481
152 694
152 487
152 488
152 974
152 154
152 931
152 955
152 228
152 495
152 593
152 217
152 425
152 326
152 458
152 482
152 230
152 765
152 935
152 785
152 868
152 867
153 584
153 536
153 312
153 431
153 414
153 969
153 972
153 710
153 246
153 674
153 690
153 728
153 744
153 234
153 813
153 826
153 321
153 841
153 369
153 977
153 497
153 763
153 435
153 995
153 981
153 482
153 640
153 432
154 297
154 564
154 860
154 661
154 403
154 931
154 916
154 473
154 775
154 228
154 819
154 582
154 805
154 706
154 278
154 164
154 767
154 237
154 946
154 221
154 573
154 261
154 773
154 741
154 584
154 224
154 419
154 263
154 955
154 495
154 561
154 760
154 402
154 347
154 161
154 705
154 204
154 785
154 965
154 471
154 379
154 478
154 712
154 611
154 375
154 236
154 878
154 588
154 664
154 844
154 191
154 992
154 401
154 638
154 733
154 546
154 453
154 587
154 206
154 585
154 738
154 646
154 247
154 259
154 275
154 472
154 909
154 578
154 370
155 667
155 165
155 205
155 841
155 209
155 937
155 548
155 772
155 388
155 280
155 577
155 354
155 742
155 297
155 169
155 541
155 977
156 281
156 353
156 906
156 589
156 901
156 468
156 511
156 217
156 273
156 532
156 895
156 408
156 580
156 405
156 956
156 460
156 391
156 574
156 701
156 643
156 393
156 911
156 696
156 160
156 684
156 569
156 801
156 571
156 759
156 997
156 188
156 611
156 605
156 416
156 961
156 628
156 878
156 926
156 612
156 349
156 426
156 314
156 700
156 957
156 632
156 939
156 548
157 801
157 404
157 322
157 536
157 356
157 558
157 881
157 444
157 630
157 598
157 640
157 505
157 194
157 671
157 304
157 501
157 921
157 331
157 657
157 758
157 380
157 960
157 557
157 637
157 335
157 992
157 900
157 327
157 902
157 313
157 912
157 245
157 876
157 675
157 378
157 951
157 754
157 426
157 472
157 917
157 736
157 865
157 914
157 446
157 436
157 202
157 694
157 577
157 349
157 807
157 431
157 674
157 500
157 337
157 372
157 600
157 226
157 351
157 923
157 952
157 172
157 795
157 461
157 229
157 935
157 933
157 803
157 920
158 323
158 515
158 709
158 842
158 652
158 269
158 360
158 363
158 227
158 715
158 782
158 480
158 813
158 398
158 642
158 847
158 704
158 712
159 269
159 298
159 449
159 393
159 688
159 925
159 469
159 243
159 879
159 910
159 492
159 861
159 302
159 728
159 920
159 963
159 263
159 809
159 977
159 294
159 566
159 470
159 630
159 241
159 478
159 834
159 800
160 164
160 692
160 298
160 532
160 569
160 589
160 901
160 408
160 784
160 467
160 580
160 895
160 468
160 574
160 460
160 202
160 364
160 950
160 653
160 411
160 174
160 665
160 800
160 390
160 855
160 633
160 582
160 797
160 977
160 541
160 198
160 646
160 217
160 312
160 398
160 431
160 932
160 326
160 816
160 246
161 257
161 173
161 172
161 771
161 965
161 189
161 239
161 602
161 626
161 483
161 955
161 303
161 750
161 240
161 950
161 963
161 234
161 849
161 442
161 454
161 276
161 191
161 756
161 252
162 807
162 770
162 511
162 536
162 369
162 425
162 436
162 866
162 410
162 260
162 228
162 350
162 276
162 688
162 690
162 193
162 195
162 220
162 234
162 813
162 342
162 356
162 427
162 465
162 497
162 716
162 254
162 609
162 838
162 949
162 351
162 395
163 805
163 651
163 659
163 764
163 291
163 234
163 422
163 490
163 544
163 485
163 276
163 560
163 406
164 261
164 773
164 573
164 860
164 661
164 916
164 780
164 338
164 407
164 415
164 419
164 453
164 224
164 228
164 495
164 627
164 656
164 576
164 703
164 280
164 787
165 528
165 593
165 668
165 320
165 251
165 200
165 279
165 616
165 685
165 349
165 295
165 651
165 347
165 896
165 809
165 567
165 449
165 291
165 885
165 504
165 644
165 298
165 615
165 820
165 197
165 626
165 205
165 475
165 967
165 770
165 659
165 919
165 285
165 613
165 610
165 188
165 979
165 301
165 226
165 968
165 799
165 413
165 904
165 945
165 764
165 762
165 491
165 923
165 795
165 264
165 412
165 788
165 466
165 416
165 303
165 621
165 624
165 740
165 697
165 386
165 536
165 875
165 240
165 199
165 294
165 797
165 272
165 629
165 730
165 375
165 958
165 843
165 859
165 288
165 690
165 388
165 698
165 729
165 373
165 469
165 639
165 711
165 186
165 857
165 707
165 757
165 786
165 906
165 195
165 575
165 606
165 494
166 661
166 215
166 606
166 939
166 542
166 926
166 547
166 583
166 863
166 404
166 686
167 221
167 843
167 518
167 744
167 638
167 544
167 924
167 840
167 727
167 461
167 309
167 829
167 324
167 623
167 523
168 256
168 262
168 530
168 588
168 196
168 893
168 818
168 731
168 555
168 642
168 207
168 211
168 502
168 668
168 986
168 470
168 223
169 530
169 528
169 774
169 536
169 431
169 844
169 688
169 379
169 465
169 862
169 371
169 425
169 747
169 337
169 201
169 288
169 711
169 369
169 356
169 481
169 841
169 436
169 905
169 392
169 662
169 977
169 823
169 187
169 743
169 215
169 925
169 177
169 307
169 410
169 607
169 999
169 455
169 648
169 733
169 260
169 504
169 685
169 604
169 500
169 737
169 828
169 840
169 710
169 251
169 997
169 297
169 569
169 357
169 730
169 690
169 193
169 220
169 744
169 312
169 826
169 321
169 342
169 398
169 427
169 738
169 259
169 501
169 926
169 483
169 232
169 246
170 179
170 778
170 904
170 187
170 255
170 658
170 328
170 245
170 386
170 548
170 852
170 314
170 276
170 298
170 786
170 607
170 566
170 181
170 171
170 496
170 368
170 510
170 507
171 579
171 744
171 260
171 490
171 469
171 346
171 632
171 387
171 488
171 538
171 316
171 843
171 693
171 763
171 995
171 835
171 293
172 402
172 771
172 965
172 222
172 189
172 239
172 173
172 257
172 840
172 481
172 888
172 747
172 750
172 950
172 952
172 801
172 413
172 897
172 407
172 921
173 257
173 771
173 965
173 222
173 750
173 198
173 903
173 637
173 305
173 240
173 950
173 952
173 571
173 435
173 898
173 361
173 233
173 252
173 834
173 406
174 707
174 301
174 514
174 501
174 376
174 315
174 654
174 387
174 943
174 416
174 428
174 409
174 377
174 355
174 338
174 358
174 855
174 824
174 724
174 893
174 363
174 868
174 472
174 180
174 947
174 913
174 660
174 933
174 725
174 949
174 456
174 455
174 698
174 241
174 305
174 941
174 258
174 326
174 349
174 757
174 513
174 419
174 951
174 522
174 848
174 809
174 467
174 741
174 228
174 287
174 551
174 568
174 920
174 702
174 510
174 984
174 997
174 592
174 673
174 412
174 797
174 754
174 777
174 838
174 329
174 636
174 178
175 842
175 585
175 593
175 659
175 685
175 786
175 567
175 820
175 626
175 264
175 226
175 885
175 384
175 504
175 667
175 971
175 695
175 295
175 737
175 612
175 466
175 884
175 569
175 940
175 874
175 208
175 225
175 326
175 519
175 512
175 730
175 211
175 366
175 503
175 915
175 179
175 197
175 774
175 809
175 298
175 301
175 814
175 906
175 919
175 967
175 488
175 255
175 542
175 450
175 636
175 727
176 263
176 332
176 774
176 744
176 265
176 485
176 734
176 450
176 455
176 679
176 283
176 376
176 783
176 386
176 275
176 958
176 712
176 929
176 915
176 785
176 730
176 472
176 832
176 181
176 305
176 241
176 943
176 428
176 704
176 354
176 660
176 736
176 542
176 838
176 214
176 528
176 321
176 867
176 430
176 917
176 467
176 756
176 479
176 986
176 650
176 786
176 201
176 469
176 572
176 672
176 285
176 190
176 916
176 367
176 664
176 698
176 721
176 761
176 777
176 788
176 824
176 329
176 358
177 551
177 285
177 684
177 536
177 662
177 688
177 481
177 399
177 925
177 392
177 813
177 871
177 202
177 809
177 438
177 498
177 245
177 376
177 900
177 689
177 814
177 364
177 690
177 187
177 193
177 195
177 201
177 744
177 234
177 826
177 369
177 884
177 398
177 427
177 465
177 497
177 199
178 551
178 967
178 393
178 662
178 690
178 570
178 927
178 800
178 539
178 522
178 859
178 991
178 806
178 225
178 607
178 249
178 215
178 305
178 448
178 395
178 701
178 696
178 536
178 843
178 894
178 965
178 179
178 590
178 871
178 557
178 988
179 518
179 873
179 614
179 626
179 644
179 659
179 404
179 648
179 616
179 707
179 384
179 264
179 809
179 896
179 770
179 491
179 820
179 778
179 449
179 979
179 685
179 577
179 667
179 814
179 475
179 968
179 279
179 762
179 320
179 717
179 774
179 347
179 341
179 270
179 878
179 910
179 606
179 510
179 297
179 705
179 901
179 752
179 691
179 673
179 559
179 400
179 311
179 682
179 197
179 757
179 285
179 301
179 877
179 885
179 919
179 488
179 208
179 516
179 331
179 395
180 546
180 919
180 321
180 575
180 738
180 875
180 665
180 666
180 356
180 344
180 773
180 224
180 689
180 327
180 273
180 698
180 721
180 730
180 736
180 241
180 754
180 761
180 283
180 854
180 949
180 485
180 429
181 475
181 743
181 519
181 259
181 935
181 501
181 289
181 959
181 869
181 698
181 704
181 721
181 745
181 241
181 761
181 777
181 832
181 358
181 386
181 933
181 949
182 584
182 532
182 408
182 897
182 606
182 325
182 286
182 432
182 195
182 529
182 322
182 324
182 827
182 838
182 199
182 246
183 419
183 613
183 967
183 373
183 864
183 872
183 646
183 781
183 726
183 718
183 708
183 625
183 511
183 928
183 262
183 953
183 248
183 331
183 479
183 794
183 988
184 588
184 627
184 626
184 644
184 188
184 667
184 814
184 615
184 264
184 967
184 659
184 963
184 488
184 685
184 205
184 786
184 668
184 764
184 404
184 504
184 567
184 614
184 928
184 739
184 538
184 840
184 609
184 602
184 240
184 566
184 454
184 533
184 744
184 762
184 906
184 919
184 413
184 497
184 812
184 788
185 718
185 877
185 967
185 784
185 690
185 847
185 630
185 682
185 187
185 556
185 256
185 829
185 324
185 510
186 684
186 826
186 646
186 758
186 803
186 187
186 250
186 705
187 213
187 297
187 674
187 688
187 687
187 193
187 979
187 200
187 815
187 821
187 208
187 744
187 234
187 356
187 427
187 730
187 472
187 735
188 546
188 644
188 717
188 347
188 585
188 853
188 236
188 343
188 715
188 974
188 556
188 722
188 809
188 301
188 814
188 885
188 967
188 936
188 826
188 483
189 257
189 965
189 222
189 750
189 240
189 952
189 950
189 561
189 673
189 442
189 206
189 264
189 809
189 413
189 598
189 686
189 595
190 661
190 221
190 477
190 786
190 511
190 738
190 818
190 835
190 229
190 758
190 779
190 442
190 454
190 926
190 225
190 892
190 292
191 533
191 744
191 606
191 254
191 552
191 494
191 682
191 761
191 635
191 523
191 867
191 731
191 715
191 909
191 272
191 311
191 759
191 782
191 300
191 513
191 333
191 645
191 872
191 420
191 434
191 251
191 276
191 798
191 268
191 707
191 898
191 756
191 395
191 406
191 922
192 848
192 205
192 264
192 919
192 475
192 405
192 469
192 575
192 219
192 348
192 454
192 698
192 289
192 875
192 540
192 951
192 721
192 754
192 358
192 867
193 533
193 690
193 823
193 215
193 342
193 208
193 884
193 431
193 989
193 998
193 711
193 862
193 844
193 379
193 337
193 421
193 312
193 371
193 747
193 220
193 825
193 826
193 961
193 688
193 465
193 866
193 743
193 957
193 673
193 234
193 565
193 845
193 663
193 658
193 552
193 706
193 607
193 221
193 455
193 857
193 974
193 739
193 439
193 525
193 308
193 799
193 549
193 797
193 919
193 286
193 882
193 508
193 744
193 321
193 356
193 925
193 427
193 977
193 964
193 598
193 902
193 417
193 938
193 238
193 794
193 299
194 589
194 356
194 910
194 586
194 598
194 676
194 430
194 758
194 259
194 401
194 927
194 935
194 442
194 454
194 485
194 523
195 899
195 568
195 475
195 690
195 823
195 884
195 215
195 601
195 961
195 813
195 744
195 342
195 312
195 673
195 688
195 220
195 925
195 989
195 234
195 375
195 536
195 957
195 940
195 379
195 321
195 425
195 662
195 497
195 398
195 411
195 288
195 711
195 371
195 674
195 434
195 558
195 865
195 528
195 404
195 574
195 672
195 306
195 513
195 833
195 588
195 227
195 231
195 907
195 846
195 396
195 304
195 670
195 336
195 814
195 410
195 262
195 826
195 356
195 326
195 975
195 953
195 432
195 223
195 370
196 530
196 281
196 590
196 611
196 502
196 265
196 642
196 810
196 455
196 430
196 579
196 211
196 979
196 505
196 730
197 551
197 616
197 449
197 279
197 320
197 603
197 226
197 384
197 200
197 291
197 488
197 504
197 610
197 614
197 980
197 877
197 668
197 979
197 567
197 923
197 795
197 814
197 659
197 919
197 799
197 413
197 820
197 297
197 571
197 598
197 315
197 683
197 432
197 620
197 238
197 485
197 417
197 751
197 884
197 364
197 663
197 775
197 745
197 415
197 831
197 205
197 718
197 762
197 786
197 809
197 301
197 475
197 744
197 978
197 869
197 259
197 777
197 933
197 513
198 600
198 809
198 569
198 925
198 918
198 974
198 519
198 640
198 229
198 779
198 812
198 401
198 454
198 492
198 761
198 922
199 627
199 398
199 346
199 382
199 445
199 730
199 777
199 934
199 748
199 794
199 810
199 204
199 689
199 672
199 705
199 396
199 316
199 790
199 451
199 447
199 311
199 395
199 290
199 731
199 433
199 415
199 299
199 732
199 837
199 782
199 920
199 710
199 375
199 639
199 931
199 417
199 279
199 770
199 502
199 657
199 625
199 923
199 257
199 676
199 295
199 600
199 610
199 899
199 259
199 745
199 366
200 301
200 279
200 298
200 475
200 830
200 814
200 490
200 407
200 890
200 673
200 543
200 770
200 264
200 809
200 877
200 967
200 488
200 883
200 716
200 646
200 765
200 523
201 563
201 644
201 774
201 690
201 392
201 608
201 342
201 793
201 375
201 307
201 998
201 431
201 536
201 305
201 344
201 833
201 677
201 722
201 984
201 610
201 461
201 699
201 728
201 744
201 288
201 813
201 826
201 841
201 369
201 884
201 398
201 427
201 977
201 975
201 555
201 960
201 454
201 505
201 354
201 727
201 787
202 784
202 532
202 569
202 589
202 901
202 391
202 408
202 684
202 362
202 441
202 460
202 217
202 427
202 961
202 998
202 840
202 669
202 324
202 535
202 704
202 293
202 983
202 274
202 360
203 611
203 585
203 651
203 328
203 390
203 995
203 981
203 549
203 523
203 527
203 831
203 245
203 874
203 731
203 233
203 756
203 366
203 395
203 920
203 244
204 916
204 882
204 279
204 967
204 458
204 935
204 454
204 666
204 933
204 513
204 475
204 323
204 828
204 267
204 377
204 966
204 223
204 233
204 790
204 300
204 834
204 333
204 920
204 225
205 449
205 291
205 264
205 906
205 648
205 279
205 795
205 285
205 830
205 475
205 567
205 896
205 488
205 651
205 799
205 963
205 774
205 613
205 718
205 644
205 877
205 919
205 979
205 504
205 347
205 295
205 904
205 685
205 827
205 325
205 579
205 548
205 331
205 637
205 476
205 444
205 330
205 997
205 617
205 856
205 507
205 389
205 303
205 562
205 858
205 934
205 570
205 770
205 301
205 814
205 885
205 967
205 655
205 675
205 474
206 228
206 257
206 262
206 533
206 282
206 801
206 568
206 571
206 627
206 366
206 475
206 488
206 744
206 998
206 435
206 669
206 331
206 790
206 284
206 412
207 389
207 579
207 587
207 211
207 530
207 256
207 999
207 502
207 742
207 262
207 590
207 611
207 353
207 372
207 588
207 677
207 311
207 622
207 923
207 465
207 943
207 248
207 730
207 323
207 430
207 335
207 667
207 809
207 234
207 905
207 209
207 378
207 329
207 578
208 237
208 626
208 481
208 674
208 371
208 486
208 497
208 688
208 743
208 379
208 989
208 711
208 425
208 536
208 473
208 283
208 983
208 340
208 944
208 252
208 612
208 254
208 652
208 744
208 288
208 307
208 312
208 321
208 841
208 342
208 369
208 884
208 398
208 995
208 366
209 585
209 626
209 784
209 701
209 407
209 464
209 849
209 341
209 864
209 953
209 462
209 247
209 641
209 781
209 792
209 765
209 960
209 330
209 280
209 984
209 348
209 349
209 847
209 760
209 399
209 851
209 482
209 586
209 640
209 779
209 794
209 290
209 539
210 579
210 568
210 301
210 408
210 467
210 966
210 973
210 720
210 283
210 990
210 702
210 550
210 359
210 601
210 699
210 712
210 329
210 290
211 262
211 530
211 534
211 281
211 579
211 587
211 590
211 742
211 588
211 502
211 256
211 372
211 999
211 389
211 727
211 841
211 286
211 269
211 318
211 376
211 521
211 550
211 214
211 995
211 282
211 359
211 839
211 609
211 734
211 578
212 796
212 270
212 289
212 593
212 349
212 904
212 784
212 468
212 966
212 722
212 651
212 298
212 550
212 359
212 441
212 371
212 592
212 645
212 253
212 779
212 867
213 323
213 515
213 269
213 842
213 652
213 254
213 564
213 931
213 664
213 639
213 563
213 737
213 234
213 884
213 974
213 519
213 838
213 521
213 284
214 419
214 264
214 488
214 371
214 341
214 519
214 553
214 535
214 698
214 752
214 241
214 754
214 761
214 329
214 358
214 440
215 579
215 601
215 690
215 379
215 866
215 392
215 728
215 399
215 497
215 481
215 957
215 422
215 369
215 825
215 536
215 711
215 793
215 744
215 371
215 989
215 436
215 841
215 743
215 905
215 421
215 245
215 906
215 822
215 334
215 491
215 318
215 346
215 259
215 386
215 587
215 222
215 790
215 706
215 722
215 353
215 897
215 752
215 234
215 813
215 312
215 826
215 321
215 925
215 465
215 430
215 975
215 576
215 938
215 492
215 712
215 761
215 351
215 452
216 931
216 885
216 384
216 569
216 427
216 308
216 902
216 933
216 926
216 418
216 547
216 686
216 672
217 302
217 626
217 491
217 589
217 901
217 405
217 408
217 684
217 460
217 468
217 391
217 580
217 511
217 643
217 569
217 895
217 956
217 532
217 696
217 911
217 701
217 856
217 393
217 827
217 261
217 885
217 522
217 777
217 529
217 413
217 834
217 641
217 541
217 766
217 788
217 423
217 854
217 818
217 339
217 389
217 705
217 676
217 607
217 957
217 424
217 341
217 470
217 898
217 938
217 329
217 485
217 983
217 415
218 946
218 228
218 534
218 301
218 625
218 260
218 693
218 716
218 251
218 274
218 493
218 498
218 299
218 434
218 763
218 575
218 435
218 464
218 641
218 698
219 807
219 468
219 905
219 977
219 497
219 325
219 797
219 864
219 642
219 646
219 953
219 785
219 254
219 576
219 259
219 492
219 686
219 920
220 569
220 408
220 422
220 688
220 434
220 431
220 601
220 743
220 608
220 356
220 905
220 436
220 421
220 673
220 497
220 841
220 259
220 931
220 955
220 715
220 391
220 986
220 401
220 553
220 828
220 237
220 779
220 649
220 744
220 234
220 793
220 312
220 925
220 465
220 864
220 645
220 599
220 812
220 681
220 523
221 263
221 805
221 561
221 564
221 582
221 419
221 228
221 402
221 860
221 261
221 825
221 657
221 577
221 477
221 815
221 820
221 877
221 864
221 549
221 951
221 761
221 548
222 278
222 257
222 239
222 750
222 965
222 298
222 699
222 365
222 240
222 950
222 952
222 296
222 995
222 410
222 761
222 705
222 396
223 237
223 770
223 298
223 404
223 322
223 326
223 811
223 555
223 559
223 505
223 523
223 731
223 300
223 748
223 672
223 794
223 366
223 368
223 459
223 333
223 710
223 837
223 474
223 360
223 272
223 385
223 510
223 705
223 670
223 412
223 914
223 612
223 978
223 716
223 643
223 346
223 434
223 869
223 791
223 448
223 358
223 595
223 744
223 425
223 284
223 311
223 522
224 261
224 775
224 805
224 564
224 419
224 453
224 767
224 495
224 573
224 402
224 706
224 473
224 860
224 228
224 263
224 819
224 773
224 237
224 297
224 278
224 955
224 582
224 403
224 916
224 584
224 984
224 304
224 506
224 675
224 619
224 605
224 537
224 910
224 622
224 818
224 688
224 494
224 339
224 839
224 328
224 882
224 336
224 862
224 349
224 867
224 474
225 281
225 627
225 786
225 877
225 574
225 728
225 427
225 881
225 401
225 838
225 715
225 578
225 370
225 735
225 675
225 343
225 523
225 849
225 649
225 639
225 930
225 842
225 736
225 388
225 912
226 228
226 616
226 644
226 659
226 718
226 722
226 264
226 786
226 809
226 301
226 814
226 906
226 967
226 979
226 488
226 631
226 464
226 995
226 864
226 646
226 649
226 553
226 313
226 331
226 790
227 814
227 608
227 369
227 977
227 631
227 484
227 777
227 478
227 548
227 244
228 805
228 561
228 573
228 584
228 860
228 661
228 419
228 403
228 819
228 775
228 706
228 955
228 237
228 760
228 637
228 982
228 733
228 852
228 807
228 291
228 251
228 750
228 873
228 312
228 862
228 369
228 618
228 894
228 872
228 676
228 233
228 920
229 302
229 264
229 555
229 637
229 671
229 336
229 845
229 875
229 417
229 944
229 524
229 549
229 758
229 494
229 876
229 609
229 902
229 545
229 553
229 633
229 597
229 586
229 259
229 912
229 960
229 599
229 948
229 990
229 380
229 804
229 331
229 900
229 598
229 517
229 938
229 889
229 927
229 304
229 930
229 348
229 858
229 290
229 975
229 961
229 460
229 532
229 770
229 774
229 422
229 791
229 463
229 413
229 254
229 765
229 903
229 279
229 901
229 863
229 823
229 756
229 556
229 238
229 306
229 716
229 301
229 760
229 784
229 414
229 445
229 299
229 284
229 401
229 698
229 782
230 564
230 906
230 321
230 755
230 953
230 981
230 620
230 247
230 746
230 448
230 713
230 482
230 726
230 341
230 248
230 894
230 311
230 774
230 950
230 437
230 952
230 543
230 749
230 517
231 743
231 312
231 465
231 897
231 268
231 869
231 372
231 790
231 618
231 883
231 628
231 890
231 699
231 253
231 366
232 353
232 518
232 264
232 877
232 458
232 566
232 348
232 523
232 931
232 260
232 779
232 932
232 492
232 284
232 368
232 406
232 920
233 877
233 743
233 755
233 424
233 981
233 746
233 698
233 777
233 250
233 705
233 440
233 429
233 366
233 922
233 252
233 710
233 732
233 433
233 863
233 689
233 790
233 810
233 836
233 526
233 396
233 837
233 510
233 385
233 920
233 727
233 670
233 290
233 284
233 858
233 276
233 263
233 401
233 657
233 487
233 862
233 500
233 722
233 864
233 546
233 939
233 735
233 362
233 592
233 377
233 531
233 721
233 948
233 329
233 757
233 613
233 867
233 395
233 406
233 800
233 507
234 762
234 298
234 536
234 743
234 744
234 601
234 884
234 998
234 823
234 793
234 392
234 356
234 866
234 925
234 465
234 379
234 342
234 844
234 687
234 436
234 813
234 940
234 608
234 307
234 977
234 486
234 826
234 690
234 961
234 369
234 711
234 905
234 841
234 862
234 399
234 481
234 421
234 989
234 662
234 398
234 944
234 974
234 606
234 794
234 590
234 677
234 552
234 830
234 483
234 579
234 537
234 795
234 495
234 941
234 906
234 531
234 508
234 846
234 816
234 716
234 257
234 820
234 824
234 317
234 581
234 370
234 418
234 837
234 371
234 835
234 761
234 547
234 395
234 988
235 744
235 570
235 575
235 634
235 964
235 975
235 464
235 995
235 646
235 482
235 254
235 549
235 253
235 348
235 730
235 920
236 613
236 877
236 979
236 321
236 605
236 558
236 908
236 566
236 699
236 444
236 576
236 592
236 899
236 575
236 348
236 358
237 261
237 773
237 805
237 561
237 564
237 419
237 955
237 477
237 478
237 961
237 424
237 907
237 502
237 786
237 744
237 431
237 591
237 367
237 666
237 913
237 352
237 452
237 507
238 264
238 342
238 975
238 380
238 777
238 341
238 519
238 636
238 527
239 297
239 257
239 965
239 750
239 623
239 795
239 893
239 284
239 764
239 950
239 497
239 636
239 756
239 244
240 257
240 771
240 950
240 750
240 610
240 496
240 888
240 864
240 941
240 840
240 916
240 906
240 413
240 789
240 869
240 666
240 727
240 290
240 988
241 281
241 309
241 535
241 666
241 698
241 736
241 542
241 868
241 305
241 293
241 719
241 947
241 854
241 665
241 634
241 933
241 949
241 725
241 694
241 450
241 855
241 929
241 832
241 996
241 679
241 363
241 761
241 724
241 824
241 466
241 428
241 777
241 734
241 485
241 455
241 943
241 386
241 903
241 745
241 752
241 697
241 470
241 570
241 586
241 366
241 702
241 946
241 248
241 437
241 805
241 871
241 511
241 605
241 932
241 270
241 583
241 424
241 743
241 268
241 344
241 948
241 817
241 313
241 619
241 715
241 766
241 917
241 362
241 728
241 638
241 862
241 754
241 838
241 354
241 508
242 688
242 690
242 743
242 884
242 763
242 545
242 900
242 406
242 895
242 262
243 587
243 301
243 814
243 813
243 802
243 716
243 986
243 645
243 470
243 673
243 316
243 880
243 378
243 535
243 768
243 406
243 292
244 848
244 778
244 606
244 738
244 900
244 938
244 731
244 578
244 988
244 800
244 776
244 878
244 595
244 806
244 828
244 556
244 991
244 753
244 512
244 653
244 507
244 292
244 246
244 859
244 258
244 565
244 249
244 952
244 767
244 860
244 435
244 444
244 455
244 553
244 347
244 672
244 794
244 511
244 782
244 260
244 466
244 588
244 324
244 365
245 477
245 589
245 942
245 519
245 555
245 669
245 671
245 990
245 267
245 675
245 524
245 310
245 663
245 572
245 784
245 700
245 783
245 506
245 613
245 840
245 444
245 416
245 452
245 608
245 803
245 666
245 812
245 348
245 378
245 927
245 284
246 661
246 347
246 309
246 446
246 548
246 756
246 800
246 595
246 370
246 735
246 776
246 292
246 753
246 941
246 818
246 887
246 711
246 299
246 771
246 592
247 967
247 391
247 744
247 575
247 341
247 864
247 642
247 646
247 953
247 462
247 749
247 882
247 248
247 254
247 704
247 933
247 287
248 707
248 797
248 864
248 953
248 484
248 642
248 400
248 448
248 981
248 340
248 370
248 516
248 995
248 289
248 794
248 966
248 891
248 355
248 887
248 427
248 765
248 566
248 676
248 758
248 829
248 934
248 635
248 523
248 909
249 807
249 593
249 680
249 770
249 896
249 911
249 497
249 755
249 818
249 366
249 412
249 578
249 988
249 735
249 840
250 563
250 536
250 698
250 426
250 983
250 574
250 998
250 553
250 756
250 306
250 578
251 561
251 582
251 419
251 577
251 593
251 603
251 659
251 718
251 757
251 809
251 298
251 301
251 830
251 877
251 967
251 488
251 811
251 964
251 944
251 492
251 704
251 736
251 788
251 751
251 794
251 406
252 263
252 571
252 298
252 481
252 628
252 485
252 523
252 756
252 306
252 907
252 759
252 914
252 277
252 440
252 319
252 715
252 311
252 672
252 731
252 433
252 810
252 366
252 468
252 812
252 606
252 865
252 655
252 675
252 503
252 824
252 332
252 791
252 872
252 491
252 284
252 333
252 909
252 452
252 512
253 279
253 570
253 811
253 553
253 637
253 669
253 758
253 478
253 497
253 900
253 401
253 682
253 892
254 480
254 488
254 321
254 841
254 371
254 886
254 575
254 514
254 864
254 646
254 462
254 484
254 642
254 641
254 872
254 849
254 746
254 620
254 792
254 448
254 981
254 520
254 649
254 255
254 257
254 344
254 374
254 567
254 753
254 539
254 523
254 985
254 483
254 268
254 451
254 406
254 388
254 937
254 387
254 824
255 664
255 342
255 399
255 798
255 622
255 886
255 554
255 625
255 365
255 496
255 266
255 373
255 581
255 493
255 543
255 490
255 951
255 624
255 944
255 260
255 810
255 565
256 534
256 502
256 742
256 530
256 999
256 992
256 362
256 933
256 543
256 614
256 281
256 587
256 590
256 279
256 802
256 618
256 267
256 331
256 428
256 621
256 443
256 284
256 300
256 595
257 750
257 950
257 965
257 404
257 823
257 859
257 556
257 771
257 952
257 770
257 425
257 346
257 259
257 358
257 412
258 744
258 481
258 978
258 658
258 890
258 370
258 653
258 398
258 873
258 440
258 647
258 396
258 988
258 498
259 737
259 569
259 589
259 393
259 325
259 420
259 586
259 637
259 758
259 960
259 889
259 505
259 657
259 766
259 944
259 454
259 633
259 335
259 267
259 330
259 671
259 336
259 683
259 331
259 845
259 898
259 948
259 304
259 935
259 930
259 938
259 821
259 517
259 708
259 992
259 769
259 927
259 997
259 490
259 667
259 434
259 654
259 261
259 963
259 616
259 270
259 991
259 424
259 937
259 478
259 376
259 985
259 444
259 363
259 903
259 818
259 298
259 701
259 522
259 441
259 348
259 921
259 736
259 933
259 474
260 263
260 965
260 862
260 604
260 984
260 763
260 959
260 819
260 751
260 265
260 349
260 593
260 894
260 430
260 716
260 346
260 446
260 935
260 621
260 739
261 573
261 819
261 775
261 402
261 760
261 946
261 634
261 393
261 426
261 407
261 263
261 297
261 564
261 582
261 860
261 419
261 495
261 668
261 722
261 369
261 309
261 367
261 642
261 420
261 868
261 513
261 523
261 306
261 834
262 317
262 389
262 588
262 372
262 534
262 512
262 772
262 741
262 530
262 590
262 468
262 677
262 454
262 698
262 832
263 706
263 767
263 573
263 931
263 955
263 661
263 537
263 278
263 805
263 561
263 564
263 928
263 495
263 285
263 696
263 550
263 440
264 644
264 722
264 919
264 659
264 896
264 585
264 488
264 295
264 799
264 680
264 301
264 906
264 449
264 971
264 945
264 980
264 685
264 885
264 603
264 786
264 626
264 615
264 757
264 979
264 475
264 737
264 577
264 968
264 982
264 575
264 319
264 351
264 905
264 930
264 271
264 790
264 700
264 703
264 688
264 844
264 768
264 503
264 635
264 879
264 852
264 776
264 338
264 809
264 349
264 413
264 826
264 977
264 978
264 309
264 918
264 953
264 545
265 477
265 593
265 830
265 425
265 501
265 535
265 666
265 698
265 721
265 832
265 329
265 386
265 933
265 949
266 612
266 625
266 755
266 886
266 617
266 631
266 866
266 538
266 385
266 878
266 337
266 993
266 677
266 365
266 506
266 727
267 536
267 780
267 630
267 519
267 555
267 586
267 812
267 466
267 732
267 886
267 377
267 779
267 401
267 698
267 703
267 867
268 718
268 405
268 684
268 674
268 427
268 961
268 365
268 516
268 383
268 740
268 628
268 883
268 890
268 629
268 538
268 616
268 850
268 367
268 500
268 873
268 592
268 323
268 781
268 354
268 577
268 984
268 835
268 932
268 618
268 469
268 606
268 665
268 735
269 323
269 515
269 842
269 652
269 709
269 664
269 639
269 480
269 610
269 599
269 961
269 948
269 729
269 860
269 579
269 684
269 608
269 464
269 380
269 794
270 419
270 453
270 518
270 873
270 568
270 551
270 861
270 807
270 880
270 850
270 932
270 307
270 298
270 813
270 393
270 866
270 482
270 791
270 801
270 546
270 289
270 571
270 627
270 532
270 690
270 743
270 365
270 555
270 736
271 419
271 830
271 977
271 604
271 484
271 599
271 609
271 671
271 761
271 348
271 401
271 927
271 442
271 647
271 426
272 826
272 555
272 758
272 927
272 527
272 412
272 347
272 275
272 448
272 794
272 284
272 311
272 867
272 406
272 452
273 372
273 967
273 405
273 684
273 511
273 467
273 391
273 904
273 999
273 948
273 284
273 532
273 589
273 911
273 696
273 536
273 841
273 367
273 586
273 599
273 854
274 551
274 659
274 413
274 321
274 977
274 514
274 521
274 968
274 689
274 369
274 810
274 406
275 627
275 614
275 774
275 820
275 288
275 325
275 457
275 976
275 712
275 574
275 386
276 950
276 718
276 475
276 312
276 505
276 544
276 721
276 647
276 739
276 794
276 689
276 897
276 952
276 818
276 548
276 800
277 564
277 509
277 302
277 413
277 869
277 407
277 640
277 875
277 704
277 754
277 455
277 523
277 705
277 731
277 782
277 834
277 867
277 366
277 406
277 920
277 922
278 773
278 453
278 419
278 564
278 767
278 661
278 916
278 748
278 958
278 577
278 307
278 573
278 571
278 301
278 883
278 458
278 454
278 361
279 648
279 659
279 707
279 718
279 722
279 616
279 425
279 466
279 452
279 394
279 863
279 285
279 295
279 814
279 347
279 877
279 906
279 413
279 967
279 979
279 536
279 841
279 390
279 541
279 348
280 491
280 655
280 755
280 831
280 438
280 953
280 736
280 868
280 949
280 485
280 543
280 369
280 671
280 889
280 905
280 817
280 636
280 988
281 965
281 534
281 389
281 590
281 353
281 530
281 317
281 587
281 579
281 611
281 588
281 742
281 955
281 430
281 950
281 471
281 669
281 485
281 778
281 491
281 720
281 436
281 721
281 783
282 709
282 518
282 533
282 861
282 594
282 807
282 319
282 332
282 801
282 546
282 563
282 568
282 850
282 627
282 601
282 925
282 457
282 669
282 386
282 409
282 705
282 311
282 452
283 722
283 890
283 566
283 553
283 442
283 535
283 734
283 761
283 777
283 730
283 335
283 830
283 635
283 928
283 798
283 638
283 528
283 738
283 475
283 968
283 329
283 358
283 756
283 406
284 771
284 877
284 919
284 391
284 542
284 754
284 354
284 523
284 727
284 756
284 782
284 837
284 318
284 510
284 920
284 527
284 290
284 705
284 670
284 395
284 689
284 333
284 836
284 810
284 702
284 414
284 299
284 366
284 887
284 759
284 909
284 433
284 429
284 526
284 452
284 914
284 360
284 406
284 907
284 801
284 465
284 873
284 426
284 350
284 783
284 977
284 467
284 386
284 365
284 356
284 305
284 338
284 632
284 906
284 921
284 985
284 516
284 628
284 825
284 881
284 712
284 739
284 923
284 390
284 878
284 753
285 614
285 651
285 659
285 707
285 718
285 644
285 771
285 434
285 526
285 538
285 809
285 301
285 347
285 349
285 919
285 967
285 886
285 606
285 939
285 779
285 401
285 788
285 507
286 530
286 580
286 744
286 545
286 565
286 449
286 662
286 627
286 382
286 937
286 324
286 542
286 485
286 914
287 317
287 627
287 567
287 757
287 774
287 979
287 427
287 465
287 628
287 811
287 975
287 484
287 926
287 473
287 669
287 547
287 663
288 644
288 569
288 405
288 536
288 674
288 743
288 744
288 342
288 662
288 728
288 977
288 431
288 844
288 866
288 711
288 369
288 841
288 312
288 379
288 825
288 542
288 510
288 634
288 885
288 712
288 889
288 909
288 415
288 895
288 477
288 327
288 665
288 757
288 813
288 826
288 321
288 356
288 884
288 427
288 465
288 348
288 378
288 300
289 518
289 533
289 546
289 627
289 870
289 776
289 551
289 568
289 571
289 850
289 369
289 669
289 927
289 544
289 535
289 736
289 485
289 510
290 931
290 488
290 784
290 687
290 606
290 942
290 703
290 354
290 485
290 926
290 790
290 794
290 639
290 587
290 322
290 380
290 842
290 550
290 633
290 749
290 311
290 867
290 366
290 406
290 452
291 593
291 615
291 644
291 770
291 786
291 452
291 401
291 636
291 955
291 301
291 814
291 820
291 347
291 877
291 575
291 407
291 514
291 649
291 418
291 339
291 920
292 809
292 391
292 792
292 698
292 736
292 526
292 756
292 816
292 800
292 639
292 770
292 929
292 370
292 988
292 735
292 507
293 564
293 531
293 560
293 457
293 494
293 535
293 542
293 704
293 712
293 736
293 761
293 777
293 359
293 471
293 369
293 808
293 635
293 838
293 868
293 933
293 428
293 485
293 523
293 922
293 522
294 495
294 873
294 684
294 744
294 645
294 572
294 700
294 879
294 839
294 444
294 835
294 605
294 807
294 888
294 611
294 391
294 953
294 313
294 360
294 724
294 472
294 576
294 847
294 470
294 394
294 827
294 498
295 954
295 801
295 616
295 668
295 384
295 680
295 613
295 919
295 795
295 685
295 577
295 413
295 404
295 737
295 972
295 446
295 505
295 318
295 343
295 729
295 337
295 738
295 630
295 841
295 604
295 298
295 967
295 465
295 482
295 576
296 775
296 801
296 861
296 356
296 427
296 575
296 592
296 606
296 738
296 328
296 591
296 344
296 397
296 918
296 811
296 570
296 959
296 458
296 917
296 439
296 831
296 851
296 424
296 964
296 976
296 857
296 975
296 902
296 883
296 641
296 408
296 500
296 307
296 997
296 947
296 728
296 901
296 712
296 933
296 495
296 878
296 670
296 707
296 561
296 923
296 576
296 633
296 457
296 995
296 839
296 812
296 543
296 368
297 775
297 819
297 916
297 767
297 564
297 531
297 344
297 561
297 661
297 419
297 770
297 413
297 465
297 738
297 390
297 341
297 953
297 960
297 752
297 868
297 522
297 988
298 372
298 585
298 644
298 668
298 685
298 718
298 795
298 923
298 613
298 980
298 967
298 971
298 904
298 979
298 963
298 616
298 577
298 778
298 615
298 919
298 770
298 737
298 603
298 799
298 830
298 862
298 437
298 701
298 629
298 761
298 748
298 515
298 500
298 839
298 633
298 607
298 563
298 406
298 580
298 921
298 805
298 329
298 453
298 301
298 877
298 885
298 413
298 488
298 656
298 501
298 678
299 530
299 615
299 809
299 962
299 637
299 666
299 731
299 668
299 968
299 816
299 834
299 867
299 360
299 909
300 502
300 312
300 925
300 592
300 448
300 675
300 698
300 523
300 756
300 794
300 689
300 748
300 834
300 670
300 412
300 816
300 316
300 396
300 442
300 819
300 814
300 432
300 394
300 450
300 734
300 327
300 647
300 764
300 909
300 920
300 433
300 452
301 848
301 567
301 593
301 979
301 795
301 615
301 757
301 626
301 896
301 830
301 980
301 799
301 963
301 404
301 413
301 613
301 659
301 764
301 320
301 885
301 814
301 923
301 908
301 962
301 317
301 653
301 354
301 901
301 608
301 323
301 515
301 409
301 463
301 779
301 406
301 664
301 797
301 619
301 736
301 807
301 417
301 701
301 706
301 570
301 572
302 528
302 533
302 551
302 546
302 873
302 953
302 331
302 962
302 563
302 568
302 571
302 850
302 906
302 884
302 465
302 507
303 815
303 568
303 413
303 312
303 957
303 798
303 591
303 348
303 824
303 358
303 735
304 775
304 805
304 495
304 890
304 555
304 586
304 640
304 669
304 758
304 319
304 964
304 888
304 331
304 900
304 401
304 927
304 935
304 454
304 535
304 654
304 745
304 485
304 556
305 950
305 711
305 575
305 666
305 698
305 721
305 736
305 752
305 777
305 329
305 358
305 386
305 949
305 385
306 952
306 809
306 844
306 740
306 575
306 341
306 386
306 523
306 714
306 756
306 782
306 752
306 676
306 311
306 834
306 867
306 909
306 920
306 433
307 332
307 518
307 770
307 684
307 536
307 674
307 813
307 793
307 998
307 421
307 312
307 497
307 744
307 940
307 866
307 436
307 607
307 931
307 351
307 548
307 987
307 960
307 646
307 930
307 380
307 936
307 330
307 830
307 439
307 841
307 311
307 510
307 578
308 627
308 592
308 606
308 738
308 942
308 390
308 364
308 323
308 891
308 635
308 787
308 367
308 407
308 435
308 962
308 964
308 457
308 458
308 975
308 572
308 637
308 671
308 836
309 419
309 691
309 575
309 591
309 818
309 972
309 851
309 918
309 345
309 974
309 487
309 328
309 995
309 325
309 964
309 831
309 544
309 711
309 421
309 449
309 372
309 531
309 318
309 407
309 424
309 962
309 458
309 975
309 781
309 864
309 699
309 378
309 494
309 937
309 647
310 608
310 371
310 925
310 357
310 677
310 517
310 555
310 609
310 637
310 642
310 495
310 490
310 749
310 918
310 759
310 348
310 898
310 401
310 927
310 666
310 824
310 478
310 834
310 370
311 495
311 332
311 737
311 786
311 830
311 569
311 427
311 869
311 852
311 523
311 794
311 907
311 452
311 732
311 887
311 447
311 395
311 731
311 318
311 526
311 727
311 834
311 920
311 748
311 396
311 710
311 836
311 429
311 415
311 790
311 414
311 440
311 510
311 915
311 605
311 685
311 911
311 847
311 735
311 603
311 976
311 983
311 850
311 617
311 974
311 393
311 694
311 742
311 341
311 639
311 596
311 767
311 723
311 717
311 597
311 321
311 856
311 406
312 722
312 979
312 608
312 688
312 690
312 744
312 813
312 747
312 925
312 826
312 425
312 862
312 422
312 841
312 844
312 486
312 905
312 375
312 356
312 961
312 989
312 674
312 728
312 497
312 427
312 421
312 411
312 940
312 823
312 743
312 866
312 434
312 884
312 369
312 487
312 345
312 415
312 770
312 314
312 915
312 530
312 887
312 692
312 663
312 854
312 628
312 937
312 585
312 781
312 950
312 546
312 656
312 321
312 398
312 977
312 481
312 618
312 570
312 953
312 450
313 624
313 814
313 919
313 608
313 321
313 356
313 407
313 517
313 676
313 758
313 736
313 375
313 438
313 348
313 401
313 492
313 501
313 634
313 710
313 988
314 419
314 911
314 517
314 492
314 937
314 868
314 686
314 548
315 413
315 911
315 704
315 712
315 721
315 761
315 777
315 400
315 832
315 329
315 354
315 868
315 358
315 523
315 370
316 631
316 604
316 519
316 354
316 926
316 478
316 351
316 523
316 705
316 756
316 790
316 333
316 867
316 909
316 406
316 920
317 639
317 389
317 999
317 590
317 687
317 909
317 565
317 829
317 579
317 353
317 372
317 413
317 789
317 862
317 905
317 434
317 998
317 341
317 358
317 333
318 582
318 826
318 497
318 324
318 721
318 730
318 783
318 478
318 523
318 867
318 366
318 368
318 406
318 920
319 582
319 431
319 434
319 325
319 839
319 523
319 756
319 867
319 920
319 510
319 753
320 593
320 644
320 648
320 651
320 770
320 814
320 885
320 919
320 488
320 688
320 890
320 606
320 645
320 432
320 721
320 949
320 339
321 643
321 744
321 813
321 789
321 747
321 862
321 977
321 421
321 844
321 497
321 465
321 342
321 398
321 940
321 871
321 411
321 841
321 425
321 392
321 536
321 662
321 711
321 998
321 608
321 673
321 422
321 905
321 674
321 436
321 431
321 337
321 823
321 826
321 656
321 410
321 634
321 504
321 613
321 741
321 722
321 767
321 752
321 443
321 453
321 973
321 372
321 830
321 883
321 968
321 584
321 636
321 978
321 700
321 588
321 369
321 884
321 894
321 716
321 864
321 872
321 867
321 510
322 564
322 603
322 936
322 619
322 782
322 539
322 966
322 431
322 716
322 765
322 992
322 712
322 724
322 803
322 565
323 515
323 652
323 842
323 480
323 729
323 709
323 664
323 644
323 552
323 530
323 655
323 919
323 886
323 984
323 639
323 391
323 693
323 953
323 599
323 378
323 358
323 433
324 668
324 856
324 457
324 812
324 924
324 682
324 432
324 723
324 829
324 791
324 633
324 940
324 749
324 667
324 649
324 956
324 676
324 604
324 933
325 729
325 950
325 644
325 795
325 967
325 738
325 811
325 818
325 993
325 381
325 964
325 857
325 995
325 592
325 457
325 606
325 471
325 939
325 435
325 976
325 367
325 438
325 525
325 767
325 794
325 378
325 449
325 557
325 723
325 728
325 719
325 388
325 913
325 975
325 464
325 761
325 988
326 582
326 600
326 894
326 430
326 693
326 490
326 547
326 397
326 597
326 970
326 407
326 849
326 527
327 946
327 613
327 644
327 668
327 695
327 967
327 516
327 713
327 549
327 669
327 671
327 442
327 454
327 479
327 540
327 790
327 440
327 800
327 498
328 573
328 820
328 884
328 506
328 575
328 591
328 592
328 606
328 738
328 811
328 570
328 972
328 959
328 918
328 395
328 880
328 898
328 384
328 528
328 622
328 409
328 766
328 801
328 438
328 964
328 974
328 975
328 464
328 995
328 951
328 492
329 477
329 404
329 465
329 554
329 840
329 835
329 698
329 761
329 377
329 694
329 827
329 363
329 704
329 654
329 697
329 734
329 542
329 409
329 788
329 355
329 472
329 893
329 933
329 941
329 824
329 535
329 594
329 552
329 803
329 741
329 874
329 896
329 341
329 938
329 502
329 830
329 550
329 417
329 669
329 620
329 714
329 976
329 923
329 931
329 358
329 949
329 352
329 756
330 488
330 973
330 925
330 586
330 669
330 812
330 348
330 927
330 935
330 492
330 501
330 540
331 786
331 841
331 849
331 519
331 586
331 599
331 902
331 492
331 559
331 553
331 876
331 900
331 821
331 708
331 609
331 555
331 545
331 912
331 812
331 549
331 423
331 435
331 421
331 359
331 407
331 411
331 926
331 991
331 364
331 347
331 522
331 428
331 781
331 464
331 333
331 401
331 921
331 935
331 454
331 788
332 899
332 796
332 954
332 509
332 461
332 982
332 937
332 961
332 846
332 463
332 882
332 611
332 967
332 841
332 869
332 618
332 818
332 918
332 646
332 992
332 492
332 824
332 868
332 727
333 608
333 591
333 426
333 756
333 368
333 914
333 925
333 760
333 929
333 515
333 707
333 867
333 360
333 366
333 920
334 419
334 801
334 610
334 722
334 488
334 841
334 925
334 932
334 637
334 428
334 635
334 395
334 370
335 805
335 405
335 441
335 398
335 798
335 932
335 935
335 442
335 454
335 505
335 547
335 352
335 406
335 920
335 507
336 685
336 919
336 488
336 826
336 629
336 555
336 599
336 640
336 758
336 348
336 401
336 924
336 933
337 954
337 982
337 701
337 468
337 608
337 687
337 690
337 841
337 969
337 349
337 356
337 398
337 427
337 977
337 998
337 740
337 482
337 650
337 724
338 771
338 659
338 408
338 956
338 716
338 606
338 341
338 981
338 348
338 889
338 454
338 535
338 666
338 698
338 704
338 721
338 824
338 832
338 838
338 354
338 428
338 949
338 926
338 756
338 834
338 415
339 809
339 371
339 932
339 618
339 591
339 797
339 845
339 548
340 906
340 465
340 851
340 545
340 548
340 999
340 641
340 919
340 732
340 706
341 743
341 866
341 506
341 781
341 733
341 749
341 482
341 410
341 638
341 420
341 484
341 746
341 864
341 382
341 881
341 642
341 400
341 981
341 649
341 872
341 797
341 445
341 792
341 533
341 559
341 888
341 429
341 636
341 390
341 437
341 926
341 601
341 821
341 488
341 412
341 812
341 666
341 734
342 536
342 743
342 379
342 844
342 371
342 687
342 522
342 820
342 832
342 963
342 529
342 600
342 864
342 842
342 750
342 977
342 876
342 494
342 867
342 507
343 801
343 585
343 659
343 885
343 966
343 973
343 994
343 539
343 395
343 700
343 908
343 950
343 550
343 359
343 818
343 458
343 555
343 505
343 824
344 528
344 398
344 592
344 606
344 811
344 918
344 457
344 458
344 975
344 464
344 995
344 519
344 666
344 712
344 754
344 472
344 756
344 914
345 919
345 575
345 738
345 811
345 349
345 347
345 726
345 407
345 962
345 457
345 458
345 995
345 501
346 695
346 853
346 894
346 469
346 763
346 840
346 984
346 604
346 430
346 420
346 481
346 428
346 997
346 620
346 845
346 501
346 824
346 426
346 521
347 659
347 718
347 774
347 814
347 404
347 648
347 613
347 685
347 799
347 751
347 700
347 704
347 773
347 691
347 513
347 512
347 425
347 768
347 866
347 435
347 877
347 885
347 979
347 488
347 601
347 728
347 981
347 827
347 523
347 727
348 596
348 567
348 970
348 457
348 555
348 779
348 821
348 559
348 944
348 921
348 997
348 987
348 676
348 517
348 948
348 804
348 876
348 898
348 541
348 501
348 597
348 545
348 442
348 549
348 766
348 951
348 902
348 609
348 598
348 599
348 380
348 822
348 778
348 712
348 941
348 644
348 885
348 379
348 542
348 751
348 717
348 991
348 891
348 428
348 484
348 837
348 917
348 452
348 595
348 881
348 723
348 540
348 401
348 935
348 824
348 790
349 593
349 626
349 644
349 659
349 717
349 809
349 814
349 904
349 757
349 616
349 764
349 556
349 962
349 381
349 372
349 506
349 469
349 877
349 885
349 919
349 967
349 438
349 412
349 878
350 690
350 884
350 431
350 458
350 838
350 377
350 418
350 547
350 761
350 364
350 927
350 663
351 661
351 901
351 373
351 407
351 458
351 657
351 933
351 926
351 547
351 983
351 839
351 696
351 990
351 578
351 648
351 530
351 517
351 899
351 698
351 483
352 573
352 568
352 880
352 593
352 786
352 853
352 877
352 973
352 516
352 921
352 838
352 521
352 956
352 522
352 735
352 917
352 578
353 389
353 579
353 590
353 999
353 502
353 770
353 958
353 663
353 742
353 408
353 536
353 811
353 797
353 445
353 756
354 573
354 673
354 369
354 371
354 666
354 694
354 736
354 754
354 832
354 838
354 542
354 377
354 752
354 730
354 734
354 892
354 802
354 750
354 605
354 747
354 888
354 676
354 499
354 972
354 396
354 836
354 366
355 460
355 591
355 900
355 535
355 698
355 752
355 754
355 785
355 838
355 868
355 358
355 949
355 527
355 922
356 931
356 536
356 608
356 688
356 690
356 744
356 841
356 862
356 379
356 411
356 793
356 728
356 957
356 825
356 905
356 813
356 465
356 369
356 422
356 662
356 621
356 575
356 675
356 394
356 512
356 828
356 367
356 683
356 667
356 430
356 609
356 456
356 471
356 898
356 702
356 709
356 371
356 595
357 928
357 718
357 862
357 371
357 622
357 373
357 874
357 681
357 994
357 384
357 852
357 586
357 639
357 755
357 886
357 545
357 824
357 933
357 756
358 931
358 571
358 813
358 869
358 535
358 666
358 698
358 712
358 736
358 777
358 838
358 703
358 376
358 893
358 450
358 679
358 947
358 721
358 745
358 933
358 660
358 455
358 725
358 428
358 903
358 783
358 929
358 542
358 525
358 868
358 724
358 472
358 761
358 752
358 386
358 363
358 654
358 996
358 466
358 399
358 427
358 561
358 603
358 857
358 590
358 411
358 702
358 756
358 379
358 668
358 410
358 503
358 942
358 805
358 683
358 968
358 460
358 769
358 834
358 954
358 381
358 836
358 443
358 394
358 881
358 492
358 403
358 949
358 474
359 966
359 973
359 720
359 550
359 619
359 936
359 935
359 828
359 579
359 978
359 754
359 995
359 812
360 644
360 674
360 369
360 575
360 606
360 927
360 454
360 752
360 949
360 523
360 756
360 867
360 452
360 914
360 433
360 538
360 493
360 584
360 771
360 847
360 519
360 642
360 621
360 418
360 757
360 585
360 435
360 952
360 368
360 909
360 395
360 920
361 762
361 778
361 813
361 932
361 374
361 638
361 846
361 377
361 926
361 478
361 483
361 892
361 870
361 803
361 395
361 775
361 756
361 764
361 532
361 712
361 534
361 978
361 482
361 965
361 630
361 990
361 995
361 368
362 589
362 570
362 575
362 606
362 738
362 811
362 407
362 446
362 458
362 975
362 995
362 794
362 415
363 535
363 666
363 698
363 736
363 761
363 788
363 838
363 868
363 933
363 949
364 885
364 932
364 869
364 618
364 888
364 699
364 398
364 883
364 628
364 374
364 671
364 933
364 406
365 899
365 372
365 906
365 580
365 841
365 780
365 798
365 802
365 496
365 681
365 541
365 505
365 692
365 910
365 966
365 477
365 755
365 886
365 506
365 646
365 927
365 666
366 627
366 717
366 786
366 744
366 866
366 972
366 501
366 523
366 705
366 756
366 790
366 794
366 867
366 759
366 727
366 406
366 748
366 451
366 447
366 689
366 368
366 782
366 513
366 395
366 459
366 710
366 914
366 399
366 996
366 771
366 620
366 584
366 845
366 514
366 882
366 435
366 477
366 698
366 667
366 856
366 536
366 371
366 683
366 831
366 397
366 430
366 807
366 433
366 800
367 850
367 684
367 398
367 575
367 606
367 738
367 811
367 381
367 959
367 435
367 964
367 874
367 388
367 518
367 771
367 947
367 869
367 965
367 797
367 994
367 865
367 511
367 462
367 407
367 458
367 975
367 953
367 640
367 542
368 861
368 673
368 497
368 975
368 981
368 910
368 505
368 832
368 523
368 756
368 782
368 867
368 715
368 732
368 909
368 748
368 656
368 754
368 502
368 465
368 382
368 400
368 635
368 784
368 622
368 533
368 819
368 922
368 415
368 578
368 370
369 718
369 408
369 690
369 744
369 826
369 601
369 436
369 662
369 608
369 398
369 688
369 747
369 431
369 957
369 977
369 486
369 465
369 825
369 379
369 375
369 813
369 961
369 905
369 427
369 871
369 687
369 884
369 862
369 392
369 940
369 728
369 536
369 481
369 421
369 743
369 469
369 430
369 477
369 528
369 741
369 729
369 799
369 982
369 546
369 787
369 409
369 618
369 454
369 975
369 532
369 778
369 612
369 598
369 643
369 583
369 380
369 656
369 371
369 925
369 798
369 457
369 519
369 386
369 547
369 508
370 737
370 809
370 830
370 608
370 554
370 981
370 609
370 777
370 386
370 922
370 800
370 991
370 565
370 522
370 512
370 595
370 865
370 735
370 441
370 486
370 683
370 891
370 627
370 457
370 593
370 832
370 773
370 559
370 974
370 389
370 453
370 988
370 507
371 919
371 536
371 728
371 744
371 813
371 841
371 826
371 481
371 905
371 425
371 823
371 375
371 940
371 998
371 608
371 411
371 884
371 977
371 957
371 398
371 421
371 674
371 486
371 866
371 431
371 688
371 399
371 871
371 662
371 840
371 948
371 768
371 515
371 938
371 640
371 671
371 449
371 602
371 954
371 737
371 541
371 854
371 984
371 438
371 925
371 497
371 446
371 464
371 566
371 900
371 417
371 705
371 759
371 988
372 389
372 579
372 587
372 588
372 590
372 999
372 823
372 796
372 642
372 436
372 524
372 850
372 830
372 932
372 586
372 548
372 705
373 561
373 820
373 688
373 813
373 798
373 617
373 755
373 807
373 886
373 656
373 705
374 389
374 895
374 841
374 932
374 869
374 618
374 890
374 629
374 503
374 538
374 497
374 766
374 553
374 903
374 531
374 692
374 848
374 525
374 751
374 986
374 519
374 949
374 834
375 688
375 690
375 743
375 744
375 532
375 522
375 398
375 427
375 957
375 977
375 465
375 975
375 444
375 666
375 754
376 722
376 918
376 458
376 995
376 669
376 698
376 721
376 736
376 761
376 777
376 832
376 868
376 386
376 949
376 878
377 901
377 378
377 927
377 535
377 666
377 698
377 736
377 752
377 754
377 777
377 824
377 575
377 512
377 687
377 755
377 950
377 870
377 386
377 933
377 949
377 485
377 426
378 480
378 462
378 640
378 758
378 779
378 524
378 987
378 671
378 505
378 930
378 683
378 960
378 675
378 875
378 845
378 676
378 552
378 394
378 599
378 769
378 426
378 782
378 493
378 725
378 790
378 716
378 476
378 717
378 891
378 591
378 839
378 927
378 938
378 454
378 501
378 926
379 668
379 809
379 744
379 789
379 813
379 427
379 465
379 675
379 730
379 834
380 534
380 906
380 482
380 519
380 779
380 415
380 789
380 461
380 459
380 655
380 662
380 401
380 938
380 454
380 501
380 867
381 518
381 546
381 880
381 901
381 687
381 575
381 592
381 811
381 918
381 407
381 435
381 457
381 458
381 975
381 660
381 969
382 419
382 537
382 616
382 818
382 849
382 864
382 832
382 780
382 641
382 953
382 484
382 454
382 838
382 756
382 867
383 453
383 795
383 901
383 897
383 656
383 658
383 869
383 618
383 883
383 890
383 986
383 868
383 714
384 419
384 518
384 585
384 603
384 644
384 718
384 722
384 885
384 778
384 659
384 404
384 762
384 757
384 799
384 786
384 616
384 717
384 919
384 668
384 499
384 935
384 574
384 519
384 587
384 859
384 913
384 538
384 873
384 706
384 727
384 604
384 663
384 594
384 967
384 488
384 883
384 713
384 394
384 790
384 834
384 836
384 988
385 664
385 530
385 567
385 408
385 591
385 995
385 517
385 698
385 523
385 900
385 406
385 578
386 533
386 546
386 877
386 905
386 398
386 846
386 990
386 704
386 736
386 824
386 854
386 785
386 654
386 634
386 754
386 933
386 958
386 913
386 387
386 903
386 941
386 416
386 513
386 499
386 479
386 758
386 441
386 716
386 567
386 708
386 424
386 911
386 621
386 609
386 549
386 478
386 483
387 809
387 427
387 462
387 902
387 535
387 694
387 698
387 736
387 777
387 785
387 788
387 838
387 933
387 485
388 563
388 744
388 752
388 389
388 682
388 697
389 611
389 590
389 588
389 579
389 624
389 978
389 971
389 672
389 593
389 722
389 757
389 814
389 995
389 935
389 454
389 712
389 409
389 483
390 652
390 644
390 460
390 925
390 570
390 575
390 606
390 818
390 826
390 898
390 692
390 908
390 407
390 446
390 935
391 967
391 532
391 569
391 589
391 901
391 784
391 467
391 580
391 511
391 684
391 930
391 875
391 858
391 492
391 638
391 547
391 432
391 408
391 450
391 735
392 805
392 610
392 967
392 536
392 690
392 743
392 813
392 826
392 841
392 925
392 465
392 500
392 676
392 758
392 401
392 920
393 882
393 533
393 784
393 532
393 589
393 936
393 405
393 408
393 684
393 696
393 497
393 637
393 494
393 523
393 731
394 873
394 967
394 642
394 637
394 812
394 900
394 910
394 401
394 935
394 505
394 682
394 395
395 585
395 497
395 570
395 736
395 523
395 727
395 756
395 867
395 452
395 920
395 670
395 440
395 705
395 689
395 396
395 914
395 510
395 748
395 652
395 400
395 434
395 402
395 401
395 666
395 737
395 961
395 631
395 491
395 519
395 665
395 424
395 974
395 869
395 595
395 922
395 412
396 590
396 754
396 428
396 523
396 756
396 867
396 858
396 997
396 726
396 875
396 762
397 659
397 465
397 780
397 570
397 575
397 606
397 738
397 811
397 818
397 407
397 464
397 995
397 642
397 988
398 931
398 571
398 853
398 701
398 467
398 744
398 826
398 884
398 813
398 977
398 789
398 673
398 601
398 844
398 431
398 825
398 925
398 998
398 905
398 524
398 634
398 508
398 709
398 534
398 620
398 817
398 463
398 796
398 647
398 413
398 592
398 797
398 754
398 838
398 735
398 498
399 579
399 850
399 813
399 841
399 465
399 497
399 628
399 445
399 910
399 736
399 745
400 509
400 722
400 925
400 849
400 864
400 642
400 678
400 410
400 953
400 676
400 501
400 472
401 904
401 956
401 905
401 490
401 519
401 545
401 598
401 637
401 669
401 671
401 812
401 417
401 524
401 454
401 987
401 766
401 960
401 921
401 992
401 609
401 758
401 935
401 517
401 769
401 683
401 930
401 555
401 898
401 586
401 778
401 954
401 850
401 646
401 673
401 806
401 757
401 838
401 982
401 574
401 446
401 881
401 885
401 620
401 907
401 961
401 601
401 664
401 603
401 864
401 585
401 834
401 569
401 478
401 492
401 501
401 412
401 440
401 595
402 775
402 561
402 564
402 573
402 582
402 741
402 473
402 992
402 610
402 695
402 931
402 536
402 951
402 829
402 827
402 933
402 527
403 564
403 573
403 582
403 584
403 860
403 561
403 760
403 767
403 553
403 859
403 740
403 842
403 661
403 931
403 563
403 707
403 629
403 555
403 838
404 577
404 707
404 722
404 774
404 877
404 885
404 906
404 493
404 871
404 750
404 618
404 647
404 932
404 919
404 967
404 979
404 897
404 457
404 849
404 867
405 453
405 589
405 856
405 895
405 956
405 460
405 580
405 901
405 620
405 952
405 918
405 764
405 894
405 408
405 511
405 826
405 465
405 993
405 781
405 462
405 875
406 685
406 717
406 897
406 503
406 811
406 933
406 523
406 756
406 782
406 836
406 867
406 914
406 732
406 474
406 759
406 834
406 705
406 715
406 714
406 452
406 920
406 907
406 440
406 670
406 863
406 810
406 429
406 510
406 512
406 818
406 740
406 613
406 979
406 517
406 519
406 514
406 921
406 931
406 928
406 730
406 601
406 478
406 508
406 423
406 588
406 409
406 415
406 433
407 706
407 627
407 688
407 575
407 591
407 592
407 738
407 811
407 908
407 458
407 439
407 570
407 831
407 986
407 985
407 972
407 995
407 939
407 918
407 438
407 962
407 974
407 975
407 486
407 512
407 990
407 952
407 760
407 910
407 909
407 953
407 735
407 885
407 663
407 472
407 593
407 678
407 801
407 713
407 769
407 424
407 435
407 794
408 661
408 627
408 784
408 569
408 589
408 901
408 911
408 580
408 460
408 701
408 468
408 856
408 574
408 467
408 532
408 511
408 827
408 531
408 859
408 908
408 996
408 886
408 471
408 776
408 635
408 550
408 965
408 874
408 684
408 975
408 501
408 478
409 773
409 659
409 841
409 989
409 458
409 974
409 642
409 462
409 519
409 992
409 666
409 698
409 761
409 824
409 832
409 819
410 611
410 571
410 774
410 744
410 591
410 514
410 646
410 520
410 864
410 792
410 772
410 862
410 811
410 432
410 531
410 414
410 804
410 462
410 981
410 927
410 817
410 523
411 561
411 877
411 504
411 536
411 608
411 662
411 688
411 690
411 743
411 744
411 925
411 846
411 779
411 452
412 775
412 644
412 687
412 811
412 993
412 849
412 549
412 442
412 926
412 867
412 914
412 526
412 816
412 790
412 863
412 838
412 461
412 615
412 743
412 611
412 604
412 968
412 760
412 433
413 801
413 585
413 707
413 830
413 885
413 786
413 603
413 667
413 668
413 809
413 651
413 799
413 475
413 626
413 968
413 491
413 567
413 648
413 717
413 967
413 644
413 963
413 923
413 853
413 680
413 828
413 421
413 689
413 934
413 751
413 444
413 912
413 557
413 664
413 779
413 995
413 566
413 893
413 873
413 488
413 901
413 497
413 703
413 867
414 899
414 579
414 488
414 489
414 942
414 993
414 523
414 756
414 909
414 474
415 842
415 568
415 465
415 481
415 445
415 523
415 756
415 920
415 794
415 433
415 782
415 773
415 529
415 991
415 514
415 439
415 546
415 870
415 990
415 603
415 820
416 771
416 885
416 744
416 465
416 740
416 552
416 990
416 535
416 721
416 752
416 777
416 868
417 722
417 974
417 545
417 555
417 637
417 900
417 927
417 987
417 858
417 426
417 654
417 484
417 554
417 564
417 748
417 454
417 492
417 494
417 794
417 922
417 787
418 819
418 801
418 770
418 970
418 754
418 926
418 426
418 686
418 808
418 483
418 664
418 807
418 995
418 778
418 423
418 876
418 884
418 541
418 960
418 842
419 561
419 564
419 582
419 860
419 760
419 931
419 767
419 775
419 946
419 819
419 661
419 955
419 773
419 706
419 916
419 928
419 477
419 805
419 604
419 452
419 580
419 726
419 991
419 749
419 763
419 453
419 495
419 873
419 885
419 475
419 966
419 427
419 424
419 721
419 920
420 579
420 560
420 814
420 625
420 908
420 864
420 638
420 797
420 964
420 705
420 911
420 570
420 787
420 815
420 953
420 448
420 462
420 779
421 743
421 744
421 813
421 925
421 465
421 497
421 618
421 494
421 785
421 933
421 547
421 479
421 988
422 674
422 688
422 690
422 743
422 744
422 813
422 841
422 818
422 427
422 957
422 977
422 897
422 462
422 876
422 423
423 533
423 603
423 651
423 575
423 831
423 917
423 482
423 694
423 721
423 788
423 926
423 951
423 501
423 457
423 867
424 436
424 738
424 811
424 857
424 690
424 835
424 728
424 564
424 438
424 464
424 995
424 671
424 535
424 735
425 564
425 533
425 814
425 674
425 688
425 690
425 743
425 744
425 826
425 925
425 710
425 568
425 549
425 557
425 427
425 562
425 738
425 470
425 867
425 920
426 796
426 764
426 467
426 536
426 925
426 535
426 926
426 547
426 983
426 803
426 808
426 994
426 908
426 749
426 491
426 939
426 601
426 649
426 859
426 689
427 613
427 707
427 786
427 885
427 608
427 662
427 743
427 744
427 841
427 884
427 813
427 789
427 690
427 465
427 823
427 497
427 905
427 601
427 687
427 436
427 998
427 867
427 970
427 979
427 692
427 909
427 573
427 565
427 685
427 795
427 992
427 773
427 977
427 671
427 454
427 455
427 759
428 610
428 684
428 575
428 535
428 542
428 721
428 736
428 788
428 838
428 933
428 958
428 854
428 734
428 472
428 915
428 727
428 906
428 762
428 550
428 447
428 680
428 475
428 669
428 546
428 945
428 967
428 925
428 709
428 614
428 629
428 735
429 744
429 622
429 832
429 920
429 432
429 859
430 530
430 830
430 743
430 716
430 500
430 861
430 978
430 710
430 453
430 667
430 632
430 763
430 986
430 938
430 816
430 922
431 906
431 536
431 688
431 690
431 813
431 925
431 486
431 648
431 971
431 943
431 714
431 720
431 651
431 465
431 831
432 648
432 488
432 569
432 895
432 871
432 939
432 602
432 544
432 829
432 437
432 888
432 590
432 930
432 989
432 814
432 736
432 573
432 670
433 626
433 795
433 606
433 779
433 666
433 698
433 756
433 922
433 714
433 816
433 794
433 526
433 447
433 869
433 798
433 851
433 622
433 806
433 478
433 787
433 750
433 938
433 593
433 687
434 528
434 475
434 550
434 662
434 690
434 744
434 813
434 884
434 455
434 894
434 684
434 908
434 927
434 926
435 659
435 460
435 575
435 606
435 811
435 917
435 908
435 592
435 874
435 792
435 806
435 833
435 913
435 554
435 655
435 494
435 690
435 457
435 458
435 993
435 995
435 519
435 472
436 850
436 536
436 744
436 813
436 925
436 461
436 514
436 586
436 762
436 811
436 935
436 525
436 653
437 585
437 488
437 789
437 592
437 738
437 457
437 519
437 555
437 586
437 544
437 682
437 913
437 736
437 483
438 509
438 848
438 659
438 814
438 919
438 606
438 738
438 811
438 986
438 457
438 995
438 972
438 959
438 652
438 467
438 973
438 728
438 483
438 847
438 530
438 573
438 904
438 746
438 855
438 537
438 975
438 464
439 551
439 757
439 762
439 601
439 690
439 711
439 886
439 575
439 606
439 738
439 964
439 993
439 995
439 646
439 812
439 827
439 868
439 686
439 867
439 909
440 819
440 551
440 523
440 790
440 867
440 920
440 526
440 461
440 531
440 518
440 960
440 939
440 507
441 564
441 965
441 966
441 550
441 619
441 973
441 776
441 754
441 589
441 656
441 831
441 781
441 953
441 924
441 478
441 988
442 860
442 813
442 592
442 738
442 553
442 927
442 992
442 987
442 758
442 650
442 597
442 951
442 559
442 612
442 691
442 794
442 562
442 979
442 502
442 491
442 516
442 571
442 605
442 680
442 454
442 501
442 838
442 913
443 596
443 885
443 883
443 591
443 458
443 822
443 800
443 516
443 446
443 565
444 755
444 993
444 645
444 566
444 470
444 835
444 630
444 846
444 879
444 839
444 970
444 727
444 952
444 828
444 903
444 586
444 604
444 602
444 745
445 805
445 706
445 886
445 797
445 849
445 864
445 746
445 726
445 641
445 448
445 770
445 619
445 899
445 614
445 825
445 462
445 981
445 505
445 736
445 852
446 815
446 956
446 811
446 985
446 575
446 995
446 972
446 917
446 457
446 729
446 665
446 991
446 596
446 876
446 516
446 776
446 590
446 468
446 458
446 464
446 986
446 937
446 893
447 843
447 593
447 536
447 797
447 868
447 523
447 727
447 756
447 782
447 790
447 867
447 920
447 776
447 653
448 742
448 606
448 514
448 864
448 953
448 781
448 797
448 641
448 462
448 537
448 645
448 480
448 688
448 729
448 824
448 920
448 800
449 593
449 644
449 685
449 707
449 722
449 684
449 967
449 488
450 575
450 666
450 736
450 777
450 788
450 824
450 838
450 748
450 815
450 846
450 835
450 485
451 465
451 545
451 761
451 854
451 756
451 790
451 922
451 474
452 528
452 585
452 809
452 618
452 457
452 501
452 832
452 523
452 834
452 867
452 920
452 864
452 771
452 586
452 839
452 587
452 651
452 992
452 567
452 588
452 543
452 510
452 735
453 773
453 564
453 860
453 928
453 955
453 661
453 495
453 584
453 561
453 741
453 582
453 760
453 506
453 642
453 686
453 572
453 471
453 560
453 977
453 473
453 579
453 460
453 592
453 953
453 636
453 635
454 564
454 611
454 998
454 609
454 676
454 997
454 758
454 557
454 650
454 559
454 898
454 640
454 545
454 812
454 821
454 804
454 519
454 930
454 948
454 987
454 494
454 683
454 951
454 935
454 505
454 671
454 633
454 541
454 938
454 637
454 845
454 706
454 506
454 877
454 601
454 991
454 470
454 527
454 750
454 806
454 605
454 718
454 461
454 659
454 903
454 626
454 590
454 492
454 854
454 800
455 486
455 869
455 666
455 721
455 761
455 854
455 868
455 949
455 740
456 589
456 666
456 698
456 721
456 730
456 736
456 838
456 705
456 485
456 926
456 817
457 999
457 718
457 575
457 606
457 811
457 818
457 964
457 972
457 975
457 487
457 995
457 917
457 976
457 458
457 872
457 486
457 817
457 689
457 884
457 482
457 693
457 640
457 838
457 756
458 644
458 798
458 575
458 606
458 738
458 964
458 592
458 811
458 464
458 487
458 993
458 831
458 918
458 939
458 975
458 851
458 962
458 818
458 976
458 985
458 794
458 778
458 750
458 527
458 662
458 476
458 762
458 490
458 725
458 571
458 493
458 648
458 588
458 607
458 665
458 803
458 540
459 664
459 574
459 618
459 942
459 642
459 492
459 523
459 756
459 782
459 836
459 867
459 920
460 741
460 577
460 784
460 589
460 901
460 684
460 543
460 520
460 948
460 522
460 745
460 713
460 933
460 628
460 977
460 575
460 846
460 777
461 899
461 796
461 692
461 509
461 463
461 954
461 982
461 472
461 764
461 516
461 712
461 503
461 867
461 742
461 911
461 894
461 918
461 839
462 480
462 626
462 743
462 797
462 642
462 646
462 482
462 514
462 849
462 484
462 726
462 953
462 620
462 981
462 638
462 827
462 963
462 897
462 561
462 608
462 939
462 804
462 691
462 494
462 666
462 749
462 598
462 836
463 899
463 954
463 843
463 882
463 509
463 796
463 538
463 658
463 559
463 664
463 494
463 533
463 615
463 933
463 476
464 786
464 780
464 575
464 592
464 606
464 975
464 985
464 976
464 993
464 972
464 962
464 918
464 917
464 995
464 811
464 974
464 534
464 542
464 631
464 743
464 984
464 538
464 569
464 650
464 822
464 585
464 617
464 467
464 628
464 932
464 621
464 777
464 702
464 756
465 873
465 662
465 690
465 744
465 813
465 841
465 793
465 826
465 687
465 789
465 674
465 486
465 608
465 546
465 617
465 659
465 805
465 953
465 586
465 933
465 949
466 491
466 486
466 869
466 570
466 535
466 721
466 761
466 788
466 824
466 832
466 838
466 854
466 949
467 569
467 684
467 674
467 981
467 662
467 575
467 535
467 761
467 933
468 515
468 774
468 488
468 784
468 589
468 911
468 701
468 696
468 511
468 630
468 521
468 778
468 738
468 747
468 877
468 533
468 720
468 682
468 933
469 680
469 820
469 884
469 957
469 883
469 894
469 716
469 604
469 608
469 706
469 991
469 763
469 962
469 553
470 530
470 533
470 627
470 589
470 645
470 566
470 576
470 846
470 879
470 848
470 950
470 876
470 515
470 885
470 981
470 550
470 492
470 927
470 705
470 920
471 568
471 919
471 826
471 575
471 592
471 606
471 811
471 964
471 479
471 995
471 990
471 704
471 922
472 563
472 580
472 738
472 811
472 519
472 921
472 754
472 832
472 868
472 522
473 805
473 564
473 582
473 775
473 573
473 860
473 763
473 710
473 489
473 867
473 485
473 820
473 477
473 495
473 755
473 890
473 597
474 616
474 718
474 774
474 673
474 682
474 698
474 756
474 920
474 816
474 837
474 670
474 982
474 954
474 676
474 554
474 652
474 510
475 773
475 616
475 685
475 774
475 786
475 906
475 764
475 689
475 524
475 825
475 989
475 679
476 606
476 921
476 565
476 494
476 727
477 573
477 931
477 760
477 955
477 860
477 584
477 582
477 564
477 819
477 916
477 889
477 574
477 943
477 781
477 495
477 850
477 809
477 814
477 629
478 709
478 741
478 711
478 481
478 618
478 995
478 927
478 703
478 777
478 903
478 926
478 547
478 517
478 622
478 704
478 575
478 951
478 700
479 659
479 486
479 897
479 818
479 694
479 983
479 681
479 754
479 975
479 612
480 515
480 729
480 842
480 639
480 664
480 709
480 652
480 895
480 734
480 583
480 510
480 530
480 935
480 838
481 965
481 648
481 488
481 536
481 744
481 884
481 925
481 961
481 957
481 529
481 919
481 665
481 827
481 943
481 913
481 995
481 898
481 756
481 836
481 522
481 498
482 856
482 690
482 793
482 825
482 849
482 864
482 620
482 646
482 953
482 638
482 940
482 627
482 983
482 679
482 484
483 842
483 830
483 964
483 645
483 666
483 785
483 547
483 808
483 806
483 648
483 584
483 488
483 811
483 523
484 495
484 502
484 520
484 881
484 953
484 981
484 849
484 765
484 514
484 638
484 797
484 749
484 817
484 882
484 826
484 925
484 551
484 948
484 808
484 497
484 524
484 711
484 928
484 819
484 812
485 561
485 563
485 786
485 747
485 925
485 555
485 675
485 535
485 698
485 721
485 761
485 827
485 838
485 949
485 724
485 730
485 947
485 697
485 754
485 712
485 785
485 913
485 665
485 525
485 783
485 943
485 774
485 539
485 858
485 688
485 905
485 541
485 771
485 970
485 499
485 778
485 977
485 763
485 614
485 755
485 887
486 690
486 743
486 813
486 841
486 884
486 817
486 771
486 972
486 978
486 783
486 882
486 802
486 553
486 704
487 651
487 795
487 570
487 575
487 606
487 811
487 818
487 918
487 962
487 975
487 995
487 519
487 779
487 754
487 777
487 926
487 565
488 773
488 585
488 616
488 648
488 722
488 820
488 885
488 906
488 919
488 967
488 979
488 680
488 685
488 667
488 809
488 853
488 764
488 795
488 923
488 762
488 707
488 770
488 626
488 877
488 737
488 577
488 799
488 863
488 646
488 886
488 582
488 826
488 926
488 619
488 894
488 983
488 859
488 882
488 821
488 562
488 535
488 684
488 829
488 816
488 507
489 585
489 905
489 497
489 798
489 554
489 978
489 725
489 839
489 574
489 873
489 755
489 886
489 632
489 641
489 951
489 525
489 731
490 627
490 814
490 506
490 628
490 984
490 763
490 970
490 818
490 784
490 564
490 577
490 949
490 598
490 926
491 801
491 567
491 603
491 659
491 707
491 718
491 722
491 809
491 885
491 919
491 967
491 906
491 737
491 563
491 520
491 972
491 956
491 747
491 625
491 660
492 530
492 592
492 517
492 519
492 586
492 657
492 650
492 505
492 898
492 553
492 671
492 997
492 900
492 599
492 555
492 858
492 541
492 845
492 875
492 927
492 912
492 779
492 625
492 915
492 656
492 982
492 780
492 867
492 883
492 642
492 600
492 994
492 976
492 815
492 514
492 909
492 649
492 733
492 511
492 501
492 969
493 659
493 814
493 728
493 897
493 932
493 558
493 869
493 618
493 883
493 570
493 620
493 790
494 813
494 962
494 519
494 586
494 758
494 599
494 671
494 821
494 769
494 891
494 857
494 861
494 955
494 899
494 703
494 852
494 963
494 698
494 922
495 773
495 805
495 564
495 573
495 931
495 955
495 661
495 706
495 584
495 741
495 775
495 860
495 767
495 638
495 515
495 815
495 645
495 745
495 843
495 655
495 810
495 725
495 919
495 674
496 639
496 659
496 911
496 536
496 581
496 560
496 899
496 886
496 824
497 814
497 601
497 608
497 687
497 688
497 728
497 744
497 789
497 813
497 998
497 925
497 825
497 826
497 871
497 862
497 793
497 961
497 841
497 905
497 866
497 940
497 747
497 928
497 897
497 959
497 775
497 632
497 816
497 599
497 597
497 641
497 736
497 734
497 980
497 757
497 628
497 798
497 555
497 640
497 602
498 850
498 644
498 877
498 975
498 953
498 800
498 578
498 776
498 641
498 503
498 558
498 557
498 894
498 507
499 860
499 841
499 964
499 519
499 902
499 501
499 547
499 686
499 836
500 720
500 514
500 520
500 864
500 646
500 580
500 519
501 861
501 740
501 549
501 676
501 758
501 812
501 927
501 683
501 779
501 586
501 517
501 597
501 557
501 650
501 708
501 960
501 766
501 935
501 545
501 938
501 669
501 948
501 987
501 858
501 873
501 591
501 792
501 647
501 780
501 755
501 757
501 934
501 648
502 530
502 534
502 579
502 588
502 829
502 936
502 779
502 885
502 995
502 576
502 758
502 921
502 935
502 922
503 952
503 718
503 826
503 656
503 932
503 618
503 883
503 629
503 966
503 574
503 881
503 524
503 667
503 559
503 890
503 575
504 928
504 741
504 880
504 651
504 786
504 814
504 820
504 877
504 550
504 811
504 818
504 974
504 519
504 852
504 920
505 564
505 738
505 765
505 586
505 669
505 812
505 902
505 766
505 708
505 804
505 938
505 545
505 749
505 977
505 929
505 690
505 748
505 822
505 530
505 962
505 611
505 817
506 722
506 780
506 802
506 978
506 622
506 755
506 886
506 798
506 724
506 532
506 575
506 511
506 861
507 722
507 966
507 884
507 962
507 646
507 586
507 921
507 927
507 714
507 794
507 834
507 988
507 806
507 735
507 994
507 776
507 595
507 539
507 787
507 865
507 512
507 621
507 871
507 777
507 754
507 729
507 767
507 940
507 614
507 908
507 615
508 813
508 866
508 519
508 669
508 521
508 540
508 635
508 929
509 899
509 796
509 692
509 954
509 843
509 815
509 982
509 991
509 771
509 695
509 527
509 703
509 563
509 866
509 623
510 627
510 841
510 854
510 756
510 732
510 670
510 705
510 702
510 527
510 880
510 765
510 591
510 677
510 845
510 578
510 636
510 639
510 840
510 603
511 904
511 532
511 684
511 580
511 792
511 679
511 961
511 678
511 547
511 893
511 907
511 687
511 743
511 868
512 779
512 778
512 790
512 571
512 555
512 726
512 800
512 595
512 988
512 735
513 840
513 797
513 827
513 868
513 933
513 523
513 756
513 834
513 865
514 537
514 593
514 696
514 966
514 765
514 872
514 969
514 747
514 940
514 517
514 577
514 781
514 620
514 953
514 981
514 599
514 671
515 639
515 709
515 664
515 729
515 652
515 770
515 969
515 676
515 871
515 842
515 860
515 906
515 957
515 869
515 849
515 812
515 697
515 523
515 800
515 653
516 936
516 538
516 656
516 558
516 869
516 677
516 815
516 637
516 673
516 658
516 618
516 883
516 657
516 535
517 860
517 579
517 644
517 956
517 766
517 997
517 889
517 948
517 549
517 724
517 572
517 727
517 743
517 808
517 555
517 598
517 609
517 637
517 822
518 771
518 624
518 848
518 791
518 873
518 537
518 533
518 571
518 560
518 657
518 841
518 875
518 754
518 546
518 563
518 596
518 627
518 690
518 793
518 894
518 937
519 860
519 884
519 886
519 883
519 894
519 921
519 858
519 552
519 545
519 951
519 990
519 708
519 898
519 992
519 876
519 960
519 758
519 541
519 609
519 553
519 633
519 599
519 769
519 590
519 532
519 581
519 807
519 572
519 853
519 794
519 586
520 899
520 967
520 658
520 792
520 953
520 816
520 594
520 617
520 620
521 952
521 671
521 838
521 663
521 702
521 826
521 953
521 965
521 656
521 877
522 873
522 814
522 591
522 986
522 991
522 753
522 776
522 578
522 663
522 577
522 626
522 837
522 997
522 563
522 546
522 685
522 800
522 595
522 988
522 735
523 799
523 734
523 736
523 832
523 867
523 891
523 672
523 714
523 794
523 526
523 715
523 527
523 748
523 920
523 727
523 907
523 909
523 782
523 834
523 732
523 731
523 634
523 622
523 897
523 972
523 643
523 742
523 717
523 913
523 700
523 642
523 716
523 915
523 835
523 627
523 589
523 681
523 620
523 819
523 541
523 784
523 546
523 756
523 922
524 579
524 551
524 627
524 707
524 612
524 964
524 555
524 609
524 637
524 927
525 690
525 591
525 995
525 562
525 528
525 542
525 666
525 698
525 721
525 777
525 824
525 838
526 567
526 978
526 883
526 939
526 975
526 598
526 926
526 867
526 920
527 773
527 563
527 872
527 794
527 907
527 599
527 570
527 740
527 777
527 815
527 693
527 756
527 867
528 551
528 801
528 568
528 861
528 533
528 596
528 627
528 971
528 919
528 850
528 644
528 906
528 940
528 824
529 648
529 885
529 831
529 749
529 637
529 716
529 668
529 800
529 565
529 653
529 988
529 735
530 742
530 999
530 587
530 611
530 588
530 534
530 579
530 739
530 561
530 733
530 637
530 774
530 858
530 590
530 665
531 791
531 565
531 661
531 854
531 965
531 801
531 546
531 563
531 850
531 873
531 627
531 781
531 620
531 713
531 758
532 616
532 784
532 901
532 844
532 729
532 767
532 922
532 569
532 684
532 964
532 761
532 772
533 791
533 560
533 594
533 880
533 551
533 873
533 596
533 848
533 537
533 861
533 807
533 546
533 568
533 743
533 661
533 599
533 724
533 838
533 912
533 614
533 764
533 563
533 571
533 850
533 627
533 809
533 989
533 864
533 879
533 990
533 794
534 590
534 587
534 611
534 672
534 989
534 657
534 936
534 697
534 826
534 663
535 590
535 718
535 690
535 592
535 811
535 704
535 660
535 949
535 947
535 824
535 730
535 654
535 941
535 712
535 783
535 734
535 868
535 634
535 564
535 940
535 792
535 924
535 579
535 674
535 591
535 624
535 626
535 934
535 801
535 981
535 787
535 559
535 666
535 698
535 761
535 933
536 608
536 825
536 744
536 841
536 862
536 789
536 925
536 977
536 901
536 599
536 913
536 629
536 911
536 876
536 690
536 743
536 813
536 826
536 884
536 993
536 708
536 921
536 868
536 988
537 955
537 791
537 801
537 546
537 551
537 568
537 850
537 861
537 873
537 627
537 977
537 818
538 819
538 850
538 625
538 658
538 932
538 558
538 869
538 618
538 883
538 640
538 697
538 785
538 913
538 794
538 834
539 950
539 957
539 756
539 794
539 582
539 680
539 648
539 800
539 595
540 998
540 964
540 586
540 921
540 814
540 705
540 714
540 787
541 820
541 688
541 558
541 572
541 742
541 695
541 715
542 931
542 615
542 785
542 654
542 949
542 736
542 565
542 757
542 766
542 921
542 712
542 721
542 754
542 777
542 824
543 904
543 622
543 927
543 951
543 822
543 547
543 920
543 800
544 706
544 691
544 774
544 549
544 637
544 702
544 666
544 584
544 596
544 932
544 622
544 736
545 820
545 765
545 997
545 858
545 912
545 769
545 676
545 650
545 824
545 834
545 599
545 779
545 812
545 902
545 832
546 561
546 801
546 563
546 551
546 880
546 791
546 807
546 600
546 889
546 601
546 680
546 670
546 983
546 568
546 610
546 707
546 975
546 549
546 721
547 564
547 750
547 885
547 841
547 606
547 918
547 926
547 621
547 870
547 720
547 836
547 579
547 935
547 593
547 804
547 950
547 655
547 943
547 787
547 940
547 722
547 731
547 920
548 611
548 990
548 854
548 852
548 642
548 593
549 757
549 674
549 575
549 876
549 858
549 758
549 746
549 947
549 555
549 676
549 779
549 900
549 938
550 999
550 593
550 814
550 720
550 619
550 966
550 766
550 667
550 808
550 631
550 633
550 677
550 975
550 586
550 758
551 801
551 624
551 691
551 560
551 627
551 848
551 812
551 597
551 763
551 747
551 829
551 973
551 571
551 850
551 873
551 919
551 983
551 834
552 590
552 659
552 744
552 594
552 738
552 621
552 779
552 898
552 900
552 927
552 868
552 949
553 805
553 750
553 642
553 902
553 671
553 992
553 858
553 940
553 830
553 799
553 822
553 555
553 900
553 927
553 827
553 909
553 578
554 877
554 979
554 793
554 625
554 631
554 655
554 755
554 617
554 581
554 618
554 853
554 872
554 664
554 978
554 622
554 886
554 763
554 592
554 818
554 824
555 850
555 722
555 886
555 987
555 766
555 637
555 597
555 960
555 676
555 992
555 650
555 921
555 898
555 804
555 633
555 609
555 669
555 769
555 807
555 976
555 922
555 884
555 763
555 871
555 877
555 974
555 925
555 841
555 802
555 584
555 634
555 608
555 927
556 786
556 790
556 995
556 826
556 694
556 830
556 971
556 578
556 988
557 573
557 606
557 801
557 725
557 977
557 776
557 637
557 669
557 671
557 927
557 665
557 785
557 892
558 656
558 658
558 897
558 763
558 669
558 722
558 740
558 869
558 618
558 592
558 686
558 983
559 584
559 982
559 885
559 738
559 883
559 583
559 921
559 927
559 745
559 933
560 801
560 675
560 561
560 568
560 571
560 850
560 873
560 627
560 585
560 762
560 901
560 570
560 975
560 654
561 773
561 955
561 760
561 767
561 741
561 819
561 931
561 900
561 674
561 564
561 582
561 584
561 692
561 659
561 906
561 869
561 618
561 781
561 779
561 902
561 635
562 757
562 813
562 897
562 656
562 658
562 932
562 892
562 726
562 883
563 564
563 579
563 791
563 801
563 807
563 861
563 594
563 880
563 627
563 624
563 568
563 691
563 918
563 800
563 671
563 711
563 825
563 850
563 884
563 818
563 920
564 773
564 775
564 805
564 916
564 661
564 860
564 582
564 767
564 928
564 946
564 573
564 760
564 584
564 706
564 623
564 798
564 981
564 886
564 793
564 945
564 991
564 906
564 741
564 877
564 925
564 599
564 926
565 684
565 898
565 800
565 787
565 991
565 859
565 780
565 947
565 838
565 914
565 578
565 988
566 773
566 885
566 780
566 572
566 699
566 830
566 871
566 838
566 908
566 804
566 847
566 926
566 670
566 689
567 919
567 613
567 963
567 577
567 648
567 904
567 737
567 795
567 861
567 732
567 735
567 693
567 716
567 722
567 820
567 967
567 744
567 598
568 873
568 880
568 848
568 801
568 768
568 939
568 835
568 612
568 766
568 953
568 599
568 881
568 850
568 627
568 615
568 656
568 910
568 951
568 730
569 773
569 861
569 956
569 911
569 701
569 856
569 968
569 765
569 580
569 684
569 612
569 676
569 777
569 832
569 705
570 793
570 925
570 738
570 939
570 811
570 993
570 606
570 908
570 986
570 597
570 957
570 981
570 575
570 591
570 818
570 964
570 951
570 909
571 801
571 807
571 880
571 850
571 627
571 848
571 691
571 873
571 624
571 791
571 978
571 804
571 584
571 794
571 735
571 581
571 616
571 748
571 599
571 779
571 596
571 637
571 727
571 867
572 659
572 695
572 877
572 658
572 962
572 792
572 614
572 576
572 839
572 846
572 777
572 800
573 773
573 928
573 805
573 582
573 760
573 741
573 759
573 746
573 754
573 827
573 671
573 758
573 832
574 931
574 718
574 770
574 820
574 923
574 903
574 858
574 684
574 989
575 954
575 919
575 813
575 978
575 986
575 591
575 975
575 942
575 974
575 985
575 939
575 738
575 851
575 972
575 959
575 874
575 908
575 993
575 857
575 606
575 723
575 650
575 945
575 983
575 691
575 827
575 906
575 935
575 666
575 732
575 768
575 930
575 664
575 893
575 895
575 592
575 811
575 599
575 920
576 784
576 864
576 638
576 645
576 699
576 847
576 846
576 700
576 924
576 597
576 888
576 975
576 941
576 900
577 757
577 717
577 744
577 636
577 831
577 593
577 603
577 685
577 695
577 722
577 820
577 877
577 885
577 662
577 884
577 832
577 782
578 593
578 814
578 898
578 635
578 800
578 735
578 776
578 878
578 806
578 988
578 764
578 763
578 921
578 704
578 874
578 796
578 591
578 638
578 906
579 611
579 742
579 590
579 999
579 846
579 728
579 813
579 698
579 736
579 870
580 639
580 696
580 901
580 887
580 907
580 684
580 908
581 610
581 884
581 798
581 780
581 886
581 981
581 815
581 838
581 683
581 789
581 767
581 755
581 736
581 777
581 867
582 773
582 775
582 706
582 767
582 931
582 860
582 760
582 916
582 601
582 913
582 848
582 820
582 734
582 914
582 648
582 927
583 594
583 788
583 933
583 714
584 773
584 805
584 860
584 760
584 945
584 807
584 728
584 648
584 666
584 721
585 624
585 603
585 877
585 614
585 963
585 718
585 778
585 968
585 610
585 979
585 615
585 774
585 945
585 696
585 949
585 845
585 647
585 700
585 593
585 659
585 722
585 786
585 809
585 814
585 820
585 885
585 906
585 813
585 826
585 755
585 628
585 933
586 952
586 797
586 633
586 845
586 951
586 898
586 921
586 865
586 656
586 907
586 838
586 988
586 697
586 660
586 637
586 676
587 607
587 588
587 742
587 889
587 703
588 958
588 646
588 824
589 706
589 778
589 684
589 696
589 895
589 643
589 601
589 868
589 767
589 806
589 899
589 845
589 890
589 985
589 771
589 802
589 708
589 938
590 742
590 999
590 611
590 662
590 808
590 659
590 867
590 671
590 802
590 780
590 877
590 655
590 638
590 758
591 967
591 755
591 658
591 628
591 606
591 995
591 964
591 972
591 917
591 637
591 882
591 725
591 853
591 592
591 986
591 993
591 935
592 603
592 688
592 728
592 818
592 942
592 738
592 959
592 975
592 962
592 918
592 811
592 908
592 939
592 874
592 888
592 967
592 806
592 951
592 893
592 766
592 719
592 679
592 796
592 964
592 995
592 761
593 757
593 904
593 610
593 626
593 764
593 707
593 963
593 830
593 786
593 814
593 613
593 919
593 717
593 651
593 737
593 896
593 929
593 713
593 894
593 719
593 714
593 674
593 641
593 871
593 644
593 685
593 722
593 820
593 885
593 696
593 838
593 920
593 922
593 595
594 619
594 972
594 612
594 873
594 743
594 977
594 740
594 918
594 646
594 671
594 730
595 639
595 970
595 986
595 800
595 787
595 806
595 753
595 828
595 735
595 887
595 961
595 782
595 875
595 701
595 888
595 749
596 742
596 850
596 605
596 643
596 717
596 748
596 662
596 728
596 606
596 752
596 756
597 850
597 690
597 925
597 646
597 941
598 696
598 637
598 804
598 935
598 951
598 944
598 669
598 629
598 887
598 838
598 609
598 671
598 779
598 898
598 782
598 653
599 692
599 918
599 845
599 935
599 766
599 992
599 997
599 683
599 764
599 639
599 848
599 970
599 910
599 674
599 922
599 760
599 601
599 779
600 801
600 807
600 990
600 798
600 966
600 861
600 873
600 627
600 906
600 901
600 884
600 640
600 893
601 919
601 825
601 841
601 688
601 844
601 939
601 744
601 826
601 970
601 736
601 824
601 867
602 902
602 682
602 937
602 607
602 864
602 770
602 741
602 976
603 707
603 717
603 778
603 640
603 981
603 644
603 659
603 718
603 722
603 757
603 814
603 877
603 885
603 919
603 967
603 979
603 744
603 960
603 838
603 922
604 809
604 884
604 894
604 693
604 959
604 955
604 811
604 763
604 935
604 756
605 643
605 690
605 978
605 970
605 875
605 886
605 881
605 779
605 735
606 624
606 814
606 618
606 874
606 942
606 974
606 831
606 939
606 851
606 986
606 985
606 818
606 918
606 811
606 972
606 993
606 908
606 857
606 964
606 959
606 917
606 975
606 728
606 638
606 868
606 987
606 706
606 616
606 940
606 675
606 869
606 912
606 693
606 629
606 860
606 607
606 862
606 995
606 719
607 967
607 673
607 964
607 694
607 730
607 867
607 800
607 988
607 735
608 718
608 989
608 728
608 961
608 813
608 866
608 925
608 884
608 940
608 742
608 627
608 664
608 812
608 725
608 653
608 855
608 688
608 744
608 826
608 811
608 986
608 704
609 652
609 931
609 998
609 921
609 758
609 804
609 708
609 634
609 639
609 799
609 761
609 853
609 933
609 664
609 920
609 621
609 970
609 637
609 927
610 993
610 644
610 680
610 718
610 814
610 877
610 906
610 798
610 788
611 796
611 642
611 768
611 850
611 613
611 722
611 744
611 811
611 666
612 906
612 780
612 688
612 757
612 755
612 812
613 861
613 722
613 615
613 979
613 786
613 799
613 728
613 719
613 718
613 778
613 820
613 830
613 885
613 989
613 794
613 836
614 923
614 904
614 668
614 701
614 898
614 887
614 648
614 680
614 707
614 718
614 795
614 809
614 885
614 967
614 979
614 901
614 818
614 974
614 640
614 682
615 667
615 680
615 967
615 923
615 685
615 718
615 778
615 786
615 820
615 830
615 877
615 885
615 906
615 738
615 917
615 698
616 659
616 814
616 877
616 971
616 707
616 896
616 878
616 898
616 884
616 714
616 671
616 644
616 648
616 718
616 722
616 809
616 919
616 967
616 864
616 835
616 854
617 718
617 877
617 798
617 696
617 703
617 972
617 911
617 935
617 886
617 983
618 656
618 932
618 869
618 658
618 628
618 677
618 883
618 629
618 740
618 804
618 816
618 725
618 776
618 994
618 895
618 785
618 890
618 970
618 910
618 621
619 860
619 848
619 919
619 855
619 811
620 809
620 830
620 622
620 646
620 864
620 804
620 875
620 808
620 896
620 905
620 634
621 820
621 902
621 647
621 926
621 686
621 915
621 910
621 756
621 867
621 800
622 978
622 742
622 790
622 755
622 886
622 811
622 953
622 761
622 785
623 770
623 979
623 813
623 646
623 933
623 924
624 664
624 950
624 850
624 627
624 770
624 809
624 927
625 919
625 966
625 862
625 655
625 798
625 768
625 755
625 721
626 750
626 770
626 869
626 718
626 722
626 877
626 967
626 925
626 935
626 777
627 801
627 850
627 873
627 861
627 807
627 848
627 880
627 650
627 740
627 630
627 628
627 655
627 869
627 792
627 857
627 931
627 671
628 850
628 901
628 925
628 977
628 932
628 869
628 883
628 897
628 890
628 740
628 924
628 758
628 765
628 748
628 857
628 773
628 654
628 905
628 698
629 711
629 658
629 740
629 869
629 883
629 648
629 928
629 951
629 712
629 957
629 890
629 646
629 636
630 954
630 645
630 846
630 835
630 990
630 893
630 676
630 804
631 853
631 967
631 744
631 866
631 780
631 798
631 978
631 755
631 905
631 801
631 994
631 812
631 854
631 782
632 742
632 813
632 716
632 749
632 773
632 804
633 977
633 677
633 849
633 953
633 637
633 671
633 927
633 824
633 686
633 852
633 714
634 885
634 937
634 861
634 698
634 704
634 730
634 824
634 933
634 949
635 953
635 812
635 952
635 742
636 919
636 979
636 721
636 817
636 798
636 714
637 720
637 942
637 902
637 935
637 640
637 812
637 900
637 948
637 921
637 999
637 943
637 680
637 970
637 716
637 776
637 709
637 874
637 955
637 827
637 895
637 671
637 758
637 777
638 680
638 967
638 978
638 738
638 849
638 864
638 984
638 892
638 964
638 953
638 768
639 842
639 664
639 709
639 729
639 652
639 836
639 991
639 933
639 875
639 644
639 932
639 761
640 741
640 979
640 976
640 981
640 645
640 951
640 671
640 858
640 960
640 774
640 844
640 906
640 830
640 963
640 779
641 978
641 693
641 975
641 781
641 681
641 966
641 846
642 701
642 977
642 792
642 713
642 981
642 707
642 940
642 917
642 969
642 765
642 669
642 898
642 938
643 873
643 809
643 784
643 753
643 853
643 684
643 798
643 658
643 876
643 734
644 931
644 668
644 853
644 830
644 707
644 685
644 770
644 737
644 980
644 722
644 651
644 967
644 963
644 717
644 654
644 944
644 953
644 860
644 835
644 814
644 877
644 885
644 906
644 979
644 886
644 829
644 666
644 922
645 652
645 931
645 764
645 874
645 910
645 847
645 862
645 841
645 733
645 933
645 699
645 839
645 846
645 758
646 709
646 979
646 884
646 918
646 964
646 797
646 864
646 872
646 849
646 781
646 749
646 881
646 792
646 953
646 726
646 765
646 660
646 798
646 895
646 695
646 948
646 763
646 787
646 737
646 937
646 806
646 981
647 885
647 763
647 975
647 950
647 806
647 926
647 686
648 850
648 795
648 762
648 770
648 818
648 846
648 707
648 722
648 786
648 820
648 877
648 919
648 699
648 756
649 899
649 967
649 696
649 826
649 841
649 975
649 864
649 809
649 835
649 953
649 949
649 920
650 722
650 728
650 925
650 850
650 733
650 676
651 770
651 757
651 904
651 659
651 679
651 718
651 722
651 786
651 885
651 906
651 919
651 967
651 869
651 942
652 709
652 842
652 822
652 666
652 955
652 814
652 658
652 669
652 719
652 949
652 920
652 735
653 668
653 718
653 993
653 864
653 848
653 812
653 730
653 669
653 988
653 735
654 742
654 861
654 718
654 966
654 864
654 665
654 721
654 838
654 949
655 780
655 810
655 755
655 886
655 935
655 731
655 922
656 709
656 873
656 877
656 897
656 970
656 747
656 870
656 932
656 869
656 951
656 893
656 756
656 867
657 722
657 890
657 693
657 758
657 812
657 898
658 955
658 707
658 830
658 904
658 967
658 897
658 760
658 970
658 716
658 987
658 932
658 869
658 883
658 917
658 788
659 805
659 718
659 722
659 667
659 757
659 963
659 906
659 762
659 685
659 904
659 967
659 830
659 707
659 675
659 927
659 697
659 833
659 951
659 814
659 877
660 974
660 732
660 693
660 698
660 704
660 761
660 788
660 868
660 933
660 926
660 714
661 860
661 741
661 775
661 673
661 737
661 798
661 975
661 758
662 709
662 809
662 866
662 905
662 819
662 973
662 849
662 687
662 688
662 690
662 744
662 841
662 925
662 937
663 814
663 841
663 869
663 798
663 680
664 709
664 842
664 729
664 779
664 770
664 814
664 763
664 993
664 712
665 758
665 893
665 697
665 777
665 736
665 995
665 704
665 838
665 933
665 949
666 770
666 919
666 923
666 953
666 902
666 913
666 712
666 704
666 754
666 929
666 947
666 933
666 721
666 996
666 736
666 724
666 679
666 838
666 761
666 832
666 983
666 763
666 738
666 778
666 999
666 701
666 695
666 773
666 698
666 794
667 919
667 834
667 895
667 668
667 722
667 877
667 752
667 714
668 775
668 830
668 737
668 770
668 795
668 906
668 885
668 963
668 756
668 727
668 895
668 717
668 809
668 877
668 919
668 744
668 995
668 749
668 752
668 710
669 820
669 979
669 804
669 990
669 671
669 944
669 769
669 824
669 964
669 836
669 971
669 710
669 928
669 812
670 717
670 762
670 799
670 836
670 867
670 922
671 757
671 740
671 763
671 942
671 708
671 889
671 804
671 935
671 758
671 716
671 993
671 881
671 782
671 840
671 801
671 776
671 822
671 761
671 777
671 756
672 770
672 778
672 679
672 730
672 933
672 772
672 750
672 794
672 834
672 867
672 920
673 982
673 841
673 885
673 690
673 743
673 744
673 813
673 826
673 884
673 693
673 918
673 953
673 698
673 926
674 690
674 862
674 793
674 826
674 823
674 679
674 838
674 915
674 675
674 710
674 744
674 866
674 925
674 780
674 755
675 890
675 797
675 734
675 758
675 927
675 935
675 698
675 983
675 922
675 735
676 744
676 957
676 948
676 889
676 683
676 921
676 898
676 821
676 908
676 797
676 698
676 988
676 891
676 779
676 927
676 949
677 796
677 762
677 919
677 802
677 932
677 869
677 705
677 787
677 727
677 740
677 890
677 872
677 758
677 682
677 702
678 899
678 885
678 798
678 995
678 927
679 722
679 780
679 881
679 709
679 698
679 719
679 721
679 730
679 754
679 832
679 933
680 861
680 904
680 695
680 720
680 707
680 722
680 809
680 877
680 919
680 979
680 688
680 758
680 782
680 800
681 786
681 884
681 953
681 754
681 777
681 927
681 762
682 717
682 755
682 921
682 723
682 888
682 962
682 818
682 754
683 795
683 814
683 967
683 684
683 696
683 758
683 779
684 784
684 901
684 911
684 956
684 895
684 810
684 957
684 851
684 801
684 867
684 907
684 921
684 721
684 838
684 920
685 762
685 707
685 971
685 786
685 722
685 814
685 906
685 929
685 763
685 725
685 717
685 770
685 809
685 820
685 690
685 813
685 962
685 734
686 927
686 803
686 870
686 983
686 958
686 866
687 805
687 820
687 866
687 961
687 747
687 731
687 784
687 728
687 744
687 813
687 883
687 716
687 993
687 995
687 779
687 712
687 745
687 920
688 743
688 925
688 989
688 728
688 966
688 696
688 720
688 767
688 817
688 829
688 799
688 813
688 826
688 841
688 884
688 894
688 846
688 832
688 909
689 756
689 790
689 867
689 920
690 873
690 707
690 977
690 905
690 747
690 793
690 743
690 844
690 789
690 940
690 998
690 925
690 961
690 744
690 997
690 870
690 971
690 918
690 746
690 829
690 968
690 724
690 797
690 819
690 907
690 781
690 826
690 908
690 962
690 986
690 953
691 798
691 960
691 841
691 844
691 790
692 899
692 796
692 982
692 815
692 954
692 735
692 720
692 843
692 814
692 949
693 979
693 716
693 763
693 694
694 722
694 938
694 715
694 754
694 832
694 838
694 782
695 764
695 784
695 707
695 722
695 786
695 877
695 885
695 919
695 918
695 698
695 832
695 854
695 913
695 817
696 946
696 791
696 814
696 906
696 856
696 901
696 735
696 891
696 995
696 746
696 898
696 731
696 988
697 916
697 883
697 811
697 749
697 990
697 895
697 698
697 730
697 838
698 913
698 941
698 703
698 996
698 958
698 761
698 833
698 855
698 838
698 736
698 752
698 854
698 777
698 745
698 929
698 893
698 868
698 734
698 785
698 795
698 709
698 804
698 772
698 860
698 791
698 895
698 830
698 794
698 817
698 983
698 822
698 721
698 754
698 788
698 933
698 759
699 877
699 784
699 942
699 964
699 975
699 995
699 847
699 846
699 768
699 764
699 810
699 876
699 824
700 771
700 786
700 967
700 973
700 744
700 932
700 890
700 846
700 889
701 885
701 901
701 895
701 922
701 861
701 721
701 836
702 738
702 811
702 818
702 839
702 900
702 915
702 705
702 731
702 756
702 790
702 867
702 920
703 844
703 868
703 855
703 958
703 943
703 893
703 941
703 933
703 861
703 704
703 736
703 761
703 777
703 824
703 949
703 727
703 836
703 909
704 956
704 712
704 754
704 734
704 745
704 824
704 868
704 919
704 836
704 925
704 746
704 863
704 736
704 761
704 777
705 786
705 862
705 900
705 836
705 863
705 732
705 756
705 867
705 731
705 818
705 889
705 908
705 733
705 757
705 920
706 819
706 860
706 987
706 722
706 877
706 811
706 921
706 988
707 980
707 786
707 788
707 938
707 807
707 877
707 885
707 967
707 810
707 909
707 787
708 866
708 738
708 978
708 986
708 904
708 779
708 898
709 729
709 963
709 818
710 784
710 734
710 929
710 905
710 965
710 867
710 920
711 906
711 744
711 813
711 826
711 884
711 716
711 832
711 790
712 801
712 919
712 761
712 896
712 841
712 754
712 777
712 832
712 854
712 933
712 949
712 867
713 911
713 935
713 924
713 785
713 832
713 838
713 922
714 882
714 722
714 904
714 748
714 756
714 929
714 903
714 783
714 790
714 794
714 867
714 909
714 920
715 843
715 791
715 786
715 841
715 761
716 720
716 869
716 970
716 840
716 894
716 727
716 828
716 898
716 788
717 861
717 778
717 795
717 853
717 927
717 746
717 900
717 718
717 774
717 809
717 814
717 906
717 967
717 824
718 770
718 722
718 877
718 904
718 906
718 757
718 774
718 963
718 853
718 967
718 792
718 735
718 720
718 970
718 855
718 910
718 919
718 864
718 900
718 937
718 721
719 796
719 919
719 745
719 856
719 942
719 922
719 721
719 824
719 832
719 838
719 933
719 949
720 966
720 725
720 988
720 886
720 812
720 909
721 850
721 734
721 833
721 745
721 855
721 996
721 783
721 852
721 986
721 782
721 732
721 811
721 871
721 846
721 730
721 752
721 754
721 761
721 800
722 945
722 963
722 906
722 737
722 820
722 774
722 814
722 968
722 778
722 919
722 885
722 770
722 967
722 799
722 762
722 809
722 811
722 752
722 828
722 905
722 800
722 826
722 780
722 984
722 922
722 930
722 924
722 807
722 757
722 790
722 920
723 899
723 814
723 885
723 728
724 850
724 809
724 736
724 754
724 777
724 838
724 790
725 901
725 841
725 824
725 832
726 973
726 932
726 797
726 849
726 872
726 953
726 867
727 773
727 763
727 779
727 754
727 732
727 939
727 919
727 980
727 832
727 757
727 782
727 794
727 909
727 922
728 971
728 841
728 989
728 813
728 743
728 862
728 957
728 974
728 954
728 827
728 776
728 840
728 864
729 842
729 864
729 783
729 912
729 901
729 942
729 933
729 920
730 866
730 755
730 855
730 783
730 913
730 833
730 903
730 958
730 824
730 752
730 949
730 836
730 872
730 990
730 818
730 838
730 868
730 933
730 988
731 920
731 867
731 925
731 972
731 760
731 845
731 756
731 794
732 862
732 840
732 811
732 872
732 761
732 782
732 867
732 909
733 864
733 953
733 736
733 749
733 779
733 785
734 802
734 846
734 902
734 971
734 955
734 896
734 777
734 838
734 854
734 933
735 931
735 809
735 800
735 988
735 753
735 776
735 991
735 878
735 748
735 792
735 765
735 757
735 887
735 912
736 795
736 788
736 783
736 996
736 745
736 761
736 797
736 931
736 813
736 826
736 894
736 777
736 933
736 852
736 772
737 860
737 850
737 774
737 786
737 919
737 967
737 884
737 972
737 854
737 949
737 909
738 813
738 831
738 818
738 908
738 975
738 857
738 993
738 917
738 986
738 851
738 785
738 913
738 839
738 786
738 791
738 918
738 964
738 900
739 795
739 743
739 813
739 864
740 784
740 932
740 883
740 746
740 890
740 974
740 756
741 773
741 931
741 955
741 742
741 797
741 935
741 814
741 813
741 897
741 868
742 761
742 899
742 893
742 743
742 897
742 838
743 823
743 825
743 789
743 844
743 793
743 778
743 810
743 766
743 848
743 934
743 773
743 813
743 841
744 823
744 866
744 841
744 989
744 825
744 925
744 747
744 940
744 905
744 844
744 957
744 998
744 884
744 977
744 961
744 789
744 812
744 990
744 922
744 938
744 964
744 794
744 806
744 951
744 813
745 767
745 962
745 983
745 759
745 832
745 838
745 933
745 949
746 877
746 919
746 862
746 792
746 953
746 927
747 813
747 841
747 884
747 925
747 886
747 756
748 882
748 750
748 932
748 927
748 761
748 926
748 756
748 782
748 909
748 920
749 818
749 939
749 953
749 922
749 763
749 983
749 823
749 839
749 854
750 771
750 965
750 950
750 952
750 753
750 807
750 873
750 774
750 964
750 772
751 755
751 926
751 772
752 773
752 955
752 868
752 941
752 924
752 886
752 823
752 761
752 832
752 838
753 995
753 832
753 988
753 840
753 923
754 919
754 993
754 804
754 893
754 855
754 903
754 943
754 832
754 883
754 936
754 940
754 835
754 784
754 945
754 824
754 949
755 814
755 885
755 802
755 780
755 978
755 798
755 856
755 800
755 942
755 839
755 834
756 942
756 995
756 889
756 927
756 868
756 794
756 907
756 909
756 887
756 914
756 920
756 816
756 891
756 836
756 782
756 863
756 810
756 837
756 858
756 936
756 897
756 803
756 875
756 805
756 820
756 791
756 967
756 842
756 915
757 917
757 998
757 762
757 774
757 786
757 820
757 919
757 869
758 801
758 901
758 948
758 951
758 876
758 812
758 912
758 766
758 858
758 935
758 960
758 804
758 930
758 921
758 898
758 889
758 900
758 779
758 938
758 827
758 981
758 918
758 859
758 800
758 809
758 790
758 998
758 924
758 949
759 843
759 762
759 783
759 943
759 948
759 867
759 922
760 773
760 775
760 860
760 931
760 862
760 811
760 995
761 893
761 913
761 947
761 788
761 941
761 903
761 855
761 932
761 770
761 839
761 901
761 806
761 986
761 764
761 844
761 981
761 827
761 832
761 838
761 933
761 803
762 968
762 786
762 830
762 971
762 820
762 885
762 876
762 962
762 949
762 770
762 774
762 809
762 814
762 884
762 964
762 898
763 894
763 890
763 928
764 875
764 786
764 814
764 877
764 885
764 979
764 978
764 886
764 849
764 927
765 797
765 864
765 872
765 981
765 973
765 766
765 775
765 843
766 809
766 883
766 927
766 935
766 837
767 773
767 805
767 819
767 814
767 906
767 919
767 967
767 964
767 876
767 941
767 817
768 870
768 988
769 773
769 964
769 810
769 988
770 814
770 795
770 774
770 968
770 809
770 853
770 830
770 922
770 791
770 905
770 789
770 823
770 849
770 877
770 885
770 906
770 919
770 979
770 826
770 788
770 909
771 965
771 952
771 973
771 950
771 824
772 979
772 856
772 881
773 946
773 928
773 860
773 885
773 995
773 931
773 786
774 795
774 842
774 939
774 877
774 919
774 866
774 894
774 787
775 860
775 805
775 819
775 918
775 955
775 964
775 986
775 838
775 817
776 955
776 906
776 800
776 988
777 992
777 924
777 855
777 827
777 929
777 996
777 788
777 829
777 861
777 870
777 849
777 926
777 868
778 889
778 967
778 886
778 868
779 975
779 953
779 921
779 858
779 938
779 935
779 876
779 875
779 960
779 888
779 920
779 874
779 798
779 942
780 860
780 795
780 831
780 978
780 846
780 836
781 904
781 849
781 864
781 953
781 900
781 800
782 863
782 894
782 973
782 958
782 839
782 834
782 867
782 920
783 786
783 877
783 951
783 910
783 969
783 963
783 838
783 933
784 895
784 908
784 811
784 975
785 809
785 886
785 974
785 993
785 788
785 996
785 824
785 947
785 849
785 916
785 832
785 854
785 933
786 877
786 795
786 979
786 971
786 853
786 814
786 945
786 919
786 904
786 848
786 865
786 809
786 906
786 967
787 860
787 902
787 800
788 865
788 998
788 824
788 854
788 933
789 826
789 841
789 925
789 998
789 978
790 816
790 909
790 910
790 857
790 964
790 834
790 920
791 807
791 801
791 812
791 869
791 858
791 873
791 981
791 935
792 972
792 981
792 900
792 838
793 919
793 813
793 826
793 841
793 941
793 920
794 949
794 887
794 922
794 809
794 906
794 867
794 920
795 850
795 986
795 820
795 979
795 883
795 964
796 899
796 954
796 982
796 815
796 819
796 843
796 838
796 969
797 995
797 881
797 966
797 940
797 981
798 814
798 877
798 967
798 802
798 961
798 886
798 920
799 999
799 802
799 814
799 885
799 829
800 890
800 824
800 806
800 994
800 865
800 988
800 801
800 894
800 832
800 895
800 943
800 993
800 823
801 873
801 850
801 880
801 807
801 964
801 931
801 937
801 979
801 927
802 979
802 886
802 876
802 903
803 880
803 921
803 913
803 926
804 918
804 819
804 993
804 927
805 819
805 852
805 860
805 916
805 931
805 838
806 973
806 826
806 978
806 908
806 864
806 847
806 988
807 978
807 996
807 815
807 850
807 873
807 919
808 918
808 926
809 979
809 853
809 885
809 820
809 968
809 967
809 919
809 877
809 916
809 871
809 906
809 990
810 834
810 920
810 922
811 993
811 874
811 975
811 986
811 964
811 959
811 976
811 831
811 974
811 985
811 935
811 883
811 991
811 881
812 899
812 979
812 858
812 821
812 930
812 898
812 867
812 980
812 925
812 841
812 900
813 820
813 979
813 871
813 825
813 940
813 866
813 989
813 823
813 862
813 867
813 868
813 841
813 822
814 979
814 945
814 820
814 877
814 971
814 968
814 980
814 861
814 960
814 906
814 919
814 967
815 899
815 882
815 843
816 927
816 920
816 954
816 958
816 926
816 982
817 830
817 972
818 925
818 972
818 874
818 851
818 917
818 942
818 995
818 908
818 831
818 860
818 871
818 910
818 935
818 858
818 964
818 887
819 842
819 958
819 860
819 928
819 931
819 873
819 890
820 892
820 858
820 886
820 949
821 900
821 838
821 854
822 945
822 849
823 826
823 884
823 925
824 899
824 898
824 903
824 913
824 854
824 947
824 868
824 855
824 915
824 972
824 848
824 930
824 922
824 933
825 841
825 990
826 998
826 871
826 940
826 884
826 905
826 862
826 839
826 933
826 983
826 887
826 992
826 899
826 925
826 995
827 838
827 958
827 978
827 832
828 850
828 961
828 998
829 925
829 935
829 888
829 924
829 965
829 853
830 904
830 957
830 877
830 885
830 967
830 964
830 975
831 946
831 925
831 920
832 833
832 947
832 933
832 991
832 898
832 853
832 885
832 919
832 969
832 838
832 949
833 854
833 933
833 934
834 928
834 872
834 863
834 887
834 991
834 893
834 897
834 899
834 874
834 867
834 920
835 998
835 891
835 854
836 920
836 867
837 936
837 844
837 957
837 961
837 909
837 922
838 841
838 958
838 854
838 893
838 913
838 949
838 933
838 996
838 943
838 855
838 915
838 941
838 858
838 921
838 924
838 853
838 994
838 963
838 982
838 992
838 971
838 975
838 987
839 849
839 910
839 847
839 964
839 899
839 846
839 898
840 906
840 970
841 967
841 957
841 862
841 940
841 866
841 844
841 998
841 937
841 969
841 879
841 978
841 916
841 941
842 853
842 979
843 899
843 982
843 941
843 896
843 904
843 890
843 939
843 921
844 967
844 986
844 909
845 927
846 847
846 880
846 990
846 985
847 872
847 886
847 990
848 861
848 864
849 925
849 964
849 981
849 872
849 953
850 873
850 956
850 936
850 931
850 906
851 962
851 964
851 975
851 986
853 877
853 885
853 906
853 927
853 868
854 898
854 941
854 911
854 879
854 886
854 988
854 868
854 933
854 949
854 909
855 979
855 868
856 911
856 901
856 949
857 869
857 918
857 975
857 995
857 988
858 967
858 962
858 972
858 900
859 867
859 922
860 916
860 955
860 946
860 870
860 929
860 921
860 988
860 972
861 880
861 958
861 979
861 873
862 984
862 953
862 935
863 877
863 884
863 964
863 867
863 920
863 922
864 953
864 872
864 948
864 924
864 921
865 867
865 933
865 988
866 895
866 878
866 884
866 925
866 922
867 899
867 908
867 914
867 920
867 922
867 884
867 928
867 953
867 971
867 925
867 913
868 982
868 953
868 893
868 995
869 897
869 883
869 890
869 943
869 977
869 871
869 981
870 926
871 987
871 977
871 908
871 921
872 995
872 981
873 904
873 948
874 885
874 964
874 995
875 894
875 900
876 916
876 925
876 935
876 949
877 980
877 967
877 971
877 945
877 896
877 906
877 984
877 942
877 998
877 974
877 909
877 922
878 925
878 977
878 920
878 988
879 979
879 989
879 988
880 936
880 967
880 953
881 953
881 985
881 949
881 926
882 899
882 954
882 885
882 922
883 897
883 890
883 937
883 898
884 940
884 925
884 949
885 968
885 963
885 980
885 904
885 967
885 979
885 923
885 952
885 889
885 912
885 991
885 886
885 919
886 978
886 984
886 943
886 893
886 995
887 919
887 920
888 906
888 911
889 892
890 922
891 909
891 920
891 922
892 926
893 933
894 999
894 984
894 944
894 898
895 918
896 979
897 989
897 932
897 907
897 993
898 997
898 960
898 920
898 942
898 933
898 935
899 954
900 992
900 991
900 913
900 902
900 927
900 933
901 956
901 906
902 927
903 999
903 919
903 949
904 970
904 906
904 979
905 925
905 926
906 980
906 923
906 919
906 979
906 925
906 990
906 939
906 932
907 920
908 942
908 995
909 988
909 999
911 990
912 975
912 935
913 919
913 935
913 933
913 949
915 933
916 932
916 931
917 978
917 962
917 995
918 973
918 959
918 986
918 976
918 962
918 964
918 975
918 995
918 981
919 945
919 968
919 936
920 949
920 922
920 958
920 924
920 948
920 962
921 951
921 938
923 947
923 967
923 937
924 926
925 961
925 998
925 989
925 977
926 983
926 980
926 954
926 987
927 938
927 930
927 992
927 948
927 949
927 956
928 955
928 939
928 970
928 966
929 998
929 953
929 981
929 933
929 949
930 935
931 946
931 967
931 939
932 954
932 979
933 993
933 996
933 976
933 959
933 980
933 992
934 950
935 990
935 938
935 944
935 969
936 966
937 949
938 985
939 964
939 993
939 995
940 998
941 949
942 995
942 976
942 985
942 962
942 964
942 975
943 977
943 983
944 976
946 974
947 949
949 958
949 978
950 965
952 997
952 953
953 974
954 955
956 986
956 998
956 983
959 977
959 995
962 995
962 994
964 986
964 993
964 975
965 988
966 973
966 971
967 971
967 968
967 995
968 979
970 976
972 995
973 989
973 988
974 995
975 985
975 986
975 991
975 995
976 995
977 992
978 991
978 981
982 995
986 987
986 995
988 991
988 994
990 999
995 996
