0 160
0 772
0 705
0 599
0 673
0 75
0 72
0 46
0 155
0 304
0 962
0 209
0 587
0 322
0 40
0 47
0 563
0 105
0 195
0 730
0 229
0 754
0 756
0 779
0 826
0 325
0 838
0 356
0 886
0 406
0 953
0 964
0 485
0 656
0 727
1 716
1 617
1 11
1 49
1 682
1 942
1 132
1 776
1 81
1 762
1 473
1 236
1 940
1 460
1 542
1 89
1 668
1 595
1 944
1 879
1 375
1 409
1 16
1 825
1 389
1 44
1 661
1 286
1 71
1 119
1 98
1 443
1 993
2 907
2 445
2 834
2 603
2 386
2 241
2 41
2 289
2 167
2 510
2 461
2 812
2 530
2 938
2 606
2 501
2 519
2 840
2 871
2 210
2 298
2 693
2 347
2 720
2 309
2 659
2 388
2 870
2 220
2 697
2 757
2 180
2 933
2 832
2 398
2 664
2 53
2 322
2 782
2 869
2 13
2 692
2 777
2 465
2 188
2 368
2 773
2 612
2 266
2 593
2 44
2 376
2 482
2 87
2 345
2 196
2 154
2 131
2 730
2 507
2 884
2 698
2 176
2 259
2 809
2 920
2 413
2 981
3 708
3 749
3 372
3 228
3 998
3 866
3 102
3 735
3 300
3 556
3 497
3 701
3 527
3 537
3 546
3 341
3 95
3 138
3 669
3 932
3 116
3 496
3 398
3 920
4 736
4 284
4 715
4 536
4 205
4 744
4 919
4 201
4 111
4 452
4 422
4 283
4 6
4 271
4 161
4 830
4 568
4 328
4 462
4 854
4 494
4 433
5 234
5 577
5 34
5 175
5 307
5 7
5 136
5 649
5 117
5 522
5 727
5 367
5 957
5 423
5 270
5 694
5 359
5 913
5 651
5 561
5 593
5 981
5 354
5 103
5 890
5 252
6 681
6 38
6 217
6 722
6 287
6 977
6 492
6 637
6 145
6 724
6 714
6 399
6 620
6 57
6 122
6 568
6 803
6 823
6 126
6 207
6 656
6 124
6 494
6 353
6 201
6 462
6 357
6 111
6 608
6 503
6 989
6 266
6 259
6 511
6 445
6 81
6 161
6 830
6 452
6 328
6 854
6 360
6 249
7 307
7 369
7 363
7 361
7 675
7 66
7 651
7 117
7 133
7 225
7 101
7 635
7 32
7 610
7 586
7 452
7 522
7 146
7 957
7 717
7 593
7 86
7 727
7 354
7 103
7 367
8 621
8 31
8 790
8 863
8 405
8 157
8 748
8 34
8 768
8 466
8 998
8 183
8 23
8 29
8 564
8 77
8 123
8 142
8 761
8 798
8 841
8 366
8 428
8 975
8 464
8 990
8 495
8 10
8 686
9 631
9 181
9 829
9 383
9 759
9 583
9 355
9 216
9 753
9 168
9 270
9 945
9 954
9 118
9 780
10 426
10 518
10 738
10 550
10 949
10 703
10 435
10 993
10 926
10 393
10 453
10 925
10 699
10 678
10 974
10 581
10 947
10 547
10 369
10 686
10 707
10 637
10 235
10 497
10 585
10 737
10 362
10 576
10 971
10 422
10 718
10 536
10 908
10 432
10 20
10 599
10 90
10 65
10 197
10 379
10 919
10 645
10 849
10 950
10 416
10 590
10 342
10 17
10 196
10 307
10 22
10 36
10 751
10 639
10 205
10 677
10 177
10 202
10 446
10 295
10 301
10 811
10 676
10 175
10 385
10 223
10 158
10 744
10 535
10 49
10 445
10 395
10 544
10 894
10 946
10 138
10 399
10 304
10 559
10 444
10 128
10 983
10 759
10 687
10 468
10 548
10 589
10 743
10 312
10 371
10 620
10 309
11 263
11 473
11 89
11 100
11 940
11 970
11 879
11 762
11 236
11 375
11 999
11 94
11 843
11 661
11 71
11 98
11 132
11 668
11 818
11 744
11 888
11 198
11 569
11 286
11 682
11 944
11 119
11 763
11 554
11 23
11 281
11 174
12 691
12 67
12 311
12 671
12 618
12 222
12 478
12 474
12 648
12 736
12 913
12 391
12 454
12 290
12 986
12 284
12 445
12 116
12 266
12 686
12 137
12 169
12 28
12 586
12 592
12 83
12 85
12 108
12 627
12 154
12 684
12 722
12 233
12 234
12 758
12 287
12 827
12 850
12 348
12 877
12 419
12 427
12 995
12 488
12 548
12 205
12 312
13 401
13 179
13 551
13 129
13 453
13 46
13 105
13 954
13 88
13 848
13 665
13 41
13 659
13 174
13 176
13 203
13 241
13 254
13 259
13 773
13 296
13 812
13 869
13 920
13 413
13 933
13 501
13 510
14 932
14 995
14 268
14 114
14 565
14 881
14 253
14 577
14 324
14 895
14 598
14 584
14 78
14 208
14 551
14 597
14 459
14 629
14 482
14 507
14 464
14 355
14 769
14 720
14 79
14 345
14 876
14 645
14 307
14 497
14 105
14 229
14 854
15 533
15 521
15 524
15 45
15 219
15 491
15 370
15 701
15 178
15 624
15 689
15 951
15 291
15 308
15 818
15 131
15 731
15 230
15 578
15 632
15 640
15 654
15 613
15 189
15 274
15 486
15 674
15 137
15 893
15 516
15 873
15 248
15 380
15 493
15 377
15 591
15 936
15 128
15 685
15 216
15 309
15 656
15 326
15 211
15 358
15 817
15 898
15 644
15 383
15 606
16 73
16 796
16 269
16 928
16 244
16 836
16 922
16 934
16 666
16 200
16 226
16 775
16 199
16 135
16 97
16 814
16 449
16 935
16 336
16 909
16 87
16 772
16 293
16 741
16 833
16 209
16 569
16 636
16 421
16 698
16 979
16 988
16 628
16 976
16 867
16 313
16 824
16 511
16 260
16 587
16 169
16 965
16 851
16 439
16 76
16 134
16 60
16 408
16 160
16 915
16 109
16 771
16 860
16 822
16 156
16 631
16 820
16 980
16 702
16 351
16 401
16 426
16 378
16 884
16 376
16 424
16 225
16 933
16 509
16 85
16 292
16 866
16 155
16 620
16 319
16 197
16 22
16 41
16 29
16 961
16 575
16 68
16 165
16 688
16 690
16 215
16 786
16 358
16 395
16 407
16 31
16 291
16 654
16 276
16 905
16 229
17 162
17 459
17 329
17 523
17 581
17 235
17 973
17 550
17 362
17 645
17 576
17 949
17 686
17 165
17 218
17 614
17 988
17 22
17 547
17 548
17 599
17 611
17 637
17 205
17 738
17 744
17 301
17 369
17 371
17 919
17 925
17 974
18 481
18 98
18 427
18 518
18 621
18 127
18 966
18 752
18 212
18 987
18 570
18 549
18 924
18 623
18 227
18 638
18 706
18 166
18 290
18 665
18 711
18 70
18 710
18 472
18 349
18 93
18 374
18 376
18 301
18 906
18 742
19 595
19 290
19 482
19 961
19 808
19 34
19 801
19 157
19 960
19 835
19 939
19 250
19 442
19 978
19 319
19 29
19 480
19 841
19 31
19 444
19 297
19 405
19 77
19 466
19 415
19 150
19 662
19 152
19 278
19 476
19 409
19 762
19 23
19 555
19 564
19 123
19 642
19 142
19 705
19 761
19 329
19 428
19 975
19 492
19 495
19 176
19 593
20 173
20 358
20 460
20 299
20 437
20 370
20 637
20 224
20 435
20 576
20 295
20 223
20 104
20 472
20 940
20 535
20 36
20 581
20 183
20 197
20 744
20 312
20 919
20 431
20 497
20 438
21 172
21 129
21 513
21 852
21 499
21 992
21 496
21 455
21 845
21 739
21 996
21 792
21 153
21 806
21 448
21 622
21 319
21 492
21 893
21 178
21 441
21 704
21 298
21 115
22 498
22 151
22 523
22 678
22 446
22 490
22 435
22 283
22 41
22 284
22 536
22 51
22 65
22 589
22 611
22 637
22 686
22 177
22 197
22 223
22 224
22 738
22 743
22 744
22 811
22 301
22 312
22 342
22 369
22 371
22 919
22 203
22 398
23 794
23 551
23 495
23 442
23 660
23 157
23 415
23 279
23 539
23 34
23 428
23 798
23 963
23 975
23 790
23 184
23 507
23 466
23 297
23 801
23 841
23 748
23 761
23 480
23 808
23 255
23 768
23 642
23 29
23 492
23 543
23 863
23 705
23 835
23 985
23 329
23 848
23 429
23 564
23 505
23 978
23 123
23 142
23 464
23 960
23 858
23 346
23 366
23 977
23 990
23 319
23 250
23 939
23 405
23 446
23 897
23 933
23 754
23 664
23 536
23 414
23 653
23 687
23 785
23 37
23 412
23 661
23 468
23 555
23 77
23 365
23 444
23 544
23 886
24 527
24 533
24 138
24 749
24 709
24 257
24 42
24 658
24 735
24 498
24 816
24 341
24 791
24 883
24 859
24 556
24 120
24 932
24 442
24 895
24 343
24 662
24 707
24 300
24 333
24 604
24 862
24 95
24 102
24 669
24 228
24 582
24 169
24 255
24 645
24 205
24 369
24 897
25 159
25 722
25 142
25 312
25 769
25 525
25 528
25 541
25 673
25 672
25 246
25 344
25 283
25 420
25 948
25 125
26 472
26 898
26 536
26 949
26 519
26 180
26 777
26 606
26 680
26 347
26 259
26 203
26 254
26 696
26 266
26 571
26 241
26 388
26 780
26 322
26 870
26 176
26 933
26 683
26 210
26 54
26 869
26 612
26 413
26 757
26 323
26 720
26 417
26 501
26 809
26 664
26 296
26 220
26 920
26 773
26 782
26 188
26 465
26 667
26 719
26 425
26 41
26 398
26 424
26 461
26 368
26 832
26 53
26 167
26 937
26 917
26 267
26 309
26 510
26 733
26 442
26 617
26 489
26 35
26 96
26 436
26 514
26 790
26 159
26 856
26 973
26 371
26 247
26 78
26 681
26 659
26 174
26 298
26 321
27 729
27 74
27 864
27 227
27 792
27 104
27 508
27 280
27 784
27 726
27 506
27 911
27 305
27 359
27 434
27 778
27 993
27 69
27 127
27 544
27 185
27 475
27 487
28 341
28 284
28 505
28 818
28 524
28 740
28 370
28 951
28 521
28 248
28 578
28 898
28 731
28 493
28 640
28 654
28 486
28 894
28 644
28 308
28 624
28 189
28 443
28 674
28 516
28 441
28 380
28 520
28 409
28 586
28 777
28 278
28 233
28 792
28 944
28 593
28 291
28 817
28 591
28 613
28 873
28 893
28 811
29 669
29 688
29 977
29 831
29 705
29 428
29 77
29 297
29 405
29 768
29 863
29 492
29 444
29 250
29 748
29 642
29 366
29 963
29 319
29 978
29 858
29 798
29 586
29 692
29 424
29 233
29 610
29 618
29 31
29 555
29 123
29 157
29 761
29 255
29 790
29 801
29 841
29 329
29 442
29 975
29 507
30 687
30 268
30 798
30 797
30 839
30 847
30 451
30 887
30 256
30 888
30 903
30 82
30 88
30 163
30 742
30 80
30 504
30 292
30 525
30 845
30 603
30 363
30 296
31 883
31 631
31 284
31 835
31 415
31 855
31 279
31 939
31 366
31 464
31 429
31 466
31 442
31 558
31 492
31 34
31 505
31 801
31 543
31 153
31 756
31 872
31 93
31 555
31 564
31 77
31 123
31 142
31 157
31 761
31 798
31 831
31 841
31 329
31 975
31 507
31 32
31 72
31 606
32 169
32 401
32 558
32 536
32 385
32 379
32 90
32 242
32 227
32 548
32 589
32 639
32 641
32 193
32 205
32 718
32 223
32 743
32 744
32 301
32 371
32 477
32 497
32 838
32 433
33 526
33 403
33 787
33 278
33 916
33 159
33 931
33 106
33 148
33 643
33 67
33 442
33 223
33 802
33 39
33 687
33 73
33 228
33 407
33 459
33 990
33 830
33 829
34 884
34 121
34 480
34 798
34 768
34 250
34 855
34 985
34 329
34 801
34 555
34 436
34 683
34 400
34 564
34 77
34 642
34 157
34 761
34 841
34 366
34 442
34 464
34 492
34 201
34 249
35 652
35 394
35 187
35 760
35 691
35 815
35 330
35 819
35 316
35 518
35 416
35 973
35 679
35 821
35 991
35 209
35 671
35 301
36 856
36 76
36 684
36 632
36 523
36 422
36 947
36 193
36 385
36 738
36 490
36 576
36 145
36 637
36 545
36 926
36 497
36 342
36 971
36 276
36 968
36 359
36 117
36 471
36 456
36 585
36 699
36 205
36 224
36 744
36 811
36 301
36 371
36 919
36 964
37 595
37 233
37 197
37 477
37 458
37 392
37 795
37 288
37 40
37 872
37 146
37 385
37 256
37 46
37 64
37 105
37 704
37 229
37 756
37 264
37 779
37 294
37 813
37 826
37 325
37 838
37 868
37 885
37 384
37 906
37 406
37 921
37 953
37 485
37 111
38 128
38 770
38 130
38 517
38 900
38 532
38 941
38 989
38 147
38 140
38 567
38 243
38 221
38 896
38 810
38 204
38 99
38 263
38 540
38 91
38 899
38 206
38 889
38 240
38 579
38 552
38 469
38 608
38 566
38 484
38 928
38 459
38 397
38 529
38 410
38 49
38 338
38 609
38 755
38 862
38 867
38 520
38 183
38 672
39 643
39 403
39 788
39 277
39 787
39 153
39 159
39 802
39 106
39 320
39 559
39 687
39 148
39 695
39 931
39 166
39 170
39 73
39 916
39 806
39 781
39 307
39 857
39 280
39 683
39 967
39 88
40 576
40 331
40 155
40 842
40 534
40 826
40 335
40 785
40 72
40 795
40 964
40 105
40 789
40 281
40 387
40 886
40 704
40 839
40 404
40 246
40 261
40 457
40 356
40 410
40 46
40 198
40 406
40 797
40 195
40 805
40 476
40 43
40 754
40 807
40 962
40 730
40 872
40 75
40 813
40 396
40 721
40 906
40 774
40 904
40 438
40 62
40 927
40 294
40 485
40 799
40 50
40 779
40 834
40 275
40 700
40 756
40 563
40 190
40 304
40 384
40 885
40 892
40 430
40 44
40 868
40 953
40 969
40 288
40 646
40 47
40 967
40 264
40 838
40 69
40 750
40 64
40 394
40 274
40 358
40 492
40 863
40 181
40 499
40 353
40 295
40 663
40 183
40 734
40 514
40 943
40 682
40 894
40 206
40 890
40 128
40 778
40 229
41 669
41 690
41 970
41 83
41 800
41 77
41 105
41 398
41 780
41 53
41 241
41 433
41 719
41 388
41 612
41 167
41 417
41 782
41 322
41 937
41 461
41 368
41 254
41 298
41 692
41 501
41 809
41 180
41 409
41 571
41 933
41 321
41 203
41 510
41 696
41 773
41 606
41 869
41 664
41 659
41 832
41 917
41 413
41 661
41 913
41 626
41 522
41 545
41 753
41 763
41 671
41 55
41 403
41 514
41 818
41 174
41 176
41 220
41 259
41 777
41 812
41 920
42 552
42 810
42 533
42 546
42 862
42 866
42 804
42 332
42 95
42 556
42 932
42 120
42 228
42 914
42 658
42 257
42 859
42 597
42 524
42 440
42 439
42 341
42 102
42 149
42 669
42 972
42 735
42 998
42 502
42 154
42 841
42 371
42 56
42 646
42 229
42 781
42 809
43 891
43 147
43 404
43 325
43 892
43 387
43 288
43 64
43 294
43 696
43 53
43 433
43 46
43 105
43 646
43 700
43 704
43 195
43 721
43 754
43 756
43 805
43 813
43 826
43 838
43 331
43 885
43 901
43 906
43 921
43 457
43 298
44 786
44 834
44 392
44 901
44 50
44 805
44 294
44 872
44 75
44 797
44 807
44 839
44 485
44 62
44 404
44 410
44 789
44 406
44 756
44 826
44 261
44 838
44 967
44 534
44 288
44 813
44 795
44 105
44 563
44 750
44 730
44 927
44 799
44 723
44 721
44 646
44 774
44 190
44 438
44 325
44 700
44 969
44 842
44 868
44 281
44 571
44 859
44 778
44 716
44 898
44 397
44 593
44 497
44 566
44 311
44 538
44 493
44 264
44 356
44 885
44 384
44 953
44 812
45 991
45 521
45 817
45 178
45 731
45 689
45 624
45 740
45 578
45 357
45 285
45 861
45 308
45 370
45 377
45 898
45 644
45 951
45 993
45 438
45 953
45 309
46 588
46 685
46 555
46 951
46 534
46 921
46 387
46 964
46 438
46 838
46 728
46 62
46 842
46 750
46 47
46 805
46 704
46 384
46 774
46 730
46 826
46 721
46 406
46 261
46 155
46 756
46 105
46 886
46 785
46 325
46 927
46 75
46 892
46 72
46 64
46 246
46 872
46 458
46 904
46 807
46 476
46 839
46 190
46 198
46 723
46 885
46 969
46 294
46 356
46 813
46 834
46 962
46 275
46 195
46 392
46 281
46 50
46 789
46 229
46 646
46 335
46 304
46 797
46 130
46 699
46 742
46 234
46 349
46 859
46 423
46 82
46 118
46 570
46 527
46 707
46 770
46 154
46 988
46 248
46 563
46 264
46 967
46 457
47 698
47 244
47 142
47 193
47 396
47 842
47 485
47 410
47 799
47 387
47 476
47 838
47 155
47 457
47 50
47 404
47 728
47 458
47 72
47 96
47 671
47 952
47 167
47 514
47 563
47 105
47 646
47 195
47 721
47 229
47 754
47 756
47 264
47 779
47 826
47 834
47 325
47 406
47 927
47 953
47 967
47 259
47 782
48 788
48 909
48 185
48 446
48 92
48 500
48 878
48 657
48 338
48 781
48 956
48 694
48 626
48 255
48 433
48 138
48 959
49 102
49 998
49 942
49 944
49 81
49 940
49 375
49 121
49 71
49 84
49 682
49 491
49 390
49 420
49 94
49 763
49 565
49 707
49 406
49 742
50 165
50 495
50 818
50 369
50 379
50 62
50 872
50 892
50 438
50 730
50 967
50 834
50 842
50 826
50 754
50 458
50 953
50 789
50 886
50 198
50 387
50 563
50 246
50 704
50 839
50 797
50 410
50 901
50 779
50 288
50 534
50 723
50 728
50 476
50 457
50 430
50 750
50 807
50 229
50 353
50 648
50 705
50 202
50 682
50 760
50 110
50 675
50 205
50 159
50 727
50 105
50 646
50 756
50 813
50 838
50 868
50 885
50 927
50 964
50 485
50 501
51 652
51 628
51 442
51 818
51 301
51 193
51 196
51 949
51 371
51 514
51 919
51 393
51 479
51 548
51 183
51 707
51 303
51 633
51 848
51 930
51 589
51 599
51 676
51 703
51 223
51 312
51 342
51 369
51 926
51 436
51 974
51 497
52 395
52 108
52 268
52 551
52 344
52 577
52 245
52 482
52 784
52 223
52 324
52 459
52 79
52 208
52 598
52 629
52 613
52 545
52 718
52 105
52 885
52 927
52 368
53 313
53 378
53 986
53 370
53 585
53 519
53 713
53 659
53 680
53 180
53 897
53 465
53 289
53 510
53 174
53 938
53 693
53 203
53 220
53 612
53 697
53 321
53 497
53 140
53 354
53 844
53 706
53 725
53 853
53 571
53 606
53 176
53 780
53 296
53 298
53 832
53 347
53 869
53 386
53 920
53 413
53 433
54 348
54 391
54 419
54 801
54 841
54 530
54 719
54 417
54 809
54 869
54 680
54 696
54 897
54 167
54 980
54 988
54 94
54 194
54 606
54 659
54 174
54 176
54 713
54 220
54 241
54 254
54 259
54 777
54 296
54 298
54 812
54 321
54 368
54 398
54 920
54 413
54 933
54 433
54 501
55 579
55 877
55 975
55 756
55 161
55 201
55 111
55 830
55 854
55 360
55 724
55 314
55 619
55 122
55 539
55 358
55 536
55 568
55 452
55 714
55 86
56 770
56 282
56 154
56 512
56 905
56 525
56 783
56 283
56 420
56 168
56 948
56 63
56 302
56 910
56 326
56 673
56 672
56 504
56 223
56 708
56 519
56 61
57 856
57 575
57 822
57 715
57 464
57 656
57 619
57 201
57 625
57 207
57 724
57 823
57 568
57 124
57 192
57 854
57 271
57 940
57 445
57 248
57 864
57 578
57 955
57 452
57 462
57 111
57 417
58 698
58 454
58 987
58 726
58 523
58 535
58 536
58 547
58 550
58 235
58 594
58 158
58 224
58 636
58 298
58 693
58 576
58 645
58 145
58 197
58 738
58 743
58 744
58 301
58 371
58 919
58 949
58 756
58 886
59 883
59 860
59 909
59 511
59 213
59 628
59 351
59 965
59 915
59 698
59 980
59 867
59 822
59 350
59 583
59 73
59 575
59 582
59 135
59 666
59 165
59 690
59 217
59 786
59 814
59 358
59 884
59 395
59 401
59 407
59 408
59 988
59 555
59 504
60 658
60 260
60 702
60 395
60 135
60 68
60 113
60 217
60 976
60 814
60 269
60 160
60 988
60 313
60 820
60 741
60 188
60 441
60 455
60 886
60 812
60 575
60 87
60 666
60 156
60 165
60 169
60 690
60 698
60 199
60 716
60 244
60 786
60 860
60 867
60 358
60 401
60 918
60 578
60 981
61 169
61 512
61 905
61 139
61 525
61 528
61 283
61 672
61 420
61 125
61 63
61 302
61 673
61 769
61 910
61 504
61 948
61 326
61 783
61 246
61 952
61 425
61 497
61 742
61 723
61 692
62 815
62 87
62 351
62 488
62 93
62 534
62 64
62 246
62 325
62 838
62 294
62 335
62 805
62 140
62 520
62 923
62 170
62 981
62 195
62 229
62 754
62 756
62 886
62 906
62 406
62 927
62 438
62 953
62 964
62 485
62 659
63 749
63 329
63 369
63 769
63 905
63 139
63 783
63 283
63 672
63 948
63 420
63 510
63 962
63 468
63 504
63 125
63 813
63 259
63 602
64 688
64 995
64 123
64 155
64 826
64 72
64 406
64 458
64 797
64 457
64 264
64 476
64 646
64 281
64 404
64 774
64 410
64 275
64 723
64 261
64 795
64 356
64 886
64 838
64 834
64 563
64 756
64 396
64 906
64 331
64 288
64 964
64 813
64 430
64 805
64 737
64 409
64 762
64 454
64 527
64 192
64 145
64 968
64 213
64 577
64 229
64 754
64 868
64 967
64 163
64 812
64 361
65 503
65 575
65 786
65 514
65 523
65 535
65 536
65 641
65 431
65 373
65 678
65 993
65 432
65 193
65 949
65 950
65 677
65 737
65 581
65 550
65 301
65 223
65 90
65 177
65 412
65 611
65 393
65 175
65 109
65 802
65 899
65 943
65 970
65 732
65 770
65 907
65 590
65 645
65 145
65 183
65 707
65 205
65 738
65 744
65 312
65 849
65 369
65 371
65 925
65 926
65 446
65 497
65 195
65 967
65 363
65 561
66 526
66 360
66 133
66 136
66 649
66 522
66 423
66 103
66 635
66 117
66 529
66 874
66 602
66 272
66 607
66 361
66 890
66 745
66 324
66 199
66 90
66 78
66 764
66 727
66 354
66 367
67 900
67 165
67 454
67 440
67 864
67 800
67 427
67 83
67 509
67 554
67 390
67 400
67 650
67 474
67 237
67 348
67 671
67 850
67 108
67 722
67 648
67 445
67 287
67 470
67 468
67 995
67 85
67 290
67 447
67 861
67 233
67 685
67 306
67 877
67 778
67 391
67 116
67 592
67 303
67 234
67 488
67 952
67 151
67 311
67 653
67 929
67 655
67 478
67 725
67 284
67 194
67 758
67 68
67 612
67 254
67 652
67 922
67 407
67 746
67 141
67 799
67 895
67 349
67 975
67 175
67 411
67 154
67 684
67 179
67 736
67 794
67 419
67 951
67 371
68 310
68 833
68 569
68 820
68 698
68 822
68 935
68 712
68 976
68 135
68 378
68 313
68 631
68 76
68 156
68 582
68 979
68 741
68 358
68 215
68 134
68 814
68 211
68 401
68 702
68 770
68 433
68 869
68 462
68 691
68 590
68 390
68 87
68 113
68 666
68 165
68 688
68 217
68 836
68 884
68 428
68 789
69 291
69 563
69 458
69 807
69 927
69 723
69 826
69 534
69 75
69 410
69 798
69 89
69 157
69 105
69 721
69 229
69 754
69 756
69 264
69 785
69 813
69 325
69 838
69 356
69 885
69 384
69 406
69 953
69 457
69 409
70 211
70 515
70 518
70 152
70 549
70 570
70 966
70 127
70 765
70 711
70 605
70 227
70 924
70 623
70 456
70 665
70 752
70 873
70 678
70 918
70 375
70 146
70 472
70 349
70 93
70 564
70 718
70 667
71 87
71 776
71 661
71 542
71 762
71 763
71 375
71 460
71 100
71 668
71 879
71 81
71 84
71 473
71 970
71 999
71 843
71 732
71 96
71 409
71 764
71 497
71 106
71 950
71 354
71 595
71 119
71 801
71 534
71 785
71 727
72 764
72 814
72 736
72 311
72 468
72 967
72 470
72 425
72 75
72 646
72 195
72 721
72 756
72 264
72 779
72 813
72 838
72 356
72 885
72 953
72 458
72 485
72 719
73 526
73 788
73 787
73 278
73 802
73 931
73 170
73 403
73 643
73 277
73 159
73 106
73 916
73 153
73 74
73 695
73 559
73 687
73 166
73 632
73 758
73 96
73 485
73 884
73 651
74 403
74 788
74 277
74 787
74 916
74 153
74 931
74 170
74 166
74 695
74 159
74 320
74 148
74 802
74 123
74 280
74 300
74 162
74 154
74 585
74 611
74 955
74 386
74 367
75 862
75 233
75 861
75 826
75 404
75 793
75 687
75 235
75 195
75 721
75 756
75 779
75 813
75 325
75 838
75 868
75 885
75 927
75 259
76 575
76 199
76 796
76 582
76 449
76 87
76 628
76 772
76 741
76 820
76 631
76 851
76 775
76 395
76 511
76 471
76 483
76 439
76 587
76 401
76 884
76 408
76 426
76 226
76 211
76 215
76 716
76 310
76 814
76 260
76 980
76 690
76 378
76 217
76 860
76 244
76 846
76 258
76 269
76 358
76 698
76 934
76 569
76 293
76 288
76 458
76 112
76 498
76 835
76 461
76 562
76 268
76 93
76 985
76 949
76 666
76 165
76 712
76 771
76 824
76 867
76 918
76 407
76 935
76 778
76 348
76 308
77 609
77 102
77 555
77 442
77 960
77 858
77 142
77 790
77 963
77 428
77 415
77 660
77 123
77 808
77 975
77 978
77 564
77 466
77 507
77 558
77 495
77 863
77 705
77 798
77 761
77 429
77 505
77 977
77 748
77 184
77 848
77 841
77 543
77 801
77 492
77 939
77 985
77 835
77 642
77 768
77 464
77 157
77 297
77 365
77 250
77 279
77 366
77 855
77 539
77 319
77 329
77 405
77 990
77 961
77 608
77 570
77 225
77 700
77 633
77 652
77 559
77 936
77 853
77 356
77 585
77 669
77 498
77 264
77 145
77 444
77 506
77 754
77 298
78 820
78 358
78 995
78 268
78 551
78 580
78 324
78 482
78 577
78 79
78 584
78 597
78 837
78 253
78 114
78 876
78 208
78 895
78 728
78 272
78 100
78 402
78 236
78 629
78 245
78 740
78 230
78 175
78 949
78 868
78 321
79 551
79 565
79 208
79 881
79 459
79 577
79 943
79 580
79 584
79 253
79 598
79 324
79 597
79 837
79 268
79 876
79 114
79 982
79 482
79 573
79 766
79 245
79 344
79 345
79 895
79 797
79 994
79 865
79 237
79 511
79 462
79 91
79 273
79 352
79 371
79 925
79 616
79 309
79 433
80 662
80 847
80 742
80 853
80 327
80 141
80 616
80 549
80 411
80 82
80 363
80 296
81 661
81 942
81 682
81 970
81 843
81 119
81 762
81 940
81 668
81 94
81 944
81 98
81 460
81 732
81 96
81 107
81 879
81 595
81 999
81 132
81 851
81 492
81 850
81 351
81 800
81 915
81 121
81 653
81 841
81 745
82 690
82 217
82 918
82 163
82 327
82 847
82 853
82 888
82 610
82 363
82 903
82 742
82 887
82 603
82 221
82 409
82 420
82 613
82 88
82 616
83 293
83 618
83 554
83 861
83 284
83 233
83 292
83 303
83 419
83 234
83 116
83 437
83 237
83 194
83 793
83 390
83 929
83 306
83 445
83 311
83 653
83 290
83 474
83 986
83 913
83 736
83 633
83 827
83 800
83 685
83 440
83 85
83 337
83 382
83 655
83 650
83 509
83 864
83 427
83 684
83 454
83 488
83 179
83 222
83 447
83 794
83 586
83 348
83 470
83 400
83 722
83 108
83 468
83 151
83 478
83 592
83 639
83 785
83 882
83 453
83 904
83 451
83 911
83 467
83 449
83 610
83 383
83 479
83 775
83 669
83 627
83 154
83 671
83 877
83 993
84 102
84 138
84 666
84 132
84 668
84 940
84 682
84 460
84 595
84 119
84 970
84 100
84 121
84 107
84 236
84 286
84 473
84 880
84 420
84 819
84 577
84 178
84 98
84 946
84 800
84 434
84 662
85 935
85 586
85 222
85 488
85 382
85 671
85 348
85 233
85 445
85 427
85 722
85 913
85 108
85 116
85 618
85 237
85 318
85 655
85 151
85 478
85 390
85 194
85 592
85 474
85 179
85 287
85 218
85 685
85 234
85 725
85 736
85 778
85 284
85 877
85 793
85 827
85 311
85 986
85 864
85 303
85 154
85 292
85 633
85 447
85 758
85 440
85 470
85 995
85 344
85 294
85 544
85 490
85 798
85 969
85 251
85 109
85 119
85 984
85 646
85 771
85 783
85 818
85 627
85 684
85 794
85 800
85 850
85 454
85 742
85 981
86 749
86 427
86 629
86 676
86 223
86 797
86 136
86 522
86 675
86 191
86 717
86 593
86 354
86 367
86 890
86 143
86 561
86 626
86 802
86 304
86 912
86 103
86 117
86 635
86 252
87 569
87 575
87 930
87 156
87 336
87 965
87 628
87 310
87 395
87 471
87 918
87 439
87 483
87 702
87 860
87 988
87 317
87 109
87 786
87 378
87 814
87 313
87 631
87 97
87 407
87 408
87 851
87 833
87 269
87 922
87 511
87 698
87 160
87 822
87 771
87 772
87 909
87 796
87 690
87 211
87 401
87 414
87 775
87 209
87 716
87 449
87 884
87 226
87 666
87 113
87 980
87 215
87 915
87 351
87 260
87 169
87 712
87 258
87 653
87 379
87 830
87 756
87 727
87 168
87 327
87 128
87 895
87 530
87 966
87 307
87 436
87 165
87 200
87 820
87 867
87 935
87 722
87 427
87 352
87 809
88 215
88 918
88 586
88 419
88 621
88 205
88 646
88 956
88 141
88 662
88 853
88 256
88 847
88 363
88 327
88 742
88 369
88 895
88 616
89 935
89 132
89 668
89 942
89 682
89 970
89 460
89 595
89 119
89 764
89 612
89 308
89 121
89 763
89 752
89 223
89 331
89 927
90 814
90 909
90 407
90 935
90 586
90 808
90 415
90 536
90 545
90 938
90 637
90 699
90 193
90 707
90 197
90 205
90 223
90 224
90 738
90 744
90 811
90 301
90 369
90 371
90 919
90 412
90 925
90 926
90 993
90 910
90 730
91 896
91 770
91 899
91 900
91 902
91 147
91 579
91 484
91 989
91 983
91 204
91 130
91 532
91 552
91 221
91 517
91 99
91 553
91 240
91 128
91 243
91 214
91 500
91 247
91 222
91 194
91 870
91 836
91 608
91 609
91 481
91 755
91 736
91 223
91 357
92 735
92 698
92 408
92 935
92 454
92 605
92 707
92 105
92 657
92 959
92 694
92 883
92 974
92 506
92 878
92 753
92 519
93 862
93 134
93 518
93 152
93 966
93 711
93 349
93 605
93 376
93 623
93 765
93 127
93 621
93 924
93 987
93 324
93 596
93 581
93 724
93 638
93 157
93 949
94 238
94 661
94 542
94 942
94 595
94 375
94 460
94 98
94 682
94 244
94 218
94 759
94 121
94 722
94 374
94 939
94 890
95 257
95 527
95 533
95 791
95 333
95 341
95 537
95 120
95 862
95 735
95 749
95 498
95 671
95 920
95 944
95 102
95 883
95 669
95 932
95 172
95 972
95 228
95 998
95 539
95 797
95 406
96 579
96 824
96 132
96 776
96 286
96 542
96 940
96 682
96 944
96 970
96 843
96 460
96 119
96 732
96 999
96 121
96 762
96 638
96 564
96 288
96 384
96 111
97 537
97 582
97 628
97 716
97 401
97 336
97 690
97 909
97 407
97 851
97 134
97 569
97 426
97 846
97 712
97 918
97 511
97 165
97 860
97 631
97 636
97 358
97 299
97 143
97 326
97 131
97 709
97 750
97 109
97 160
97 698
97 199
97 209
97 217
97 741
97 244
97 786
97 395
97 408
97 922
97 988
97 284
97 544
97 396
98 532
98 358
98 132
98 542
98 940
98 682
98 970
98 460
98 732
98 999
98 307
98 476
98 104
98 763
98 287
98 710
98 480
98 205
98 886
98 494
99 896
99 770
99 899
99 900
99 902
99 140
99 147
99 532
99 540
99 553
99 941
99 579
99 983
99 608
99 518
99 171
99 438
99 484
99 755
99 260
99 179
99 454
100 712
100 824
100 979
100 776
100 542
100 940
100 942
100 682
100 595
100 257
100 762
100 763
101 397
101 735
101 234
101 578
101 898
101 384
101 174
101 501
101 146
101 143
101 285
101 423
101 561
101 717
101 593
101 225
101 354
101 103
101 745
101 367
102 532
102 533
102 300
102 341
102 709
102 859
102 332
102 865
102 816
102 791
102 658
102 503
102 669
102 972
102 498
102 537
102 162
102 735
102 450
102 372
102 546
102 804
102 502
102 149
102 257
102 172
102 749
102 862
102 998
102 994
102 932
102 883
102 527
102 228
102 290
102 898
102 727
102 243
102 942
102 343
102 223
102 284
102 442
102 704
102 406
102 296
103 151
103 811
103 494
103 133
103 522
103 146
103 957
103 191
103 981
103 727
103 225
103 354
103 361
103 272
103 423
103 136
103 117
103 593
103 874
103 634
103 285
103 675
103 602
103 143
103 367
103 880
103 163
103 928
103 547
103 186
103 970
103 300
103 770
103 852
103 252
104 153
104 775
104 867
104 918
104 725
104 911
104 784
104 663
104 508
104 185
104 544
104 844
104 280
104 687
104 158
104 210
104 126
104 506
105 233
105 622
105 838
105 904
105 384
105 906
105 335
105 155
105 476
105 750
105 967
105 229
105 912
105 704
105 534
105 921
105 962
105 842
105 834
105 886
105 728
105 969
105 275
105 261
105 387
105 304
105 807
105 839
105 356
105 410
105 964
105 805
105 325
105 457
105 797
105 892
105 785
105 723
105 927
105 795
105 774
105 868
105 430
105 246
105 563
105 288
105 264
105 458
105 756
105 294
105 392
105 799
105 198
105 646
105 901
105 406
105 528
105 313
105 869
105 798
105 300
105 395
105 125
105 851
105 323
105 806
105 478
105 787
105 195
105 813
105 826
105 885
105 832
106 526
106 788
106 787
106 278
106 916
106 159
106 931
106 170
106 687
106 695
106 403
106 468
106 311
106 871
106 533
106 217
106 646
106 519
106 920
106 225
107 300
107 341
107 132
107 661
107 942
107 595
107 119
107 843
107 542
107 762
107 357
107 730
107 327
107 995
107 654
107 307
107 457
107 363
107 593
108 389
108 883
108 998
108 627
108 778
108 685
108 292
108 488
108 337
108 382
108 194
108 509
108 653
108 437
108 864
108 290
108 391
108 554
108 237
108 725
108 722
108 474
108 995
108 447
108 303
108 116
108 470
108 952
108 311
108 684
108 671
108 794
108 284
108 445
108 154
108 618
108 877
108 390
108 151
108 427
108 299
108 648
108 318
108 179
108 415
108 697
108 696
108 584
108 458
108 258
108 282
108 174
108 845
108 235
108 888
108 736
108 233
108 758
108 454
108 911
108 321
108 361
109 575
109 587
109 860
109 449
109 358
109 814
109 698
109 930
109 569
109 833
109 666
109 582
109 511
109 217
109 690
109 741
109 979
109 351
109 199
109 775
109 965
109 471
109 836
109 851
109 113
109 934
109 313
109 636
109 922
109 935
109 486
109 110
109 385
109 373
109 726
109 624
109 444
109 790
109 628
109 134
109 135
109 156
109 160
109 165
109 867
109 401
109 407
109 408
109 988
109 233
109 131
109 834
109 406
109 696
110 341
110 846
110 765
110 129
110 448
110 455
110 715
110 996
110 614
110 622
110 277
110 510
110 488
111 454
111 523
111 271
111 803
111 568
111 452
111 328
111 854
111 360
111 620
111 494
111 192
111 714
111 357
111 724
111 619
111 830
111 823
111 207
111 353
111 625
111 955
111 186
111 201
111 399
111 126
111 656
111 161
111 776
111 344
111 792
111 507
111 434
111 915
111 284
111 529
112 217
112 615
112 489
112 875
112 171
112 946
112 531
112 538
112 150
112 131
112 979
112 339
112 730
112 839
113 310
113 846
113 822
113 741
113 930
113 421
113 740
113 697
113 631
113 156
113 690
113 698
113 215
113 217
113 244
113 293
113 814
113 351
113 867
113 358
113 935
113 979
113 233
113 193
113 436
114 268
114 565
114 573
114 837
114 208
114 982
114 598
114 345
114 352
114 482
114 629
114 245
114 536
114 607
115 758
115 157
115 301
115 312
115 241
115 136
115 146
115 593
115 354
115 367
115 880
115 249
115 649
115 638
115 512
115 117
116 148
116 341
116 628
116 586
116 592
116 488
116 460
116 851
116 151
116 154
116 671
116 684
116 685
116 722
116 736
116 233
116 234
116 758
116 794
116 284
116 877
116 391
116 454
116 995
116 873
116 312
116 519
116 680
117 199
117 711
117 324
117 434
117 826
117 953
117 803
117 136
117 529
117 285
117 675
117 561
117 191
117 593
117 225
117 354
117 361
117 367
117 649
117 635
117 717
117 522
117 602
117 651
117 745
117 143
117 249
117 133
117 981
117 957
117 890
117 663
117 491
117 496
117 728
117 700
117 603
117 998
117 719
117 330
117 718
117 252
118 592
118 778
118 523
118 838
118 270
118 954
118 829
118 583
118 596
118 630
118 216
118 355
118 759
118 661
118 513
118 214
118 781
118 383
118 742
119 668
119 942
119 682
119 970
119 460
119 595
119 236
119 843
119 542
119 732
119 617
119 473
119 661
119 121
119 940
119 944
119 879
119 286
119 762
119 132
119 854
119 793
119 690
119 767
119 596
119 804
119 991
119 827
119 454
119 765
120 257
120 527
120 791
120 546
120 300
120 556
120 816
120 341
120 866
120 332
120 883
120 932
120 862
120 914
120 998
120 149
120 159
120 399
120 413
120 136
120 778
120 138
120 735
120 228
120 245
120 346
120 590
120 431
120 451
121 788
121 542
121 940
121 942
121 595
121 732
121 776
121 617
121 132
121 286
121 661
121 999
121 763
121 588
121 500
121 556
121 442
121 287
121 447
121 854
122 644
122 514
122 839
122 356
122 572
122 568
122 201
122 462
122 207
122 854
122 360
122 619
122 161
122 357
122 399
122 192
122 803
122 378
122 189
122 440
122 267
122 290
123 820
123 860
123 942
123 555
123 564
123 848
123 863
123 705
123 858
123 428
123 990
123 978
123 466
123 255
123 365
123 790
123 855
123 963
123 960
123 939
123 961
123 507
123 184
123 660
123 492
123 444
123 157
123 985
123 329
123 975
123 495
123 442
123 761
123 505
123 429
123 798
123 366
123 279
123 415
123 748
123 533
123 328
123 763
123 857
123 535
123 634
123 316
123 614
123 399
123 899
123 463
123 142
123 841
123 977
123 591
123 563
123 834
123 887
124 661
124 637
124 811
124 803
124 314
124 568
124 714
124 207
124 854
124 620
124 494
124 625
124 357
124 328
124 724
124 192
124 161
124 823
124 830
124 126
124 399
124 260
124 609
124 518
124 496
124 848
124 438
125 193
125 436
125 512
125 769
125 905
125 783
125 420
125 168
125 302
125 948
125 139
125 541
125 256
125 206
125 366
126 642
126 841
126 365
126 873
126 514
126 813
126 438
126 656
126 271
126 823
126 572
126 568
126 192
126 328
126 201
126 462
126 854
126 360
126 620
126 494
126 381
126 321
127 884
127 725
127 518
127 152
127 966
127 710
127 472
127 349
127 621
127 752
127 374
127 904
127 953
128 983
128 469
128 140
128 540
128 263
128 214
128 770
128 206
128 989
128 243
128 889
128 481
128 941
128 755
128 899
128 204
128 566
128 240
128 608
128 532
128 130
128 553
128 147
128 896
128 968
128 484
128 253
128 220
128 328
128 769
128 752
128 488
128 885
128 900
128 579
128 609
128 156
128 519
129 228
129 569
129 627
129 488
129 455
129 746
129 852
129 622
129 513
129 747
129 476
129 989
129 448
129 739
129 642
129 241
130 770
130 579
130 240
130 608
130 214
130 243
130 900
130 889
130 553
130 484
130 927
130 635
130 410
130 517
130 263
130 147
130 670
130 552
130 941
130 567
130 204
130 206
130 983
130 609
130 481
130 755
130 669
130 731
130 718
130 398
131 900
131 791
131 293
131 348
131 963
131 521
131 818
131 308
131 578
131 591
131 873
131 370
131 898
131 178
131 377
131 350
131 688
131 235
131 881
131 644
131 674
131 506
131 197
131 457
132 988
132 595
132 762
132 944
132 460
132 999
132 473
132 776
132 668
132 879
132 995
132 746
132 598
132 517
132 661
132 940
132 970
132 919
132 910
133 401
133 653
133 311
133 995
133 465
133 649
133 745
133 402
133 957
133 635
133 607
133 191
133 935
133 492
133 153
133 143
133 593
133 981
133 727
133 252
134 484
134 575
134 628
134 258
134 226
134 358
134 511
134 702
134 269
134 351
134 928
134 688
134 408
134 310
134 583
134 837
134 393
134 666
134 690
134 698
134 199
134 712
134 209
134 215
134 217
134 867
134 378
134 935
134 988
134 428
134 196
134 197
134 925
135 788
135 575
135 582
135 628
135 636
135 209
135 483
135 358
135 822
135 426
135 814
135 226
135 979
135 716
135 156
135 702
135 867
135 471
135 965
135 313
135 373
135 149
135 797
135 530
135 145
135 402
135 551
135 165
135 690
135 698
135 244
135 846
135 884
135 401
135 407
135 988
135 234
135 779
136 989
136 763
136 189
136 535
136 906
136 272
136 890
136 361
136 529
136 634
136 561
136 602
136 635
136 957
136 402
136 146
136 354
136 518
136 357
136 983
136 618
136 481
136 992
136 143
136 252
137 520
137 524
137 578
137 873
137 370
137 377
137 380
137 640
137 644
137 818
137 654
137 731
137 178
137 591
137 274
137 313
137 620
137 861
137 976
137 210
137 674
137 230
137 576
138 533
138 546
138 300
138 816
138 333
138 341
138 866
138 883
138 749
138 859
138 372
138 257
138 669
138 498
138 527
138 301
138 879
138 943
138 281
138 658
138 932
138 972
138 735
138 228
138 998
138 179
138 366
138 795
138 438
138 413
138 933
139 860
139 843
139 495
139 475
139 497
139 326
139 769
139 672
139 910
139 279
139 747
139 688
139 525
139 528
139 756
139 356
139 256
139 252
140 896
140 770
140 899
140 900
140 566
140 567
140 902
140 810
140 552
140 243
140 945
140 807
140 728
140 147
140 532
140 553
140 579
140 989
140 608
140 609
140 484
140 755
140 666
140 442
140 624
141 608
141 688
141 903
141 603
141 616
141 853
141 363
141 451
141 428
141 565
141 662
141 887
141 920
141 933
142 567
142 988
142 558
142 564
142 705
142 329
142 841
142 808
142 642
142 848
142 539
142 505
142 279
142 480
142 495
142 748
142 346
142 977
142 297
142 801
142 960
142 863
142 761
142 975
142 939
142 466
142 405
142 429
142 492
142 985
142 855
142 157
142 464
142 507
142 365
142 858
142 768
142 366
142 555
142 920
142 477
142 993
142 695
142 570
142 775
142 191
142 566
142 339
142 257
142 831
142 644
142 718
143 760
143 666
143 244
143 348
143 386
143 522
143 651
143 146
143 874
143 249
143 367
143 649
143 957
143 745
143 361
143 890
143 252
143 561
143 981
143 166
143 993
143 667
143 195
143 603
143 636
143 675
143 593
143 602
143 354
144 647
144 907
144 825
144 315
144 262
144 828
144 164
144 767
144 574
144 681
144 415
144 401
144 364
144 527
144 979
144 590
144 901
144 338
145 419
145 585
145 637
145 639
145 432
145 712
145 296
145 193
145 197
145 205
145 718
145 737
145 738
145 811
145 301
145 312
145 371
145 925
145 926
145 949
145 446
145 259
146 270
146 812
146 522
146 651
146 272
146 607
146 717
146 635
146 361
146 593
146 957
146 874
146 634
146 675
146 649
146 727
146 890
146 252
146 402
146 602
146 684
146 222
146 189
146 454
146 414
146 183
146 954
146 191
146 225
146 745
147 770
147 517
147 900
147 902
147 532
147 670
147 755
147 206
147 983
147 552
147 609
147 204
147 484
147 810
147 896
147 567
147 243
147 579
147 941
147 214
147 469
147 263
147 540
147 989
147 566
147 553
147 608
147 737
147 988
147 619
147 571
147 494
147 992
147 610
147 172
147 221
147 481
148 403
148 787
148 916
148 153
148 320
148 159
148 526
148 278
148 802
148 687
148 454
148 332
148 931
148 166
148 170
148 698
148 702
148 796
148 464
148 730
149 533
149 791
149 300
149 333
149 341
149 883
149 932
149 546
149 498
149 804
149 709
149 556
149 179
149 569
149 158
149 290
149 735
149 228
149 794
149 975
150 647
150 199
150 395
150 615
150 875
150 171
150 946
150 882
150 339
150 531
150 293
150 984
150 801
150 990
150 731
151 592
151 618
151 627
151 194
151 290
151 509
151 437
151 929
151 237
151 400
151 427
151 440
151 179
151 793
151 725
151 292
151 218
151 311
151 468
151 445
151 348
151 337
151 653
151 877
151 233
151 685
151 794
151 986
151 800
151 390
151 586
151 488
151 287
151 554
151 318
151 234
151 154
151 684
151 382
151 648
151 306
151 671
151 650
151 419
151 722
151 864
151 952
151 736
151 470
151 758
151 303
151 447
151 299
151 655
151 913
151 284
151 827
151 454
151 995
151 222
151 391
151 317
151 865
151 183
151 156
151 300
151 776
151 487
151 955
151 259
151 583
151 551
151 383
151 195
151 731
151 838
151 850
151 452
152 627
152 518
152 605
152 227
152 456
152 472
152 623
152 515
152 621
152 638
152 212
152 924
152 570
152 966
152 765
152 607
152 693
152 862
152 285
152 981
152 752
152 374
152 637
152 826
152 868
153 262
153 788
153 277
153 916
153 403
153 526
153 320
153 770
153 156
153 159
153 931
153 170
153 864
153 208
153 555
153 642
153 975
153 873
153 224
153 785
154 770
154 332
154 586
154 627
154 419
154 685
154 618
154 237
154 234
154 827
154 303
154 877
154 758
154 648
154 952
154 633
154 337
154 318
154 986
154 445
154 794
154 684
154 290
154 311
154 864
154 292
154 850
154 454
154 592
154 468
154 233
154 778
154 437
154 653
154 306
154 299
154 655
154 400
154 194
154 284
154 382
154 554
154 469
154 446
154 962
154 320
154 296
154 157
154 321
154 621
154 575
154 675
154 179
154 722
154 800
154 348
154 427
154 478
154 995
154 488
154 728
155 698
155 208
155 613
155 534
155 789
155 921
155 275
155 195
155 457
155 785
155 845
155 185
155 321
155 578
155 190
155 721
155 730
155 229
155 756
155 779
155 838
155 839
155 885
155 906
155 406
155 927
155 438
155 485
155 583
155 323
156 569
156 628
156 631
156 211
156 846
156 775
156 511
156 712
156 575
156 980
156 915
156 199
156 979
156 209
156 421
156 317
156 867
156 698
156 930
156 836
156 934
156 358
156 741
156 918
156 922
156 636
156 244
156 976
156 313
156 200
156 851
156 822
156 269
156 439
156 310
156 351
156 860
156 471
156 884
156 820
156 890
156 919
156 673
156 543
156 555
156 829
156 981
156 221
156 418
156 949
156 241
156 165
156 169
156 690
156 215
156 824
156 909
156 401
156 407
156 988
157 555
157 564
157 841
157 978
157 961
157 492
157 466
157 444
157 507
157 346
157 366
157 985
157 365
157 798
157 558
157 801
157 960
157 429
157 790
157 642
157 442
157 184
157 495
157 858
157 835
157 808
157 660
157 848
157 855
157 428
157 705
157 863
157 480
157 329
157 297
157 831
157 250
157 539
157 975
157 963
157 543
157 748
157 990
157 505
157 761
157 768
157 464
157 977
157 279
157 415
157 533
157 830
157 744
157 283
157 592
157 899
157 575
157 989
157 673
157 316
157 880
157 817
157 443
157 255
157 438
157 285
158 935
158 627
158 365
158 514
158 523
158 589
158 599
158 637
158 735
158 279
158 699
158 193
158 205
158 718
158 734
158 223
158 811
158 301
158 371
158 919
158 925
158 926
158 774
158 596
158 933
159 643
159 788
159 787
159 278
159 320
159 802
159 687
159 695
159 403
159 526
159 559
159 166
159 277
159 916
159 931
159 170
159 588
159 829
159 300
159 936
159 575
159 712
159 732
159 671
159 348
159 197
159 925
159 953
160 575
160 628
160 317
160 401
160 395
160 976
160 269
160 449
160 820
160 426
160 846
160 310
160 169
160 414
160 688
160 313
160 833
160 884
160 471
160 569
160 407
160 988
160 690
160 836
160 439
160 771
160 165
160 915
160 930
160 979
160 913
160 731
160 550
160 990
160 623
160 474
160 298
160 594
160 698
160 199
160 712
160 215
160 814
160 824
160 867
160 358
160 935
160 485
161 553
161 735
161 734
161 229
161 192
161 494
161 357
161 360
161 186
161 271
161 452
161 363
161 972
161 601
161 823
161 955
161 572
161 328
161 714
161 462
161 854
161 353
161 625
161 289
162 257
162 533
162 300
162 332
162 341
162 862
162 883
162 914
162 669
162 450
162 871
162 932
162 172
162 735
162 228
162 660
162 744
162 885
162 452
162 777
163 618
163 585
163 662
163 610
163 888
163 616
163 363
163 236
163 172
163 847
164 891
164 262
164 647
164 907
164 315
164 411
164 574
164 609
164 390
164 645
164 364
164 825
164 828
164 671
164 302
164 367
165 575
165 582
165 666
165 922
165 716
165 258
165 407
165 909
165 628
165 771
165 260
165 934
165 860
165 336
165 317
165 930
165 867
165 293
165 741
165 915
165 690
165 918
165 796
165 483
165 636
165 833
165 814
165 772
165 408
165 414
165 269
165 820
165 775
165 439
165 631
165 244
165 395
165 313
165 587
165 449
165 786
165 511
165 688
165 213
165 215
165 928
165 426
165 378
165 836
165 351
165 935
165 200
165 698
165 569
165 358
165 217
165 310
165 965
165 822
165 702
165 169
165 988
165 851
165 226
165 471
165 979
165 795
165 507
165 261
165 737
165 389
165 555
165 924
165 504
165 807
165 370
165 661
165 311
165 259
165 962
165 381
165 224
165 338
165 287
165 211
165 633
165 436
166 643
166 526
166 788
166 787
166 278
166 931
166 802
166 866
166 482
166 726
166 170
166 695
166 183
166 919
166 754
167 478
167 508
167 519
167 571
167 606
167 870
167 659
167 667
167 467
167 340
167 345
167 761
167 176
167 696
167 241
167 254
167 259
167 809
167 298
167 309
167 832
167 321
167 386
167 398
167 933
168 769
168 905
168 283
168 302
168 541
168 528
168 910
168 691
168 964
168 622
168 326
168 406
168 501
169 262
169 575
169 666
169 293
169 449
169 313
169 915
169 909
169 965
169 824
169 269
169 884
169 698
169 976
169 215
169 358
169 741
169 918
169 200
169 935
169 867
169 199
169 317
169 820
169 239
169 378
169 258
169 716
169 846
169 851
169 786
169 395
169 930
169 209
169 822
169 421
169 211
169 928
169 471
169 260
169 887
169 548
169 364
169 781
169 809
169 312
169 326
169 818
169 369
169 688
169 771
169 775
169 814
169 401
169 407
169 224
169 342
169 490
169 285
169 675
170 643
170 526
170 403
170 788
170 787
170 278
170 916
170 802
170 931
170 559
170 687
170 277
170 320
170 247
170 994
170 206
170 789
170 956
170 877
170 175
170 925
171 403
171 786
171 884
171 615
171 489
171 875
171 339
171 251
171 425
171 242
171 918
171 946
171 531
171 391
171 312
172 533
172 791
172 546
172 804
172 866
172 883
172 669
172 735
172 972
172 503
172 786
172 557
172 864
172 495
172 591
172 446
172 246
173 394
173 679
173 691
173 760
173 821
173 588
173 991
173 815
173 819
173 330
173 652
173 463
173 981
173 187
173 316
173 341
173 548
173 497
173 195
174 533
174 293
174 488
174 578
174 639
174 571
174 606
174 659
174 188
174 241
174 210
174 917
174 920
174 386
174 519
174 719
174 461
174 530
174 347
174 664
174 424
174 465
174 773
174 309
174 417
174 683
174 398
174 176
174 322
174 697
174 254
174 368
174 266
174 870
174 937
174 733
174 812
174 782
174 869
174 289
174 510
174 720
174 321
174 871
174 680
174 693
174 809
174 938
174 780
174 712
174 998
174 718
174 328
174 942
174 550
174 582
174 618
174 771
174 821
174 808
174 990
174 692
174 259
174 296
174 413
174 933
174 501
174 191
175 573
175 524
175 548
175 576
175 637
175 422
175 919
175 232
175 699
175 707
175 193
175 599
175 545
175 301
175 205
175 536
175 393
175 926
175 369
175 342
175 307
175 362
175 379
175 312
175 581
175 276
175 306
175 758
175 282
175 441
175 716
175 718
175 223
175 738
175 744
175 925
175 431
175 435
175 949
175 497
175 809
176 876
176 455
176 845
176 571
176 347
176 425
176 757
176 259
176 782
176 870
176 368
176 424
176 612
176 777
176 697
176 780
176 812
176 309
176 398
176 519
176 433
176 696
176 322
176 920
176 501
176 733
176 530
176 606
176 720
176 241
176 266
176 809
176 321
176 461
176 254
176 298
176 267
176 417
176 840
176 386
176 933
176 719
176 302
176 749
176 990
176 548
176 829
176 451
176 359
176 369
176 416
176 288
176 916
176 564
176 180
176 773
176 296
176 869
176 510
177 523
177 535
177 585
177 589
177 639
177 676
177 373
177 205
177 950
177 743
177 412
177 590
177 923
177 369
177 276
177 436
177 237
177 660
177 538
177 442
177 803
177 193
177 224
177 738
177 744
177 301
177 312
177 371
177 432
177 497
178 520
178 274
178 818
178 578
178 370
178 377
178 380
178 640
178 644
178 247
178 491
178 521
178 951
178 817
178 624
178 443
178 654
178 441
178 997
178 701
178 689
178 486
178 308
178 632
178 189
178 219
178 516
178 214
178 680
178 985
178 286
178 192
178 659
178 318
178 230
178 248
178 601
178 327
178 920
179 411
179 702
179 867
179 554
179 618
179 650
179 877
179 222
179 290
179 758
179 633
179 447
179 913
179 671
179 592
179 827
179 470
179 391
179 306
179 736
179 237
179 437
179 440
179 218
179 648
179 348
179 445
179 995
179 685
179 390
179 850
179 287
179 478
179 684
179 793
179 800
179 311
179 303
179 586
179 488
179 419
179 468
179 454
179 489
179 317
179 386
179 401
179 219
179 207
179 817
179 812
179 790
179 722
179 233
179 234
179 794
179 284
179 986
179 195
180 846
180 671
180 605
180 798
180 506
180 571
180 606
180 465
180 510
180 880
180 288
180 405
180 241
180 777
180 298
180 309
180 832
180 321
180 920
180 933
181 800
181 184
181 223
181 926
181 270
181 557
181 596
181 891
181 990
181 643
181 954
181 829
181 340
181 355
181 188
181 354
182 794
182 370
182 377
182 589
182 781
182 562
182 657
182 694
182 793
182 906
182 684
182 956
182 338
182 878
182 626
182 773
183 319
183 523
183 637
183 949
183 686
183 536
183 734
183 811
183 699
183 743
183 232
183 611
183 598
183 251
183 205
183 744
183 312
183 369
183 371
183 919
183 446
183 780
183 832
184 527
184 217
184 401
184 939
184 748
184 841
184 768
184 660
184 539
184 960
184 319
184 480
184 492
184 863
184 808
184 444
184 835
184 564
184 975
184 415
184 429
184 442
184 250
184 558
184 831
184 507
184 279
184 642
184 798
184 790
184 931
184 403
184 344
184 590
184 508
184 500
184 409
184 801
184 329
184 428
184 505
184 547
184 494
185 800
185 911
185 784
185 663
185 280
185 792
185 475
185 726
185 936
185 474
185 795
185 506
185 536
185 223
185 656
186 877
186 412
186 418
186 656
186 271
186 714
186 955
186 462
186 494
186 256
186 488
186 568
186 452
186 328
186 207
186 360
186 620
187 770
187 394
187 652
187 679
187 815
187 691
187 819
187 821
187 276
187 539
187 316
187 330
187 991
187 760
187 454
187 705
187 784
187 301
188 735
188 498
188 502
188 564
188 829
188 903
188 519
188 571
188 606
188 696
188 361
188 220
188 241
188 259
188 777
188 809
188 298
188 347
188 386
188 398
188 920
188 413
188 501
189 351
189 212
189 520
189 818
189 308
189 591
189 873
189 893
189 898
189 644
189 674
189 584
189 310
189 491
189 594
190 775
190 736
190 995
190 752
190 405
190 444
190 960
190 563
190 246
190 404
190 396
190 868
190 695
190 428
190 479
190 398
190 195
190 229
190 756
190 774
190 779
190 826
190 325
190 838
190 331
190 356
190 885
190 886
190 927
190 967
190 485
191 221
191 223
191 301
191 849
191 490
191 838
191 406
191 938
191 522
191 651
191 272
191 367
191 649
191 635
191 402
191 593
191 423
191 361
191 252
191 225
191 285
191 890
191 981
191 675
191 874
191 854
191 918
191 392
191 612
191 213
191 747
191 569
191 354
192 251
192 348
192 464
192 494
192 572
192 620
192 360
192 568
192 656
192 830
192 625
192 742
192 253
192 888
192 447
192 462
192 347
192 920
193 586
193 790
193 637
193 703
193 718
193 947
193 202
193 585
193 385
193 224
193 550
193 196
193 545
193 686
193 738
193 412
193 242
193 676
193 197
193 446
193 342
193 639
193 751
193 393
193 371
193 611
193 431
193 312
193 453
193 432
193 707
193 744
193 926
193 232
193 477
193 369
193 435
193 276
193 581
193 334
193 967
193 698
193 396
193 709
193 614
193 629
193 767
193 597
193 743
193 295
193 811
193 949
193 195
194 586
194 287
194 758
194 538
194 225
194 284
194 800
194 311
194 877
194 419
194 427
194 454
194 995
194 488
194 591
194 699
194 885
195 873
195 563
195 704
195 838
195 756
195 406
195 476
195 730
195 967
195 962
195 868
195 534
195 721
195 826
195 304
195 246
195 901
195 885
195 805
195 281
195 404
195 912
195 797
195 750
195 839
195 288
195 335
195 325
195 384
195 927
195 438
195 754
195 904
195 795
195 264
195 294
195 387
195 485
195 892
195 886
195 608
195 658
195 272
195 777
195 611
195 483
195 678
195 951
195 349
195 768
195 229
195 813
195 356
196 914
196 523
196 535
196 536
196 548
196 576
196 599
196 637
196 514
196 670
196 952
196 197
196 718
196 738
196 744
196 312
196 369
196 371
196 919
196 925
196 949
196 993
197 935
197 535
197 536
197 589
197 599
197 676
197 307
197 545
197 412
197 993
197 436
197 926
197 703
197 971
197 974
197 576
197 371
197 432
197 242
197 548
197 497
197 205
197 418
197 393
197 686
197 202
197 973
197 734
197 590
197 699
197 678
197 743
197 950
197 585
197 224
197 744
197 738
197 639
197 416
197 616
197 217
197 694
197 361
197 534
197 294
197 749
197 392
197 223
197 342
197 925
197 813
198 395
198 978
198 535
198 646
198 325
198 590
198 861
198 721
198 728
198 229
198 754
198 756
198 826
198 838
198 331
198 868
198 886
198 906
198 406
198 921
198 927
198 953
198 967
198 485
199 575
199 666
199 698
199 716
199 628
199 209
199 211
199 851
199 786
199 796
199 833
199 293
199 336
199 688
199 930
199 421
199 631
199 511
199 772
199 741
199 414
199 226
199 935
199 213
199 690
199 378
199 483
199 439
199 239
199 317
199 712
199 980
199 449
199 976
199 922
199 860
199 636
199 694
199 657
199 328
199 417
199 699
199 598
199 971
199 689
199 958
199 814
199 824
199 358
199 395
199 909
199 407
199 408
199 861
199 418
199 704
199 834
200 575
200 666
200 688
200 690
200 698
200 712
200 771
200 453
200 223
200 695
200 269
200 786
200 824
200 351
200 867
200 884
200 909
200 407
200 554
200 311
201 517
201 935
201 495
201 663
201 949
201 646
201 704
201 656
201 568
201 328
201 724
201 572
201 353
201 462
201 494
201 360
201 314
201 891
201 634
201 968
201 379
201 787
201 854
202 565
202 523
202 535
202 536
202 589
202 637
202 686
202 703
202 330
202 718
202 743
202 744
202 751
202 811
202 908
202 270
202 782
203 705
203 790
203 953
203 519
203 606
203 510
203 267
203 220
203 667
203 346
203 962
203 241
203 259
203 773
203 777
203 782
203 809
203 321
203 869
203 386
203 398
203 920
204 770
204 899
204 553
204 810
204 567
204 579
204 263
204 532
204 566
204 670
204 552
204 604
204 334
204 314
204 452
204 206
204 481
204 484
205 401
205 514
205 523
205 535
205 536
205 545
205 585
205 594
205 641
205 676
205 707
205 436
205 369
205 686
205 422
205 307
205 703
205 923
205 479
205 362
205 589
205 581
205 301
205 718
205 993
205 477
205 639
205 974
205 599
205 849
205 908
205 418
205 385
205 412
205 276
205 677
205 309
205 806
205 207
205 929
205 634
205 495
205 685
205 223
205 743
205 744
205 811
205 342
205 371
205 925
205 431
205 949
205 805
205 328
206 770
206 902
206 532
206 566
206 567
206 240
206 553
206 670
206 900
206 696
206 831
206 327
206 711
206 469
206 221
206 609
206 481
206 755
206 679
206 708
206 233
206 355
207 618
207 472
207 977
207 505
207 721
207 656
207 830
207 328
207 714
207 823
207 360
207 619
207 572
207 353
207 462
207 357
207 399
207 494
207 724
207 956
207 358
207 577
207 364
207 459
207 249
207 752
207 854
207 620
207 933
207 602
207 225
208 609
208 636
208 408
208 268
208 551
208 565
208 573
208 324
208 580
208 584
208 837
208 253
208 352
208 345
208 245
208 598
208 577
208 344
208 895
208 508
208 794
208 979
208 225
208 876
208 813
209 569
209 575
209 628
209 666
209 698
209 741
209 775
209 928
209 934
209 796
209 587
209 211
209 217
209 258
209 582
209 439
209 293
209 378
209 573
209 506
209 568
209 627
209 908
209 218
209 215
209 814
209 836
209 867
209 358
209 909
209 401
209 918
209 960
209 963
209 312
209 948
209 462
209 612
210 268
210 919
210 446
210 294
210 571
210 606
210 659
210 667
210 220
210 241
210 777
210 809
210 812
210 321
210 368
210 920
210 933
210 433
210 510
211 575
211 582
211 698
211 244
211 426
211 775
211 587
211 928
211 258
211 358
211 310
211 836
211 820
211 716
211 449
211 215
211 569
211 930
211 702
211 822
211 980
211 706
211 470
211 695
211 356
211 304
211 640
211 217
211 786
211 814
211 824
211 867
211 401
211 407
211 408
211 988
211 682
211 638
211 580
211 728
212 546
212 824
212 515
212 518
212 665
212 549
212 570
212 638
212 227
212 644
212 726
212 752
212 963
212 377
212 229
212 557
212 616
213 569
213 575
213 587
213 628
213 636
213 666
213 690
213 549
213 728
213 786
213 796
213 824
213 358
213 884
213 909
213 401
213 918
213 408
213 935
213 504
213 264
213 259
214 770
214 899
214 900
214 553
214 941
214 579
214 983
214 469
214 270
214 642
214 608
214 609
214 484
214 755
214 397
214 916
214 546
214 454
214 986
214 995
214 721
214 281
215 575
215 628
215 688
215 666
215 716
215 313
215 401
215 358
215 915
215 976
215 836
215 582
215 258
215 217
215 293
215 587
215 244
215 909
215 965
215 786
215 698
215 980
215 979
215 814
215 378
215 636
215 426
215 822
215 712
215 824
215 569
215 243
215 550
215 578
215 692
215 683
215 696
215 664
215 960
215 718
215 490
215 351
215 867
215 922
215 988
215 744
215 241
216 566
216 814
216 218
216 926
216 886
216 270
216 954
216 381
216 945
216 594
216 649
216 864
217 608
217 575
217 666
217 688
217 690
217 698
217 293
217 928
217 569
217 336
217 884
217 414
217 483
217 244
217 439
217 351
217 313
217 860
217 269
217 988
217 511
217 582
217 851
217 846
217 631
217 317
217 716
217 918
217 786
217 449
217 976
217 909
217 930
217 328
217 221
217 469
217 541
217 380
217 783
217 814
217 824
217 867
217 358
217 401
217 407
217 245
217 520
217 457
217 252
218 554
218 586
218 627
218 633
218 299
218 348
218 671
218 290
218 952
218 382
218 573
218 565
218 795
218 736
218 233
218 234
218 758
218 284
218 800
218 311
218 427
218 474
218 230
218 325
218 396
218 927
218 519
218 659
219 763
219 578
219 591
219 873
219 377
219 644
219 491
219 613
219 894
219 433
219 773
219 881
219 709
219 486
219 813
220 395
220 668
220 571
220 606
220 659
220 259
220 398
220 321
220 664
220 693
220 733
220 680
220 465
220 897
220 323
220 388
220 812
220 267
220 832
220 840
220 413
220 260
220 942
220 299
220 284
220 607
220 429
220 374
220 779
220 241
220 296
220 809
220 920
220 933
221 770
221 899
221 517
221 900
221 902
221 263
221 989
221 552
221 983
221 889
221 880
221 607
221 668
221 608
221 609
221 481
221 755
221 862
221 407
221 236
221 794
221 507
222 244
222 313
222 554
222 592
222 618
222 671
222 684
222 234
222 284
222 311
222 348
222 877
222 995
222 488
222 624
222 418
222 384
222 457
223 609
223 771
223 488
223 798
223 370
223 535
223 536
223 589
223 594
223 599
223 637
223 676
223 686
223 718
223 371
223 925
223 422
223 707
223 312
223 751
223 295
223 639
223 446
223 385
223 576
223 412
223 641
223 950
223 923
223 581
223 235
223 947
223 703
223 276
223 435
223 942
223 294
223 821
223 808
223 757
223 962
223 689
223 743
223 811
223 301
223 342
223 369
223 926
223 949
223 656
223 933
224 300
224 380
224 523
224 576
224 585
224 686
224 707
224 718
224 446
224 431
224 971
224 436
224 923
224 514
224 453
224 676
224 639
224 678
224 637
224 589
224 477
224 497
224 385
224 743
224 919
224 581
224 950
224 993
224 416
224 536
224 276
224 644
224 941
224 910
224 980
224 452
224 407
224 735
224 512
224 744
224 811
224 301
224 369
224 371
224 925
224 926
225 636
225 488
225 281
225 522
225 675
225 593
225 981
225 727
225 602
225 649
225 745
225 354
225 607
225 249
225 423
225 635
225 623
225 441
225 690
225 608
225 589
225 361
225 252
226 883
226 228
226 575
226 582
226 628
226 258
226 814
226 867
226 358
226 884
226 378
226 401
226 407
226 408
226 800
226 346
226 314
226 360
226 519
227 240
227 665
227 549
227 570
227 966
227 472
227 289
227 752
227 374
227 376
227 744
227 562
227 296
228 791
228 546
228 300
228 341
228 866
228 883
228 932
228 735
228 862
228 994
228 804
228 450
228 556
228 502
228 372
228 332
228 669
228 257
228 405
228 839
228 363
228 769
228 749
228 786
228 497
228 721
228 838
228 967
229 977
229 704
229 904
229 476
229 826
229 901
229 964
229 304
229 410
229 872
229 261
229 886
229 839
229 721
229 885
229 730
229 404
229 805
229 458
229 779
229 335
229 838
229 921
229 723
229 953
229 750
229 834
229 756
229 387
229 807
229 288
229 813
229 396
229 795
229 906
229 774
229 754
229 325
229 728
229 331
229 797
229 789
229 534
229 281
229 868
229 842
229 700
229 275
229 392
229 430
229 967
229 563
229 246
229 567
229 300
229 480
229 762
229 403
229 990
229 913
229 526
229 787
229 241
229 717
229 911
229 264
229 785
229 406
229 927
230 900
230 818
230 578
230 873
230 370
230 377
230 893
230 898
230 951
230 740
230 247
230 701
230 674
230 689
230 654
230 640
230 591
230 808
230 621
230 549
231 749
231 860
231 518
231 665
231 570
231 966
231 711
231 710
231 472
231 765
231 489
231 622
231 935
231 621
231 376
231 571
232 627
232 523
232 548
232 585
232 589
232 637
232 686
232 707
232 718
232 734
232 744
232 899
232 698
232 761
232 811
232 312
232 342
232 369
232 919
232 813
233 592
233 684
233 722
233 736
233 861
233 391
233 929
233 827
233 234
233 995
233 952
233 864
233 237
233 633
233 586
233 986
233 877
233 306
233 800
233 382
233 648
233 303
233 287
233 618
233 284
233 913
233 468
233 427
233 290
233 348
233 794
233 454
233 778
233 554
233 758
233 650
233 419
233 627
233 440
233 299
233 509
233 292
233 828
233 835
233 956
233 540
233 953
233 906
233 452
233 311
233 850
233 488
233 766
233 811
233 700
233 756
233 501
234 527
234 586
234 592
234 618
234 627
234 736
234 509
234 391
234 284
234 633
234 794
234 287
234 800
234 318
234 306
234 929
234 468
234 290
234 488
234 382
234 311
234 850
234 685
234 650
234 440
234 337
234 758
234 292
234 722
234 861
234 877
234 827
234 653
234 419
234 237
234 684
234 447
234 445
234 995
234 470
234 348
234 478
234 793
234 655
234 913
234 400
234 648
234 299
234 427
234 864
234 725
234 986
234 554
234 303
234 369
234 497
234 867
234 894
234 236
234 613
234 734
234 243
234 256
234 677
234 486
234 712
234 860
234 741
234 454
234 535
234 743
235 988
235 514
235 523
235 535
235 536
235 550
235 581
235 589
235 637
235 686
235 718
235 744
235 369
235 371
235 919
235 949
235 993
235 281
236 286
236 940
236 942
236 682
236 843
236 732
236 617
236 763
236 473
236 776
236 375
236 729
236 511
236 961
236 676
236 357
236 249
237 586
237 592
237 627
237 653
237 722
237 553
237 404
237 407
237 976
237 758
237 794
237 284
237 800
237 850
237 348
237 877
237 454
237 995
237 598
237 756
237 773
237 433
237 252
238 708
238 389
238 265
238 273
238 282
238 806
238 560
238 856
238 857
238 366
238 369
238 288
238 606
239 770
239 972
239 575
239 666
239 690
239 698
239 370
239 265
239 771
239 867
239 378
239 401
239 408
239 979
239 349
240 896
240 770
240 899
240 900
240 810
240 983
240 989
240 608
240 609
240 484
240 998
240 755
240 837
240 558
240 507
240 894
240 811
241 787
241 784
241 360
241 959
241 519
241 571
241 606
241 697
241 267
241 612
241 425
241 413
241 659
241 871
241 683
241 254
241 259
241 920
241 501
241 693
241 465
241 897
241 782
241 461
241 266
241 933
241 321
241 296
241 323
241 777
241 937
241 409
241 398
241 733
241 322
241 347
241 388
241 368
241 809
241 433
241 664
241 424
241 680
241 869
241 870
241 467
241 812
241 389
241 858
241 350
241 590
241 673
241 625
241 459
241 445
241 885
241 593
241 508
241 865
241 950
241 298
241 832
241 938
242 864
242 523
242 547
242 585
242 599
242 637
242 676
242 707
242 744
242 307
242 371
242 925
242 431
242 525
242 933
243 770
243 900
243 902
243 532
243 670
243 553
243 810
243 566
243 567
243 989
243 609
243 484
243 627
243 655
243 299
243 427
243 977
243 435
243 452
244 575
244 666
244 690
244 698
244 786
244 824
244 930
244 851
244 421
244 820
244 775
244 260
244 814
244 631
244 928
244 688
244 846
244 313
244 867
244 716
244 833
244 836
244 980
244 471
244 979
244 358
244 922
244 269
244 310
244 628
244 293
244 401
244 712
244 796
244 702
244 395
244 860
244 765
244 842
244 746
244 703
244 671
244 949
244 734
244 779
244 978
244 822
244 351
244 884
244 918
244 407
244 935
244 988
244 268
244 699
244 756
245 998
245 966
245 268
245 551
245 943
245 565
245 573
245 324
245 837
245 598
245 345
245 482
245 876
245 629
245 584
245 580
245 597
245 895
245 766
245 253
245 352
245 881
245 577
245 320
245 690
245 835
245 419
245 728
245 564
245 513
245 555
245 925
246 669
246 972
246 482
246 370
246 534
246 563
246 646
246 721
246 728
246 730
246 756
246 374
246 759
246 773
246 498
246 264
246 779
246 281
246 813
246 834
246 838
246 331
246 356
246 885
246 886
246 901
246 406
246 927
246 967
246 458
246 457
246 485
246 869
247 394
247 820
247 255
247 975
247 291
247 818
247 591
247 613
247 370
247 377
247 380
247 640
247 898
247 644
247 674
247 486
247 487
247 699
247 266
248 698
248 822
248 578
248 370
248 380
248 640
248 644
248 674
248 951
248 731
248 274
248 486
248 613
248 291
248 443
248 701
248 491
248 520
248 984
248 592
248 673
248 412
248 797
248 319
248 974
248 714
248 777
249 628
249 407
249 454
249 573
249 841
249 596
249 675
249 717
249 593
249 354
249 745
249 367
249 272
249 291
249 252
250 378
250 586
250 665
250 543
250 558
250 564
250 761
250 790
250 841
250 365
250 366
250 415
250 442
250 492
250 507
250 475
250 295
250 301
250 753
250 680
251 263
251 351
251 401
251 615
251 489
251 875
251 946
251 339
251 882
251 523
251 348
251 487
251 547
251 948
252 712
252 827
252 497
252 756
252 522
252 561
252 593
252 981
252 607
252 745
252 361
252 272
252 717
252 890
252 635
252 957
252 651
252 634
252 675
252 727
252 881
252 829
252 413
252 268
252 954
253 931
253 268
253 551
253 573
253 324
253 584
253 482
253 629
253 977
253 475
253 811
253 302
254 902
254 758
254 366
254 536
254 606
254 780
254 461
254 530
254 309
254 870
254 719
254 467
254 347
254 917
254 266
254 259
254 368
254 398
254 298
254 386
254 812
254 612
254 773
254 424
254 782
254 897
254 683
254 321
254 757
254 938
254 296
254 750
254 344
254 726
254 685
254 670
254 484
254 399
254 964
254 853
254 962
254 770
254 809
254 869
254 413
254 933
254 433
254 465
254 501
255 300
255 935
255 762
255 558
255 564
255 705
255 761
255 841
255 405
255 978
255 960
255 939
255 428
255 319
255 848
255 835
255 365
255 259
255 793
255 373
255 366
255 442
255 975
255 464
255 977
255 507
255 818
255 809
256 605
256 442
256 975
256 369
256 887
256 742
256 404
256 616
256 832
257 883
257 658
257 804
257 372
257 533
257 546
257 709
257 341
257 332
257 791
257 972
257 598
257 801
257 768
257 365
257 527
257 914
257 669
257 450
257 735
257 998
257 498
257 824
257 861
257 919
257 717
258 575
258 666
258 688
258 698
258 683
258 389
258 984
258 786
258 814
258 867
258 401
258 918
258 407
258 922
258 935
258 979
258 491
258 625
258 812
259 395
259 571
259 606
259 659
259 840
259 296
259 697
259 289
259 530
259 433
259 719
259 519
259 368
259 693
259 388
259 683
259 933
259 321
259 461
259 782
259 409
259 937
259 920
259 465
259 869
259 323
259 425
259 386
259 870
259 267
259 757
259 696
259 501
259 773
259 713
259 812
259 398
259 510
259 322
259 667
259 298
259 720
259 917
259 347
259 467
259 809
259 664
259 397
259 620
259 357
259 437
259 627
259 487
259 542
259 491
259 639
259 521
259 489
259 685
259 777
260 569
260 636
260 666
260 690
260 698
260 712
260 980
260 631
260 846
260 797
260 700
260 305
260 824
260 836
260 867
260 358
260 884
260 401
260 407
260 408
260 306
260 448
260 516
260 993
260 283
260 384
260 812
261 637
261 563
261 646
261 754
261 756
261 614
261 833
261 774
261 264
261 294
261 826
261 325
261 838
261 868
261 356
261 901
261 906
261 406
261 953
261 964
261 557
261 413
262 891
262 907
262 364
262 315
262 767
262 681
262 647
262 541
262 411
262 574
262 546
262 719
263 770
263 899
263 902
263 983
263 608
263 896
263 941
263 601
263 553
263 566
263 579
263 989
263 609
263 481
263 484
263 755
263 448
263 798
263 415
263 497
264 824
264 400
264 454
264 730
264 756
264 774
264 904
264 723
264 750
264 392
264 838
264 967
264 785
264 404
264 458
264 646
264 927
264 901
264 795
264 799
264 476
264 384
264 457
264 410
264 872
264 892
264 953
264 886
264 885
264 921
264 754
264 406
264 563
264 534
264 728
264 294
264 834
264 485
264 387
264 779
264 937
264 970
264 542
264 405
264 337
264 690
264 955
264 498
264 772
264 490
264 300
264 284
264 613
264 281
264 288
264 826
264 331
264 868
264 356
264 398
265 806
265 389
265 857
265 764
265 560
265 282
265 729
265 385
265 733
265 637
265 273
265 856
265 690
265 308
265 721
266 949
266 630
266 606
266 773
266 777
266 388
266 736
266 490
266 809
266 298
266 812
266 321
266 386
266 920
266 933
266 465
267 358
267 437
267 492
267 726
267 785
267 519
267 571
267 606
267 773
267 642
267 563
267 645
267 296
267 298
267 386
267 920
267 413
267 933
267 433
267 465
267 501
267 510
268 348
268 577
268 881
268 345
268 459
268 837
268 766
268 482
268 551
268 573
268 982
268 598
268 344
268 943
268 597
268 580
268 832
268 887
268 739
268 565
268 352
268 876
268 831
269 690
269 698
269 716
269 631
269 928
269 406
269 544
269 754
269 431
269 814
269 824
269 358
269 401
269 408
269 922
269 426
269 988
269 684
269 948
269 885
270 722
270 964
270 340
270 954
270 630
270 945
270 596
270 829
270 600
270 355
270 557
270 383
270 836
270 967
270 381
271 741
271 432
271 656
271 314
271 568
271 328
271 714
271 823
271 327
271 930
271 648
271 854
271 494
272 364
272 300
272 718
272 649
272 367
272 717
272 727
272 651
272 887
272 695
272 825
272 593
272 981
273 806
273 708
273 397
273 560
273 856
273 729
273 389
273 742
273 282
273 764
273 979
273 982
273 885
273 906
274 310
274 348
274 516
274 520
274 873
274 951
274 493
274 893
274 894
274 521
274 731
274 817
274 921
274 991
274 470
274 818
274 578
274 591
274 370
274 640
274 644
274 740
274 491
274 563
275 611
275 672
275 563
275 646
275 704
275 754
275 756
275 774
275 779
275 663
275 797
275 813
275 325
275 838
275 331
275 885
275 384
275 906
275 406
275 927
275 438
275 953
275 967
275 457
276 575
276 763
276 427
276 523
276 545
276 548
276 676
276 718
276 737
276 738
276 743
276 744
276 811
276 312
276 342
276 369
276 919
276 432
276 949
276 497
277 788
277 916
277 559
277 687
277 802
277 695
277 523
277 678
277 952
277 278
277 931
277 487
277 901
277 809
278 643
278 526
278 788
278 787
278 320
278 403
278 489
278 632
278 617
278 691
278 802
278 931
278 695
278 859
278 658
278 311
279 941
279 821
279 857
279 972
279 339
279 555
279 642
279 705
279 761
279 768
279 660
279 831
279 416
279 615
279 388
279 310
279 999
279 801
279 841
279 346
279 366
279 428
279 975
279 464
279 492
279 305
279 371
279 436
280 784
280 663
280 706
280 936
280 506
280 305
280 434
280 726
280 475
280 508
280 487
280 334
280 350
280 995
280 821
280 601
280 949
280 844
280 359
280 639
280 593
281 482
281 646
281 704
281 721
281 750
281 754
281 756
281 779
281 288
281 892
281 826
281 953
281 901
281 627
281 813
281 838
281 927
282 806
282 708
282 389
282 857
282 764
282 729
282 687
282 909
282 290
282 616
283 896
283 528
283 783
283 326
283 302
283 541
283 769
283 420
283 504
283 672
283 525
283 905
283 910
283 805
283 639
283 406
283 508
283 948
283 563
284 586
284 671
284 722
284 736
284 758
284 725
284 303
284 454
284 290
284 627
284 986
284 299
284 827
284 488
284 952
284 427
284 419
284 509
284 318
284 778
284 929
284 794
284 440
284 864
284 554
284 470
284 391
284 400
284 650
284 685
284 337
284 995
284 800
284 474
284 592
284 653
284 437
284 468
284 913
284 684
284 478
284 306
284 633
284 390
284 655
284 861
284 292
284 850
284 648
284 793
284 594
284 475
284 702
284 559
284 294
284 297
284 807
284 752
284 339
284 565
284 746
284 501
284 348
284 877
284 813
284 396
284 593
285 940
285 758
285 518
285 547
285 585
285 756
285 901
285 402
285 529
285 634
285 880
285 423
285 361
285 727
285 539
285 409
285 827
285 561
285 717
285 593
285 981
285 890
286 582
286 786
286 763
286 473
286 970
286 940
286 762
286 460
286 885
286 522
286 777
286 595
286 732
286 617
286 531
286 548
287 671
287 684
287 722
287 758
287 382
287 290
287 468
287 800
287 367
287 348
287 877
287 454
287 995
287 488
287 927
288 395
288 563
288 730
288 756
288 789
288 356
288 799
288 892
288 728
288 485
288 458
288 868
288 872
288 779
288 927
288 953
288 921
288 839
288 906
288 438
288 807
288 826
288 588
288 490
288 968
288 461
288 624
288 394
288 798
288 331
288 885
289 648
289 705
289 640
289 610
289 571
289 606
289 696
289 809
289 298
289 812
289 386
289 398
289 920
289 933
290 566
290 586
290 592
290 618
290 650
290 653
290 685
290 722
290 758
290 800
290 455
290 544
290 601
290 992
290 348
290 454
290 995
290 488
290 801
290 750
290 832
291 867
291 850
291 348
291 329
291 516
291 520
291 486
291 370
291 524
291 307
291 817
291 818
291 578
291 591
291 613
291 873
291 898
291 644
291 701
291 491
291 738
291 830
292 806
292 586
292 618
292 653
292 671
292 722
292 736
292 800
292 311
292 348
292 864
292 877
292 427
292 454
292 995
292 488
292 886
292 921
293 333
293 582
293 628
293 666
293 690
293 771
293 786
293 796
293 922
293 556
293 462
293 867
293 358
293 378
293 395
293 909
293 935
293 988
293 746
293 738
293 906
293 777
294 867
294 523
294 563
294 646
294 721
294 756
294 774
294 779
294 351
294 481
294 930
294 918
294 411
294 834
294 325
294 839
294 886
294 384
294 904
294 438
294 953
294 458
294 485
294 869
295 736
295 475
295 545
295 547
295 590
295 686
295 707
295 718
295 738
295 744
295 362
295 908
295 599
295 418
295 393
295 811
295 734
295 385
295 479
295 581
295 637
295 497
295 751
295 974
295 589
295 499
295 647
295 968
295 311
295 735
295 847
295 301
295 925
295 926
296 349
296 374
296 779
296 452
296 338
296 571
296 659
296 869
296 871
296 510
296 413
296 733
296 386
296 322
296 937
296 917
296 467
296 933
296 433
296 501
296 612
296 692
296 870
296 409
296 398
296 920
296 424
296 321
296 777
296 832
296 780
296 697
296 773
296 664
296 720
296 606
296 757
296 519
296 897
296 667
296 812
296 448
296 541
296 945
296 635
296 405
296 819
296 366
296 325
296 596
296 298
296 465
297 555
297 558
297 642
297 660
297 761
297 790
297 801
297 841
297 366
297 428
297 464
297 977
297 990
297 342
297 910
297 656
298 698
298 400
298 519
298 530
298 606
298 659
298 757
298 777
298 388
298 612
298 571
298 937
298 780
298 733
298 461
298 782
298 840
298 398
298 323
298 501
298 920
298 917
298 510
298 870
298 347
298 409
298 832
298 809
298 692
298 696
298 321
298 467
298 667
298 417
298 693
298 664
298 309
298 987
298 569
298 969
298 581
298 511
298 687
298 804
298 883
298 338
298 362
298 932
298 933
298 465
299 690
299 358
299 722
299 736
299 758
299 794
299 800
299 348
299 861
299 419
299 454
299 995
299 488
299 405
299 370
299 869
300 608
300 537
300 804
300 816
300 604
300 556
300 533
300 735
300 341
300 658
300 998
300 498
300 669
300 972
300 709
300 883
300 333
300 866
300 503
300 372
300 791
300 932
300 426
300 307
300 484
300 801
300 378
300 865
300 860
300 432
300 812
301 564
301 441
301 535
301 536
301 611
301 637
301 686
301 707
301 718
301 744
301 974
301 678
301 743
301 908
301 422
301 307
301 412
301 416
301 925
301 373
301 514
301 497
301 436
301 589
301 545
301 639
301 548
301 312
301 993
301 599
301 585
301 418
301 949
301 490
301 919
301 594
301 547
301 590
301 562
301 609
301 937
301 495
301 853
301 356
301 618
301 868
301 369
301 477
302 775
302 935
302 570
302 905
302 910
302 673
302 341
302 756
302 887
303 484
303 772
303 426
303 554
303 586
303 592
303 618
303 648
303 722
303 736
303 758
303 794
303 800
303 311
303 348
303 864
303 877
303 419
303 454
303 986
303 488
303 464
303 359
303 838
304 608
304 698
304 518
304 539
304 640
304 674
304 646
304 728
304 754
304 756
304 779
304 994
304 325
304 885
304 906
304 921
304 438
304 967
304 417
305 891
305 784
305 663
305 792
305 544
305 475
305 334
305 973
305 434
305 350
305 359
305 506
305 508
305 967
305 458
306 592
306 618
306 627
306 650
306 671
306 758
306 794
306 800
306 930
306 367
306 821
306 311
306 850
306 348
306 861
306 877
306 427
306 454
306 478
306 995
306 488
306 831
306 366
306 435
306 717
307 983
307 884
307 736
307 711
307 523
307 536
307 550
307 637
307 639
307 743
307 744
307 548
307 432
307 490
307 418
307 703
307 737
307 393
307 947
307 950
307 715
307 706
307 671
307 595
307 312
307 369
307 371
307 919
307 925
307 949
307 485
307 777
308 365
308 516
308 524
308 818
308 654
308 894
308 578
308 893
308 647
308 591
308 873
308 370
308 377
308 640
308 644
308 620
308 981
309 866
309 408
309 455
309 978
309 781
309 571
309 606
309 659
309 713
309 777
309 809
309 840
309 433
309 409
309 871
309 832
309 424
309 612
309 449
309 669
309 439
309 547
309 321
309 368
309 386
309 920
309 413
309 501
310 582
310 636
310 666
310 688
310 690
310 786
310 814
310 539
310 337
310 592
310 824
310 836
310 860
310 358
310 909
310 918
310 407
310 988
311 395
311 586
311 592
311 627
311 633
311 648
311 685
311 722
311 736
311 758
311 800
311 986
311 447
311 437
311 655
311 474
311 400
311 850
311 337
311 318
311 488
311 382
311 913
311 445
311 650
311 725
311 929
311 478
311 427
311 671
311 778
311 861
311 470
311 509
311 827
311 653
311 348
311 468
311 618
311 454
311 469
311 443
311 697
311 766
311 687
311 519
311 591
311 909
311 528
311 600
311 632
311 877
311 419
311 995
312 374
312 535
312 576
312 585
312 599
312 637
312 641
312 703
312 744
312 811
312 418
312 479
312 477
312 547
312 734
312 639
312 594
312 699
312 362
312 676
312 849
312 497
312 718
312 545
312 971
312 926
312 416
312 536
312 453
312 950
312 373
312 751
312 581
312 369
312 432
312 973
312 342
312 371
312 611
312 385
312 422
312 857
312 389
312 682
312 697
312 383
312 881
312 614
312 891
312 727
312 925
312 436
312 949
313 755
313 575
313 666
313 698
313 712
313 820
313 794
313 860
313 867
313 358
313 378
313 401
313 407
313 415
314 546
314 407
314 426
314 507
314 783
314 399
314 868
314 996
314 328
314 462
314 854
314 360
314 620
314 494
315 891
315 647
315 907
315 411
315 681
315 364
315 825
315 385
315 664
315 767
315 407
315 705
315 576
315 446
315 606
315 957
316 394
316 679
316 815
316 691
316 819
316 760
316 588
316 330
316 821
316 329
316 510
316 655
316 991
316 778
316 744
316 974
316 406
317 567
317 569
317 575
317 582
317 690
317 698
317 716
317 814
317 867
317 358
317 884
317 979
317 329
317 717
318 671
318 684
318 685
318 722
318 736
318 794
318 850
318 348
318 861
318 877
318 454
318 986
318 995
318 488
318 545
318 534
319 555
319 564
319 790
319 643
319 841
319 329
319 366
319 415
319 444
319 975
319 464
319 492
319 507
319 905
319 742
320 643
320 788
320 931
320 687
320 559
320 425
320 710
320 873
320 606
320 809
321 824
321 519
321 777
321 869
321 398
321 870
321 917
321 683
321 659
321 510
321 693
321 696
321 938
321 467
321 680
321 757
321 812
321 368
321 424
321 720
321 713
321 386
321 933
321 461
321 667
321 692
321 809
321 465
321 773
321 322
321 425
321 530
321 323
321 719
321 347
321 664
321 937
321 571
321 897
321 949
321 345
321 633
321 360
321 906
321 904
321 637
321 325
321 400
321 448
321 387
321 771
321 920
321 413
321 675
322 900
322 743
322 371
322 785
322 839
322 328
322 519
322 606
322 809
322 832
322 347
322 920
322 465
322 501
323 579
323 857
323 877
323 676
323 519
323 530
323 606
323 782
323 809
323 812
323 446
323 722
323 423
323 347
323 413
323 933
323 433
323 465
323 501
324 575
324 531
324 454
324 943
324 565
324 598
324 597
324 580
324 766
324 982
324 629
324 482
324 352
324 584
324 895
324 876
324 573
324 344
324 787
324 915
324 589
324 977
324 430
324 747
324 888
325 824
325 918
325 505
325 563
325 646
325 730
325 750
325 779
325 785
325 813
325 885
325 704
325 805
325 728
325 838
325 834
325 384
325 872
325 700
325 886
325 335
325 868
325 589
325 752
325 705
325 479
325 449
325 440
325 759
325 980
325 333
325 331
325 438
325 967
325 458
325 956
325 413
326 932
326 491
326 905
326 783
326 528
326 420
326 350
326 977
326 467
326 386
326 967
326 657
327 644
327 420
327 868
327 662
327 451
327 961
327 847
327 853
327 603
327 742
327 363
327 386
327 417
328 526
328 813
328 656
328 830
328 568
328 452
328 462
328 360
328 823
328 620
328 619
328 714
328 399
328 625
328 506
328 337
328 728
328 783
328 707
328 854
328 494
328 606
329 941
329 989
329 555
329 642
329 761
329 790
329 801
329 841
329 977
329 405
329 346
329 990
329 960
329 415
329 858
329 855
329 366
329 539
329 835
329 975
329 978
329 429
329 939
329 428
329 798
329 442
329 558
329 748
329 985
329 507
329 768
329 660
329 705
329 831
329 495
329 492
329 727
329 895
329 338
329 914
329 372
329 614
329 560
329 852
329 582
329 464
329 512
329 830
329 606
330 469
330 691
330 679
330 394
330 760
330 815
330 598
330 848
330 643
330 991
330 764
330 932
330 942
331 940
331 877
331 555
331 703
331 704
331 721
331 754
331 756
331 779
331 826
331 834
331 838
331 335
331 534
331 805
331 476
331 807
331 384
331 962
331 813
331 404
331 906
331 646
331 723
331 485
331 927
331 410
331 396
331 458
331 795
331 430
331 969
331 799
331 681
331 354
331 374
331 494
331 819
331 974
331 601
331 893
331 773
331 711
331 371
331 885
331 886
331 406
331 921
331 964
332 527
332 533
332 546
332 804
332 816
332 866
332 341
332 862
332 372
332 945
332 606
332 333
332 604
332 735
332 998
332 749
332 637
332 949
333 533
333 546
333 804
333 816
333 537
333 866
333 669
333 749
333 503
333 998
333 709
333 865
333 604
333 962
333 675
333 420
333 561
333 341
333 658
333 932
333 735
333 958
333 442
333 975
333 568
333 745
334 663
334 434
334 844
334 506
334 359
334 784
334 544
334 654
334 794
334 475
335 944
335 646
335 721
335 756
335 779
335 813
335 826
335 838
335 356
335 927
335 953
335 964
335 967
335 485
336 575
336 636
336 688
336 690
336 712
336 814
336 846
336 867
336 401
336 918
336 407
336 935
337 866
337 786
337 586
337 618
337 627
337 722
337 736
337 758
337 800
337 850
337 348
337 864
337 419
337 427
337 454
337 995
337 346
337 571
337 713
337 782
338 791
338 586
338 881
338 464
338 657
338 562
338 956
338 959
338 781
338 406
338 973
338 878
338 626
339 932
339 884
339 875
339 463
339 882
339 538
339 531
339 946
339 644
339 386
339 984
339 975
339 921
339 953
339 423
340 760
340 935
340 843
340 432
340 838
340 927
340 829
340 759
340 630
340 444
340 903
340 629
340 600
340 355
341 533
341 546
341 804
341 866
341 932
341 658
341 498
341 972
341 537
341 450
341 862
341 669
341 735
341 998
341 994
341 791
341 502
341 749
341 816
341 503
341 372
341 604
341 709
341 914
341 556
341 865
341 859
341 527
341 978
341 398
341 358
341 584
341 410
341 794
341 701
341 599
341 967
342 628
342 845
342 939
342 536
342 589
342 744
342 811
342 751
342 581
342 431
342 641
342 548
342 385
342 971
342 541
342 977
342 927
342 762
342 369
342 919
342 477
342 458
342 402
343 532
343 688
343 573
343 911
343 544
343 434
343 936
343 475
343 792
343 726
343 452
343 639
343 609
343 487
343 506
344 821
344 551
344 943
344 573
344 577
344 673
344 352
344 629
344 841
344 701
344 967
345 551
345 598
345 895
345 580
345 857
345 695
345 352
345 428
345 753
345 981
346 540
346 358
346 539
346 555
346 558
346 564
346 705
346 841
346 464
346 480
346 642
346 466
346 977
346 415
346 505
346 372
346 600
346 366
346 428
346 492
347 553
347 488
347 432
347 672
347 406
347 519
347 777
347 809
347 812
347 461
347 425
347 683
347 733
347 882
347 384
347 525
347 499
347 948
347 368
347 920
347 417
347 933
347 501
348 502
348 460
348 586
348 592
348 671
348 722
348 758
348 427
348 778
348 653
348 929
348 877
348 391
348 861
348 488
348 650
348 864
348 793
348 454
348 468
348 509
348 447
348 445
348 390
348 478
348 627
348 440
348 470
348 736
348 952
348 618
348 913
348 648
348 725
348 986
348 685
348 684
348 554
348 382
348 633
348 419
348 655
348 638
348 461
348 608
348 706
348 991
348 493
348 498
348 995
348 545
348 465
349 979
349 518
349 570
349 710
349 549
349 765
349 752
349 621
349 638
349 924
349 376
349 711
349 515
349 623
349 374
349 446
349 659
349 855
349 491
349 809
350 690
350 401
350 538
350 784
350 544
350 936
350 434
350 663
350 706
350 705
350 388
350 835
350 590
350 686
351 575
351 688
351 690
351 712
351 786
351 814
351 569
351 483
351 449
351 439
351 471
351 421
351 395
351 830
351 828
351 689
351 884
351 378
351 401
351 407
351 922
351 542
351 703
351 926
351 353
352 932
352 698
352 473
352 551
352 565
352 598
352 573
352 881
352 482
352 587
352 416
352 699
352 406
353 551
353 886
353 953
353 568
353 452
353 823
353 650
353 375
353 360
353 620
353 494
353 510
354 653
354 529
354 593
354 981
354 727
354 890
354 602
354 649
354 361
354 423
354 874
354 880
354 367
354 717
354 745
354 957
354 675
354 607
354 543
354 758
354 401
354 550
354 703
354 441
354 457
355 547
355 954
355 829
355 600
355 759
355 596
355 557
355 427
355 500
355 630
356 372
356 690
356 563
356 721
356 756
356 813
356 826
356 838
356 868
356 799
356 700
356 646
356 485
356 774
356 901
356 904
356 410
356 953
356 404
356 906
356 430
356 457
356 789
356 912
356 476
356 782
356 939
356 663
356 744
356 902
356 828
356 915
356 411
356 527
356 406
356 967
357 666
357 550
357 528
357 656
357 803
357 568
357 452
357 714
357 462
357 854
357 992
357 447
357 620
357 494
358 698
358 712
358 824
358 918
358 814
358 934
358 915
358 772
358 836
358 702
358 408
358 775
358 426
358 378
358 796
358 930
358 860
358 935
358 569
358 407
358 771
358 928
358 851
358 846
358 636
358 575
358 414
358 884
358 421
358 439
358 976
358 909
358 922
358 822
358 988
358 628
358 582
358 833
358 395
358 511
358 820
358 449
358 555
358 745
358 517
358 432
358 966
358 393
358 503
358 678
358 576
358 908
358 740
358 699
358 401
358 496
358 849
358 919
358 853
359 688
359 682
359 685
359 543
359 761
359 911
359 784
359 487
359 726
359 544
359 706
359 844
359 825
359 699
359 480
359 485
360 988
360 754
360 656
360 462
360 452
360 619
360 399
360 494
360 854
360 568
360 625
360 830
360 724
360 714
360 803
360 747
360 801
360 781
360 791
360 945
360 782
360 607
361 762
361 627
361 570
361 412
361 646
361 522
361 649
361 635
361 529
361 675
361 651
361 727
361 561
361 745
361 880
361 423
361 849
361 625
361 373
361 524
361 744
362 564
362 523
362 535
362 547
362 548
362 645
362 707
362 369
362 925
362 418
362 949
362 903
363 407
363 662
363 903
363 451
363 486
363 593
364 647
364 907
364 411
364 681
364 891
364 828
364 574
364 825
364 931
364 536
364 774
364 452
364 606
365 488
365 555
365 564
365 790
365 801
365 841
365 415
365 539
365 985
365 466
365 444
365 933
365 794
365 975
365 464
365 977
365 978
365 783
365 777
366 824
366 555
366 831
366 841
366 748
366 505
366 705
366 495
366 961
366 429
366 855
366 442
366 848
366 642
366 507
366 543
366 415
366 858
366 428
366 466
366 768
366 660
366 977
366 801
366 798
366 464
366 539
366 564
366 492
366 405
366 761
366 990
366 808
366 960
366 939
366 963
366 790
366 985
366 975
366 791
366 463
366 413
366 765
366 903
366 901
366 823
366 756
366 556
366 524
366 795
366 782
366 933
367 792
367 649
367 651
367 957
367 593
367 561
367 602
367 634
367 717
367 880
367 981
367 423
367 890
367 874
367 522
367 886
367 720
367 640
367 637
367 702
367 444
368 606
368 659
368 782
368 809
368 832
368 433
368 530
368 870
368 720
368 780
368 424
368 510
368 920
368 733
368 388
368 773
368 386
368 904
368 625
368 650
368 850
368 969
368 765
368 567
368 413
368 933
368 501
369 951
369 535
369 548
369 585
369 611
369 637
369 707
369 744
369 639
369 590
369 436
369 477
369 479
369 547
369 737
369 751
369 974
369 738
369 923
369 514
369 594
369 703
369 676
369 645
369 497
369 523
369 925
369 393
369 811
369 949
369 422
369 545
369 412
369 686
369 536
369 435
369 677
369 589
369 373
369 457
369 800
369 508
369 516
369 462
369 624
369 503
369 572
369 670
369 666
369 371
369 446
369 458
369 386
369 423
370 560
370 867
370 595
370 818
370 578
370 591
370 873
370 894
370 443
370 632
370 624
370 516
370 817
370 689
370 997
370 380
370 654
370 521
370 898
370 520
370 377
370 740
370 486
370 731
370 524
370 493
370 893
370 812
370 863
370 704
370 852
370 491
371 836
371 547
371 550
371 576
371 589
371 639
371 699
371 738
371 744
371 811
371 849
371 751
371 678
371 432
371 645
371 453
371 514
371 590
371 422
371 923
371 971
371 373
371 599
371 385
371 950
371 479
371 676
371 611
371 545
371 926
371 594
371 410
371 690
371 480
371 653
371 730
371 851
371 876
371 486
371 821
371 908
371 919
371 497
371 832
372 527
372 533
372 546
372 804
372 883
372 998
372 503
372 866
372 658
372 462
372 961
372 679
372 932
372 972
372 735
372 502
372 431
372 649
373 864
373 456
373 535
373 548
373 599
373 738
373 811
373 435
373 497
373 396
373 830
373 494
374 902
374 802
374 401
374 685
374 913
374 515
374 549
374 570
374 710
374 472
374 752
374 711
374 765
374 665
374 924
374 623
374 518
374 606
374 879
374 573
374 433
375 481
375 698
375 668
375 542
375 942
375 682
375 460
375 595
375 762
375 763
375 701
375 795
375 606
376 515
376 518
376 570
376 710
376 472
376 605
376 621
376 752
376 924
376 623
376 592
376 388
376 693
376 422
376 765
376 598
376 894
376 713
376 832
377 442
377 978
377 492
377 818
377 591
377 613
377 873
377 640
377 520
377 493
377 491
377 817
377 632
377 674
377 894
377 544
377 606
377 687
377 607
377 644
377 951
377 813
377 901
378 896
378 755
378 883
378 575
378 666
378 814
378 824
378 836
378 867
378 884
378 772
378 587
378 980
378 716
378 909
378 771
378 483
378 935
378 822
378 439
378 586
378 776
378 766
378 416
378 880
378 572
378 889
378 687
378 386
379 582
379 867
379 514
379 523
379 547
379 581
379 637
379 686
379 718
379 744
379 811
379 736
379 471
379 684
379 919
379 925
379 497
379 386
380 468
380 790
380 521
380 818
380 578
380 613
380 873
380 624
380 731
380 701
380 716
380 568
380 673
380 640
380 898
381 507
381 674
381 954
381 583
381 630
381 829
381 557
381 406
381 923
382 586
382 592
382 618
382 653
382 671
382 684
382 722
382 758
382 794
382 800
382 861
382 877
382 419
382 454
382 986
382 995
382 488
382 578
382 589
382 779
382 572
383 775
383 637
383 826
383 485
383 954
383 829
383 945
383 460
383 611
384 646
384 721
384 754
384 756
384 813
384 826
384 834
384 868
384 886
384 789
384 387
384 406
384 485
384 458
384 904
384 700
384 797
384 723
384 750
384 885
384 912
384 892
384 394
384 938
384 423
384 914
384 685
384 906
384 438
384 964
384 967
385 407
385 523
385 536
385 545
385 734
385 743
385 744
385 919
385 925
385 949
385 868
385 620
386 695
386 740
386 744
386 730
386 519
386 659
386 777
386 809
386 832
386 869
386 693
386 897
386 757
386 782
386 680
386 425
386 917
386 398
386 413
386 773
386 697
386 530
386 692
386 409
386 871
386 780
386 720
386 710
386 985
386 549
386 862
386 919
386 920
386 933
387 532
387 738
387 435
387 563
387 646
387 756
387 774
387 779
387 813
387 826
387 838
387 885
387 901
387 921
387 927
387 438
387 953
387 967
387 458
388 684
388 854
388 494
388 519
388 530
388 606
388 696
388 782
388 832
388 897
388 398
388 920
388 933
388 465
389 806
389 708
389 729
389 764
389 856
389 857
389 560
389 397
389 584
389 430
389 569
389 671
389 518
389 516
389 959
390 867
390 618
390 671
390 684
390 685
390 722
390 736
390 758
390 800
390 864
390 877
390 419
390 474
390 995
390 488
391 586
391 618
391 627
391 648
391 671
391 685
391 758
391 794
391 861
391 877
391 478
391 725
391 684
391 468
391 431
391 999
391 590
391 566
391 419
391 427
391 454
391 995
391 488
391 492
392 786
392 722
392 646
392 721
392 756
392 779
392 797
392 813
392 838
392 868
392 885
392 901
392 927
392 953
392 967
392 955
393 559
393 415
393 523
393 599
393 645
393 718
393 402
393 919
393 925
393 696
394 991
394 691
394 588
394 815
394 821
394 819
394 679
394 760
394 694
394 554
394 652
394 838
394 777
395 575
395 628
395 666
395 690
395 698
395 814
395 820
395 771
395 884
395 775
395 712
395 833
395 915
395 408
395 928
395 772
395 421
395 449
395 702
395 741
395 439
395 796
395 483
395 846
395 851
395 582
395 824
395 968
395 765
395 432
395 696
395 401
395 407
395 922
395 988
395 507
395 477
395 906
395 452
396 684
396 966
396 563
396 646
396 721
396 730
396 756
396 779
396 885
396 901
396 750
396 682
396 406
396 921
396 485
396 413
397 806
397 708
397 764
397 560
397 729
397 869
397 407
397 714
397 616
398 931
398 824
398 776
398 554
398 453
398 519
398 571
398 606
398 659
398 773
398 777
398 809
398 693
398 612
398 871
398 938
398 413
398 812
398 680
398 933
398 530
398 667
398 991
398 730
398 958
398 844
398 504
398 647
398 947
398 920
398 433
399 403
399 875
399 598
399 543
399 555
399 457
399 544
399 830
399 452
399 714
399 462
399 854
399 620
399 933
400 627
400 722
400 758
400 800
400 877
400 923
400 454
400 995
400 488
400 457
401 902
401 810
401 735
401 582
401 666
401 698
401 786
401 814
401 824
401 867
401 712
401 636
401 836
401 979
401 822
401 820
401 833
401 909
401 988
401 884
401 421
401 915
401 930
401 796
401 980
401 449
401 716
401 511
401 772
401 414
401 690
401 846
401 851
401 918
401 860
401 928
401 775
401 702
401 587
401 934
401 575
401 439
401 408
401 741
401 965
401 432
401 885
401 693
401 964
401 440
401 646
401 699
401 937
401 687
401 780
401 882
401 492
401 744
401 497
401 458
402 964
402 967
402 957
402 437
402 717
402 981
403 643
403 526
403 695
403 687
403 559
403 642
403 788
403 931
403 710
403 761
403 589
403 964
403 967
404 575
404 794
404 747
404 443
404 811
404 563
404 774
404 779
404 797
404 813
404 826
404 834
404 906
404 406
404 927
404 967
404 485
405 552
405 555
405 558
405 564
405 642
405 705
405 761
405 790
405 801
405 841
405 768
405 858
405 760
405 784
405 414
405 445
405 428
405 975
405 977
405 492
405 505
405 507
406 712
406 794
406 943
406 704
406 756
406 838
406 885
406 901
406 906
406 969
406 785
406 962
406 563
406 721
406 904
406 457
406 842
406 872
406 921
406 967
406 892
406 886
406 912
406 754
406 834
406 868
406 805
406 750
406 723
406 700
406 797
406 927
406 953
406 646
406 774
406 807
406 485
406 674
406 823
406 533
406 538
406 898
406 958
406 947
406 438
407 569
407 575
407 688
407 716
407 786
407 867
407 918
407 836
407 851
407 884
407 439
407 822
407 976
407 922
407 449
407 814
407 915
407 666
407 483
407 421
407 796
407 511
407 928
407 414
407 934
407 988
407 471
407 408
407 860
407 980
407 909
407 587
407 896
407 544
407 496
407 461
407 888
408 575
408 636
408 690
408 698
408 786
408 814
408 824
408 867
408 884
408 918
408 915
408 414
408 846
408 771
408 930
408 628
408 979
408 712
408 860
408 439
408 909
408 980
408 988
408 822
408 423
408 947
408 887
408 885
408 508
408 490
408 992
408 940
408 935
408 427
408 551
408 744
408 433
408 501
409 767
409 519
409 612
409 696
409 733
409 920
409 665
409 900
409 557
409 970
409 413
409 417
410 755
410 698
410 448
410 926
410 563
410 646
410 756
410 774
410 779
410 813
410 826
410 868
410 886
410 921
410 708
410 905
410 927
410 438
410 953
411 891
411 647
411 907
411 767
411 825
411 681
411 574
411 823
411 944
411 828
411 935
411 762
411 800
411 677
411 659
412 670
412 992
412 790
412 523
412 535
412 536
412 547
412 548
412 611
412 637
412 641
412 707
412 738
412 744
412 811
412 919
412 973
412 585
412 926
412 939
412 651
412 602
412 659
412 706
412 544
412 925
412 497
413 592
413 813
413 571
413 659
413 809
413 812
413 920
413 461
413 519
413 832
413 933
413 693
413 917
413 467
413 692
413 425
413 782
413 869
413 606
413 501
413 773
413 664
413 897
413 510
413 871
413 719
413 680
413 937
413 757
413 938
413 424
413 733
413 426
413 921
413 815
413 552
413 939
413 708
413 468
413 753
413 649
414 575
414 631
414 666
414 688
414 698
414 786
414 824
414 867
414 918
414 935
414 615
414 736
414 925
414 452
415 564
415 642
415 660
415 761
415 841
415 495
415 848
415 748
415 975
415 863
415 539
415 835
415 480
415 790
415 507
415 466
415 978
415 492
415 960
415 456
415 679
415 954
415 972
415 444
415 854
416 979
416 621
416 523
416 536
416 547
416 550
416 589
416 641
416 718
416 737
416 919
416 925
416 926
416 435
416 453
416 974
417 914
417 436
417 519
417 606
417 612
417 659
417 920
417 697
417 664
417 719
417 571
417 530
417 869
417 944
417 655
417 933
417 465
418 668
418 722
418 936
418 523
418 535
418 547
418 637
418 645
418 707
418 734
418 738
418 744
418 811
418 919
418 569
418 429
418 446
418 453
418 497
418 839
419 586
419 592
419 627
419 650
419 671
419 684
419 736
419 758
419 800
419 877
419 794
419 952
419 554
419 488
419 793
419 913
419 778
419 427
419 929
419 478
419 437
419 445
419 986
419 440
419 479
419 469
419 888
419 444
419 926
419 629
419 526
419 512
419 454
419 995
419 491
419 485
419 596
420 470
420 960
420 898
420 512
420 905
420 783
420 769
420 541
420 525
420 577
420 757
420 948
420 485
420 659
421 815
421 804
421 575
421 628
421 698
421 712
421 814
421 846
421 867
421 884
421 979
421 988
421 951
422 705
422 591
422 585
422 718
422 734
422 738
422 744
422 435
422 949
422 497
422 964
422 938
423 738
423 563
423 920
423 522
423 880
423 874
423 980
423 658
423 561
423 593
423 727
424 609
424 958
424 434
424 659
424 812
424 832
424 869
424 920
424 933
424 501
425 900
425 913
425 752
425 817
425 926
425 993
425 519
425 606
425 777
425 869
425 920
425 933
425 662
425 902
426 484
426 582
426 631
426 666
426 688
426 690
426 860
426 867
426 884
426 922
426 439
426 786
426 698
426 771
426 712
426 575
426 587
426 827
426 460
426 451
426 545
426 988
426 977
426 925
426 813
426 659
427 650
427 653
427 684
427 722
427 758
427 794
427 850
427 877
427 474
427 468
427 618
427 454
427 671
427 627
427 778
427 655
427 913
427 586
427 445
427 592
427 861
427 864
427 554
427 437
427 509
427 470
427 725
427 793
427 995
427 688
427 702
427 858
427 810
427 590
427 631
427 488
427 818
427 674
427 676
428 861
428 555
428 558
428 798
428 841
428 466
428 963
428 863
428 705
428 848
428 748
428 444
428 960
428 464
428 660
428 768
428 831
428 505
428 543
428 808
428 480
428 975
428 507
428 985
428 442
428 990
428 870
428 752
428 938
428 652
428 766
428 490
428 667
428 492
428 641
428 779
429 604
429 450
429 582
429 631
429 913
429 555
429 642
429 660
429 705
429 761
429 801
429 841
429 975
429 464
429 977
429 492
429 507
430 567
430 565
430 876
430 453
430 563
430 774
430 779
430 797
430 885
430 886
430 906
430 927
430 953
430 964
430 967
430 458
430 457
430 485
430 757
430 745
431 628
431 688
431 909
431 975
431 514
431 523
431 535
431 547
431 550
431 585
431 611
431 637
431 676
431 686
431 738
431 811
431 678
431 818
431 733
431 757
431 929
431 905
431 432
431 949
431 938
432 535
432 599
432 637
432 738
432 744
432 919
432 699
432 678
432 581
432 547
432 545
432 550
432 910
432 489
432 949
432 692
433 907
433 579
433 530
433 571
433 659
433 777
433 809
433 920
433 870
433 812
433 938
433 937
433 713
433 917
433 612
433 465
433 693
433 840
433 641
433 663
433 747
433 501
433 561
434 771
434 470
434 761
434 784
434 544
434 936
434 508
434 487
434 481
434 844
434 475
434 514
434 957
435 514
435 523
435 536
435 545
435 547
435 589
435 590
435 676
435 686
435 703
435 738
435 744
435 811
435 925
435 993
435 453
435 876
435 640
435 786
435 462
436 893
436 523
436 535
436 581
436 589
436 637
436 718
436 743
436 744
436 811
436 925
436 545
436 931
436 878
437 618
437 671
437 722
437 736
437 850
437 864
437 877
437 569
437 697
437 454
437 995
437 488
437 752
437 936
438 836
438 563
438 646
438 721
438 750
438 756
438 779
438 826
438 838
438 885
438 906
438 842
438 485
438 728
438 962
438 872
438 886
438 912
438 642
438 829
438 735
438 660
438 967
438 458
438 457
438 854
438 510
439 666
439 786
439 820
439 867
439 884
439 988
439 758
439 637
440 586
440 592
440 618
440 627
440 633
440 758
440 794
440 850
440 864
440 877
440 534
440 454
440 995
440 488
440 779
441 690
441 685
441 521
441 817
441 818
441 578
441 873
441 624
441 894
441 644
441 824
441 486
441 744
441 868
442 564
442 642
442 790
442 841
442 977
442 835
442 801
442 464
442 808
442 480
442 975
442 466
442 858
442 748
442 978
442 732
442 886
442 444
442 492
442 507
442 589
442 773
443 931
443 873
443 898
443 644
443 674
443 863
443 491
443 720
444 481
444 543
444 564
444 761
444 841
444 939
444 975
444 808
444 790
444 934
444 852
444 726
444 576
444 512
444 492
444 905
444 721
445 867
445 592
445 627
445 722
445 758
445 794
445 800
445 827
445 850
445 877
445 450
445 953
445 454
445 995
445 488
445 635
446 484
446 867
446 592
446 523
446 535
446 599
446 637
446 645
446 707
446 743
446 811
446 925
446 676
446 737
446 477
446 949
446 845
446 962
446 762
447 970
447 586
447 592
447 627
447 671
447 722
447 736
447 758
447 800
447 719
447 482
447 454
447 995
447 488
447 637
447 832
448 513
448 958
448 614
448 852
448 747
448 622
448 739
448 496
448 499
448 746
448 992
448 955
448 845
448 673
448 530
449 575
449 666
449 698
449 814
449 860
449 867
449 988
449 823
450 968
450 533
450 862
450 866
450 883
450 658
450 914
450 669
450 604
450 556
450 972
450 854
450 617
450 987
450 735
450 998
450 614
450 908
450 919
450 606
451 454
451 535
451 779
451 458
451 662
451 610
451 545
451 911
451 847
451 603
451 742
451 616
452 787
452 556
452 716
452 638
452 747
452 464
452 563
452 656
452 955
452 568
452 854
452 625
452 714
452 462
452 724
452 619
452 830
452 459
452 529
452 620
453 735
453 644
453 523
453 535
453 547
453 645
453 744
453 811
453 925
453 545
453 678
453 743
453 754
453 761
453 604
454 942
454 586
454 592
454 671
454 722
454 758
454 850
454 877
454 952
454 650
454 618
454 478
454 913
454 929
454 684
454 800
454 633
454 509
454 995
454 554
454 827
454 488
454 685
454 794
454 778
454 861
454 793
454 653
454 736
454 725
454 864
454 986
454 470
454 468
454 783
454 997
454 754
454 605
454 922
454 708
454 985
454 838
454 692
454 812
455 575
455 999
455 762
455 877
455 958
455 614
455 499
455 845
455 513
455 747
455 996
455 992
455 749
455 785
455 715
455 852
455 746
455 622
456 891
456 884
456 800
456 515
456 518
456 665
456 549
456 570
456 966
456 526
456 472
456 621
456 638
456 974
457 739
457 622
457 589
457 646
457 721
457 756
457 813
457 826
457 838
457 885
457 927
457 953
457 967
457 797
457 912
457 886
457 534
457 921
457 794
457 712
457 845
457 521
458 784
458 743
458 534
458 646
458 721
458 754
458 756
458 797
458 813
458 838
458 885
458 964
458 967
458 834
458 728
458 826
458 700
458 485
458 563
458 774
458 868
458 901
458 872
458 969
458 789
458 730
458 807
458 476
458 839
458 704
458 886
458 795
458 594
458 767
458 557
458 471
458 480
458 713
458 529
458 606
458 598
458 757
458 890
459 909
459 551
459 943
459 573
459 584
459 895
459 577
459 544
459 982
459 629
459 990
459 523
460 609
460 776
460 668
460 682
460 970
460 763
460 661
460 942
460 999
460 879
460 732
460 762
460 843
460 881
460 689
460 509
460 464
460 617
460 505
460 714
460 522
461 519
461 606
461 667
461 777
461 782
461 832
461 920
461 933
461 501
462 716
462 919
462 656
462 572
462 568
462 955
462 494
462 830
462 619
462 823
462 803
462 724
462 699
462 943
462 513
462 881
462 797
462 781
462 854
462 519
463 972
463 615
463 875
463 984
463 882
463 538
463 531
463 489
463 884
463 781
463 535
463 946
463 838
463 593
464 592
464 877
464 986
464 539
464 555
464 564
464 761
464 841
464 975
464 963
464 492
464 705
464 990
464 466
464 505
464 977
464 480
464 558
464 960
464 768
464 790
464 855
464 484
464 837
464 917
464 595
464 507
464 925
464 754
464 662
465 788
465 791
465 722
465 585
465 906
465 606
465 773
465 777
465 920
465 869
465 840
465 870
465 510
465 612
465 501
465 667
465 467
465 782
465 733
465 664
465 683
465 917
465 693
465 780
465 697
465 841
465 731
465 681
465 690
465 563
465 584
465 518
465 956
465 914
466 555
466 564
466 705
466 761
466 801
466 831
466 841
466 495
466 813
467 975
467 523
467 535
467 953
467 530
467 659
467 777
467 809
467 510
468 554
468 618
468 655
468 671
468 684
468 722
468 736
468 758
468 794
468 850
468 877
468 819
468 709
468 882
468 985
468 547
468 995
468 488
468 885
469 899
469 900
469 902
469 567
469 579
469 983
469 755
469 670
469 484
469 552
469 540
469 730
469 621
469 506
469 666
469 663
470 806
470 972
470 618
470 671
470 722
470 736
470 758
470 794
470 778
470 693
470 918
470 523
470 995
470 488
470 785
470 834
471 575
471 582
471 628
471 666
471 690
471 698
471 786
471 820
471 822
471 824
471 860
471 867
471 884
471 918
471 922
471 935
471 988
471 919
471 927
471 920
472 515
472 518
472 570
472 711
472 710
472 765
472 987
472 623
472 665
472 549
472 621
472 966
472 525
472 748
472 793
472 560
472 752
472 551
472 645
473 776
473 661
473 542
473 942
473 682
473 595
473 856
473 497
473 488
473 718
473 921
474 554
474 586
474 592
474 618
474 627
474 655
474 722
474 850
474 986
474 684
474 671
474 793
474 827
474 630
474 991
474 971
474 507
474 678
474 954
474 478
474 995
474 488
475 669
475 592
475 911
475 663
475 844
475 487
475 726
475 792
475 506
475 544
475 784
475 786
475 730
475 953
476 564
476 949
476 646
476 704
476 754
476 756
476 785
476 834
476 838
476 868
476 906
476 927
476 953
476 964
476 967
476 485
477 514
477 523
477 536
477 718
477 743
477 811
477 550
477 581
477 923
477 978
477 716
477 643
477 497
478 609
478 755
478 586
478 618
478 684
478 722
478 758
478 800
478 864
478 877
478 986
478 554
478 846
478 842
478 588
478 529
478 890
478 905
478 995
478 488
478 492
478 563
479 573
479 514
479 523
479 535
479 536
479 547
479 585
479 590
479 686
479 718
479 738
479 743
479 744
479 811
479 919
479 949
479 497
479 783
480 715
480 543
480 705
480 761
480 801
480 841
480 990
480 805
480 492
480 495
480 505
480 507
480 905
480 649
481 770
481 899
481 900
481 553
481 566
481 968
481 983
481 608
481 609
481 896
481 670
481 484
481 552
481 579
481 889
481 567
481 941
481 517
481 810
481 691
481 663
481 800
481 776
481 755
481 820
481 861
481 488
481 641
481 769
481 568
482 806
482 551
482 565
482 573
482 584
482 598
482 766
482 982
482 943
482 881
482 895
482 835
482 540
482 643
482 876
482 629
483 914
483 575
483 628
483 631
483 666
483 698
483 786
483 814
483 824
483 867
483 884
483 935
483 979
483 988
483 564
483 660
483 734
484 770
484 900
484 902
484 540
484 566
484 609
484 989
484 896
484 552
484 983
484 968
484 553
484 899
484 941
484 810
484 567
484 608
484 755
484 670
484 889
484 843
484 793
484 893
484 763
484 578
484 585
485 668
485 721
485 730
485 774
485 779
485 813
485 838
485 904
485 906
485 953
485 964
485 967
485 921
485 723
485 885
485 839
485 704
485 785
485 563
485 807
485 886
485 969
485 927
485 750
485 646
485 797
485 892
485 700
485 912
485 756
485 743
485 915
485 822
485 612
485 664
485 496
485 965
485 538
486 944
486 746
486 521
486 818
486 578
486 591
486 873
486 624
486 893
486 894
486 640
486 644
486 912
486 776
486 572
486 963
486 596
486 567
486 491
487 819
487 663
487 706
487 792
487 726
487 784
487 911
487 506
487 536
487 497
488 909
488 592
488 627
488 684
488 722
488 758
488 850
488 864
488 877
488 952
488 827
488 800
488 586
488 794
488 861
488 986
488 685
488 929
488 995
488 633
488 913
488 671
488 725
488 618
488 778
488 736
488 543
488 598
488 964
488 763
488 651
488 844
488 563
488 756
488 593
489 615
489 882
489 984
489 538
489 531
489 946
489 973
489 711
489 853
490 860
490 671
490 536
490 547
490 576
490 718
490 743
490 925
490 993
490 535
490 932
490 492
491 818
491 578
491 591
491 640
491 644
491 674
491 613
491 740
491 997
491 521
491 951
491 689
491 731
491 757
491 513
491 626
491 981
492 527
492 595
492 684
492 539
492 555
492 705
492 761
492 798
492 801
492 841
492 960
492 975
492 978
492 768
492 808
492 985
492 642
492 990
492 507
492 939
492 564
492 790
492 831
492 558
492 505
492 855
492 835
492 858
492 748
492 953
492 861
492 679
492 509
492 872
492 885
492 590
492 495
492 964
493 516
493 818
493 578
493 591
493 873
493 632
493 898
493 644
493 675
494 786
494 844
494 656
494 955
494 572
494 568
494 854
494 823
494 619
494 625
494 803
494 830
494 617
494 695
494 562
495 846
495 618
495 555
495 564
495 761
495 790
495 831
495 841
495 975
495 978
495 768
495 977
495 705
495 985
495 539
495 960
495 660
495 808
495 848
495 543
495 893
495 511
495 706
495 682
495 936
495 594
496 819
496 958
496 715
496 845
496 852
496 992
496 499
496 656
497 533
497 514
497 523
497 535
497 590
497 599
497 676
497 707
497 744
497 811
497 926
497 743
497 849
497 645
497 594
497 536
497 547
497 677
497 947
497 925
497 581
497 718
497 993
497 734
497 751
497 589
497 686
497 858
497 657
497 862
497 500
497 722
497 864
498 787
498 791
498 546
498 816
498 862
498 883
498 669
498 932
498 735
498 533
498 661
498 725
498 595
498 876
499 575
499 716
499 958
499 852
499 992
499 739
499 614
499 879
499 927
499 606
500 617
500 740
500 639
500 799
500 568
500 694
500 956
500 601
500 878
500 628
500 897
501 517
501 749
501 761
501 961
501 519
501 571
501 606
501 680
501 777
501 809
501 832
501 920
501 933
501 897
501 713
501 693
501 667
501 840
501 659
501 719
501 696
501 733
501 870
501 780
501 773
501 917
501 757
501 612
501 938
501 937
501 697
501 782
501 985
501 808
501 987
501 542
501 755
501 803
501 860
501 781
501 825
501 882
502 527
502 533
502 537
502 862
502 932
502 735
502 749
502 866
502 658
502 861
502 503
502 877
502 505
502 727
503 533
503 537
503 556
503 816
503 862
503 658
503 669
503 972
503 604
503 504
503 526
503 995
504 628
504 988
504 761
504 523
504 905
504 528
504 672
504 541
504 906
504 572
505 752
505 555
505 705
505 761
505 801
505 831
505 841
505 975
505 539
505 939
505 507
505 543
505 564
505 848
505 960
505 642
505 977
505 963
505 863
505 987
505 650
505 984
505 608
505 659
506 608
506 911
506 784
506 663
506 792
506 544
506 844
506 936
506 706
506 892
506 691
506 927
507 517
507 843
507 539
507 555
507 705
507 761
507 790
507 841
507 960
507 748
507 660
507 798
507 963
507 990
507 855
507 543
507 642
507 977
507 985
507 670
507 563
507 549
507 618
507 592
507 604
508 517
508 579
508 618
508 544
508 936
508 844
508 662
508 885
508 802
508 590
508 563
509 586
509 592
509 618
509 627
509 633
509 722
509 736
509 758
509 794
509 800
509 850
509 877
509 986
510 802
510 703
510 571
510 606
510 696
510 777
510 920
510 933
510 733
510 897
510 773
510 695
510 537
510 971
510 940
510 709
510 658
510 749
511 575
511 587
511 628
511 636
511 666
511 690
511 698
511 867
511 884
511 909
511 935
511 979
512 708
512 986
512 641
512 686
512 905
512 672
512 783
512 531
512 721
512 863
512 525
512 910
512 528
512 948
512 562
512 603
512 777
513 866
513 722
513 958
513 992
513 739
513 747
513 614
513 755
513 756
513 852
513 996
513 746
513 637
513 528
513 938
514 569
514 918
514 622
514 611
514 677
514 703
514 852
514 535
514 536
514 547
514 548
514 589
514 599
514 676
514 926
514 949
514 993
515 913
515 765
515 711
515 623
515 924
515 966
515 518
515 752
515 665
515 533
515 618
515 743
515 808
515 570
515 605
515 949
516 631
516 924
516 558
516 689
516 894
516 817
516 521
516 740
516 578
516 524
516 913
516 818
516 591
516 613
516 640
516 898
516 644
516 701
516 919
516 721
516 568
517 770
517 899
517 941
517 896
517 566
517 552
517 608
517 553
517 902
517 567
517 540
517 889
517 983
517 900
517 657
517 532
517 579
517 609
517 633
517 744
517 920
518 623
518 621
518 570
518 711
518 987
518 605
518 638
518 710
518 765
518 988
518 527
518 665
518 549
518 639
519 647
519 814
519 867
519 758
519 523
519 737
519 920
519 809
519 693
519 680
519 780
519 933
519 938
519 733
519 664
519 667
519 659
519 571
519 757
519 777
519 812
519 871
519 719
519 606
519 840
519 782
519 530
519 688
519 545
519 877
519 975
519 534
519 646
519 832
519 897
520 997
520 817
520 898
520 644
520 731
520 578
520 591
520 640
520 873
520 694
520 613
520 624
520 674
521 916
521 997
521 873
521 701
521 689
521 591
521 527
521 816
521 755
521 741
521 818
521 578
521 613
521 894
521 898
521 644
521 951
521 885
522 542
522 704
522 904
522 812
522 602
522 675
522 957
522 649
522 561
522 634
522 981
522 890
522 593
522 955
522 552
522 767
522 802
522 671
522 938
523 775
523 665
523 555
523 660
523 637
523 919
523 645
523 734
523 908
523 548
523 676
523 589
523 973
523 611
523 536
523 925
523 641
523 581
523 550
523 811
523 949
523 639
523 576
523 718
523 950
523 923
523 849
523 677
523 678
523 585
523 744
523 743
523 971
523 699
523 947
523 926
523 862
523 750
523 896
523 742
523 726
523 895
523 697
523 745
523 883
523 674
523 820
523 535
523 547
523 599
523 703
524 689
524 640
524 613
524 873
524 893
524 706
524 818
524 624
524 674
524 731
525 841
525 541
525 528
525 769
525 998
525 783
525 672
525 948
526 687
526 695
526 597
526 788
526 787
526 916
526 931
526 542
527 914
527 859
527 994
527 709
527 865
527 556
527 866
527 791
527 604
527 862
527 548
527 546
527 658
527 669
527 932
527 735
527 998
527 684
527 750
527 869
528 647
528 893
528 550
528 905
528 673
528 783
528 948
528 672
528 769
528 805
528 621
528 648
529 545
529 672
529 651
529 602
529 824
529 830
529 957
529 717
529 727
530 896
530 831
530 744
530 659
530 897
530 693
530 733
530 780
530 832
530 869
530 757
530 571
530 777
530 683
530 726
530 915
530 894
530 566
530 839
530 982
530 606
530 680
530 809
530 920
530 933
531 770
531 615
531 882
531 984
531 875
531 838
531 618
532 770
532 900
532 902
532 889
532 941
532 540
532 670
532 810
532 989
532 608
532 609
532 755
532 666
532 535
532 890
533 760
533 972
533 669
533 791
533 859
533 883
533 604
533 862
533 735
533 816
533 546
533 865
533 804
533 914
533 749
533 658
533 537
533 932
533 646
533 967
533 819
533 817
533 561
534 547
534 813
534 730
534 756
534 906
534 962
534 723
534 807
534 695
534 763
534 646
534 721
534 838
534 885
534 901
534 953
534 964
534 967
535 922
535 973
535 548
535 547
535 589
535 734
535 645
535 576
535 811
535 919
535 590
535 743
535 678
535 599
535 637
535 926
535 703
535 947
535 677
535 639
535 839
535 654
535 901
535 748
535 806
535 732
535 545
535 550
535 585
535 737
535 744
535 949
535 785
535 854
536 669
536 671
536 639
536 743
536 908
536 599
536 547
536 734
536 590
536 676
536 947
536 992
536 573
536 548
536 699
536 738
536 744
536 811
536 919
536 926
536 949
537 791
537 866
537 865
537 804
537 862
537 758
537 546
537 658
537 914
537 669
537 932
537 735
537 998
537 618
537 933
538 814
538 615
538 875
538 946
538 882
538 984
538 712
538 705
538 841
538 818
538 933
539 867
539 684
539 808
539 891
539 555
539 564
539 705
539 761
539 790
539 798
539 841
539 977
540 770
540 900
540 902
540 810
540 574
540 579
540 608
540 609
540 755
540 841
540 704
540 920
540 727
541 679
541 738
541 769
541 905
541 783
541 910
541 694
541 894
541 598
541 562
542 668
542 942
542 682
542 732
542 944
542 843
542 776
542 919
542 762
542 992
542 813
542 777
542 832
542 897
543 598
543 705
543 798
543 808
543 753
543 761
543 841
543 963
543 977
543 990
544 911
544 784
544 844
544 792
544 726
544 706
544 965
544 909
544 975
544 703
545 574
545 926
545 637
545 645
545 751
545 550
545 576
545 925
545 686
545 547
545 759
545 585
545 599
545 676
545 744
545 849
545 919
545 949
545 993
546 862
546 669
546 865
546 791
546 859
546 735
546 972
546 658
546 804
546 604
546 556
546 883
546 749
546 776
546 547
546 866
546 932
546 998
546 763
546 790
546 557
547 598
547 589
547 949
547 950
547 718
547 947
547 585
547 738
547 594
547 811
547 865
547 770
547 998
547 610
547 637
547 645
547 703
547 919
547 993
548 877
548 926
548 611
548 590
548 977
548 814
548 637
548 677
548 718
548 734
548 811
548 919
549 889
549 884
549 671
549 665
549 987
549 638
549 710
549 605
549 570
549 912
549 908
549 561
549 793
549 752
549 765
549 933
550 916
550 931
550 641
550 849
550 744
550 717
550 800
550 576
550 703
550 718
550 738
550 743
550 811
550 926
550 993
550 600
551 763
551 800
551 584
551 577
551 629
551 881
551 876
551 573
551 943
551 895
551 597
551 580
551 598
551 890
551 608
551 622
551 565
552 896
552 770
552 899
552 902
552 670
552 983
552 553
552 567
552 608
552 609
552 599
553 770
553 902
553 983
553 896
553 810
553 889
553 755
553 670
553 705
553 785
553 965
553 989
553 608
553 614
553 811
553 728
554 627
554 793
554 758
554 794
554 618
554 648
554 653
554 722
554 913
554 933
554 586
554 592
554 736
554 850
554 864
554 564
554 807
555 758
555 660
555 961
555 978
555 798
555 748
555 975
555 863
555 985
555 848
555 858
555 642
555 855
555 939
555 831
555 835
555 801
555 960
555 790
555 841
555 963
555 761
555 764
555 881
555 584
555 605
555 689
555 564
555 977
555 809
556 652
556 804
556 735
556 883
556 862
556 899
556 796
556 658
556 932
556 998
556 586
556 800
556 995
557 862
557 995
557 811
557 721
557 630
557 945
557 829
558 848
558 961
558 841
558 808
558 835
558 963
558 768
558 642
558 960
558 842
558 705
558 761
558 975
558 817
558 904
559 643
559 788
559 802
559 931
559 724
559 752
560 708
560 764
560 729
560 843
560 857
560 918
560 580
560 674
560 714
561 588
561 578
561 676
561 675
561 717
561 874
561 981
561 602
561 900
561 631
561 851
561 745
562 627
562 893
562 781
562 657
562 626
562 601
562 956
563 712
563 646
563 868
563 799
563 839
563 964
563 813
563 834
563 785
563 962
563 704
563 756
563 928
563 601
563 588
563 721
563 730
563 754
563 838
563 885
563 886
563 967
563 830
563 847
564 816
564 940
564 985
564 798
564 863
564 858
564 977
564 801
564 963
564 841
564 978
564 848
564 990
564 660
564 768
564 939
564 975
564 808
564 790
564 642
564 896
564 905
564 876
564 830
564 986
564 705
564 640
565 932
565 800
565 943
565 876
565 580
565 597
565 629
565 598
565 766
565 671
565 572
565 573
565 837
566 770
566 900
566 755
566 567
566 941
566 579
566 609
566 902
566 968
566 907
566 859
566 865
566 702
566 621
566 925
566 789
566 714
567 770
567 902
567 941
567 579
567 983
567 608
567 889
567 896
567 900
567 830
567 860
567 609
568 824
568 919
568 656
568 803
568 955
568 714
568 830
568 572
568 724
568 625
568 823
568 782
568 644
568 648
568 667
568 854
568 620
569 669
569 846
569 909
569 988
569 702
569 666
569 775
569 928
569 965
569 935
569 871
569 627
569 582
569 628
569 688
569 698
569 814
569 820
569 836
569 867
569 922
570 592
570 671
570 995
570 665
570 924
570 605
570 621
570 765
570 966
570 710
570 987
570 623
570 938
570 595
570 683
570 919
570 983
570 752
571 949
571 834
571 838
571 696
571 920
571 713
571 780
571 917
571 697
571 664
571 871
571 757
571 897
571 773
571 679
571 982
571 867
571 975
571 890
571 925
571 656
571 826
571 606
571 659
571 777
571 809
571 812
571 635
572 688
572 663
572 779
572 656
572 606
572 714
573 877
573 577
573 837
573 881
573 580
573 982
573 597
573 896
573 666
573 584
573 598
573 876
573 838
573 885
574 891
574 647
574 828
574 907
574 716
574 834
574 767
574 989
574 779
575 712
575 796
575 666
575 688
575 775
575 786
575 979
575 820
575 814
575 851
575 822
575 833
575 884
575 741
575 636
575 935
575 922
575 824
575 771
575 909
575 772
575 631
575 582
575 836
575 867
575 928
575 988
575 980
575 965
575 698
575 915
575 976
575 846
575 702
575 918
575 690
575 660
575 748
575 901
575 710
575 948
575 581
575 715
575 720
575 734
575 944
575 627
575 744
575 774
576 584
576 751
576 594
576 744
576 706
576 812
576 990
576 637
576 686
576 707
576 718
576 919
576 920
576 938
577 587
577 684
577 876
577 860
577 581
578 818
578 632
578 997
578 893
578 898
578 951
578 624
578 591
578 640
578 701
578 654
578 740
578 682
578 744
578 579
578 644
578 707
578 904
579 770
579 899
579 900
579 670
579 896
579 941
579 983
579 968
579 609
579 828
579 608
579 755
579 682
579 618
579 640
579 844
579 813
579 713
580 712
580 982
580 766
580 629
580 699
580 908
581 582
581 882
581 722
581 734
581 751
581 676
581 950
581 743
581 753
581 853
581 885
581 589
581 599
581 744
582 884
582 930
582 867
582 988
582 702
582 772
582 979
582 928
582 939
582 587
582 666
582 688
582 690
582 712
582 796
582 814
582 820
582 935
582 911
583 883
583 829
583 945
583 596
584 861
584 650
584 629
584 818
584 927
585 968
585 666
585 586
585 947
585 703
585 751
585 678
585 926
585 744
585 908
585 925
585 639
585 990
585 588
585 599
585 919
585 906
586 653
586 671
586 850
586 725
586 929
586 778
586 736
586 827
586 655
586 685
586 783
586 932
586 592
586 618
586 627
586 684
586 722
586 758
586 794
586 864
586 877
586 995
586 765
587 631
587 690
587 666
587 934
587 796
587 929
587 952
587 698
587 814
587 867
587 918
587 935
587 988
587 773
588 755
588 652
588 679
588 815
588 691
588 819
588 991
588 760
588 687
588 754
588 886
589 932
589 944
589 665
589 801
589 639
589 974
589 678
589 923
589 677
589 811
589 919
589 611
589 849
589 858
589 805
589 593
589 921
589 590
589 645
589 737
589 744
589 925
589 926
589 620
589 945
589 602
590 816
590 998
590 947
590 919
590 641
590 971
590 637
590 987
590 794
590 707
590 738
590 744
590 811
590 925
590 993
590 964
590 897
591 922
591 818
591 893
591 731
591 632
591 951
591 640
591 595
591 594
591 875
591 898
591 644
591 728
592 691
592 850
592 648
592 952
592 725
592 827
592 929
592 618
592 627
592 778
592 633
592 864
592 995
592 861
592 793
592 774
592 782
592 852
592 886
592 683
592 671
592 722
592 736
592 877
592 894
592 593
593 729
593 811
593 956
593 651
593 675
593 717
593 634
593 602
593 635
593 957
593 874
593 981
593 649
593 880
593 848
593 759
593 727
594 814
594 790
594 912
594 645
594 718
594 744
594 811
594 849
594 925
594 949
594 967
594 803
595 668
595 942
595 763
595 879
595 661
595 617
595 732
595 682
595 944
595 843
595 999
595 596
595 919
596 850
596 646
596 721
596 954
596 630
596 759
596 899
596 887
597 691
597 931
597 837
597 991
597 982
597 784
597 967
598 982
598 943
598 876
598 895
598 881
598 816
598 629
598 885
599 998
599 814
599 919
599 718
599 645
599 699
599 734
599 908
599 803
599 741
599 874
599 896
599 893
599 637
599 738
599 744
600 788
600 622
600 953
600 945
600 954
600 992
600 630
601 836
601 884
601 850
601 694
601 956
601 668
601 829
601 878
601 603
602 957
602 981
602 727
602 634
602 956
602 607
603 676
603 904
603 742
603 610
603 903
603 888
603 887
603 662
603 853
603 723
603 616
603 635
604 816
604 735
604 669
604 939
604 681
604 853
604 862
604 883
604 814
604 617
605 883
605 979
605 665
605 638
605 841
606 831
606 812
606 938
606 917
606 920
606 720
606 777
606 697
606 897
606 809
606 664
606 869
606 683
606 612
606 782
606 667
606 696
606 757
606 933
606 773
606 692
606 719
606 937
606 733
606 871
606 680
606 832
606 713
606 862
606 876
606 903
606 935
606 940
606 665
607 712
607 999
607 981
607 888
607 745
608 896
608 770
608 900
608 941
608 889
608 899
608 810
608 984
608 675
608 609
608 755
608 761
608 801
609 896
609 770
609 902
609 899
609 755
609 810
609 889
609 983
609 941
609 670
609 961
609 907
610 819
610 898
610 826
610 964
610 662
610 847
610 887
610 727
611 639
611 738
611 947
611 637
611 931
611 707
611 743
611 744
611 925
611 926
612 883
612 786
612 979
612 683
612 874
612 939
612 696
612 777
612 782
612 809
612 832
612 920
612 933
613 755
613 669
613 818
613 817
613 654
613 634
613 923
613 894
613 644
613 795
613 826
614 735
614 958
614 852
614 746
614 845
614 622
614 992
614 885
614 756
615 882
615 875
615 946
615 871
615 688
615 648
615 653
615 646
615 756
616 902
616 859
616 822
616 894
616 797
616 903
616 662
616 853
616 888
616 887
616 761
617 668
617 942
617 685
617 763
617 925
618 749
618 690
618 778
618 827
618 671
618 758
618 913
618 995
618 929
618 864
618 722
618 655
618 627
618 633
618 877
618 795
618 941
618 906
618 794
618 800
618 630
619 846
619 967
619 656
619 803
619 955
619 830
619 714
619 854
620 707
620 955
620 714
620 854
620 803
620 703
620 933
621 710
621 966
621 665
621 711
621 752
621 638
621 718
621 974
621 803
621 733
622 698
622 685
622 958
622 715
622 852
622 739
622 996
622 746
622 744
623 665
623 924
623 711
623 752
623 638
623 721
623 635
624 818
624 701
624 903
624 898
624 644
624 674
624 951
625 656
625 955
625 854
625 930
625 788
625 957
626 867
626 850
626 694
626 959
626 878
626 781
626 956
626 657
626 864
627 864
627 986
627 800
627 725
627 850
627 671
627 995
627 736
627 633
627 793
627 929
627 684
627 877
627 952
627 794
627 648
627 650
627 827
627 655
627 868
627 741
627 738
627 721
627 722
627 758
628 716
628 690
628 786
628 979
628 980
628 698
628 846
628 934
628 688
628 922
628 860
628 687
628 780
628 814
628 824
628 867
628 909
628 935
628 988
628 844
629 970
629 736
629 943
629 876
629 837
629 895
629 759
629 769
629 713
629 817
630 850
630 754
630 954
630 726
630 834
630 933
631 772
631 988
631 820
631 666
631 690
631 712
631 716
631 786
631 814
631 935
631 939
632 735
632 818
632 903
632 898
632 701
632 812
633 794
633 671
633 736
633 758
633 800
633 864
633 734
633 927
634 922
634 797
634 649
634 981
635 770
635 877
635 957
635 727
636 775
636 918
636 702
636 976
636 928
636 846
636 940
636 874
636 698
636 814
636 824
636 867
636 922
636 979
636 988
636 885
637 741
637 922
637 737
637 919
637 849
637 973
637 678
637 925
637 971
637 974
637 744
637 734
637 686
637 699
637 947
637 811
637 852
637 756
637 995
637 853
637 645
637 743
637 949
638 665
638 710
638 752
638 765
638 982
638 886
639 993
639 971
639 699
639 718
639 738
639 744
639 849
639 925
639 949
640 995
640 818
640 873
640 731
640 674
640 894
640 689
640 701
640 940
640 792
640 924
640 898
640 921
640 832
640 920
641 645
641 676
641 971
641 973
641 718
641 734
641 738
641 744
641 926
641 949
642 768
642 748
642 790
642 660
642 975
642 855
642 831
642 743
642 735
642 728
642 705
642 761
642 801
642 841
642 977
643 931
643 838
643 899
643 788
643 787
643 687
644 843
644 758
644 966
644 818
644 873
644 898
644 894
644 893
644 817
644 951
644 674
644 997
644 654
644 740
644 690
644 759
644 698
644 872
644 767
644 977
644 840
644 967
645 736
645 677
645 949
645 908
645 703
645 804
645 715
645 841
645 744
645 811
645 849
645 925
645 646
645 927
646 868
646 730
646 795
646 834
646 754
646 964
646 785
646 921
646 967
646 912
646 779
646 904
646 750
646 700
646 728
646 805
646 989
646 924
646 671
646 773
646 838
646 906
646 927
646 953
647 891
647 825
647 767
647 681
647 907
647 828
647 690
647 864
647 927
647 719
648 988
648 650
648 986
648 850
648 655
648 736
648 821
648 661
648 671
648 685
648 722
648 794
648 800
648 744
648 901
649 988
649 981
649 658
649 957
649 890
650 666
650 712
650 879
650 671
650 684
650 722
650 736
650 758
650 800
650 850
650 864
650 877
650 995
650 834
650 727
651 890
651 745
651 675
651 652
651 813
651 957
651 717
651 727
652 991
652 760
652 819
652 679
652 691
652 859
653 722
653 995
653 685
653 861
653 671
653 684
653 736
653 758
653 794
653 800
653 864
653 877
654 668
654 818
654 873
654 919
655 709
655 722
655 758
655 800
655 986
655 995
655 990
655 817
655 743
656 854
656 830
656 823
657 755
657 826
657 669
657 814
657 956
657 959
657 878
657 753
657 903
658 791
658 816
658 862
658 883
658 932
658 749
658 859
658 914
658 998
658 994
658 688
658 995
658 823
658 777
658 669
658 972
658 735
658 716
658 741
659 786
659 694
659 757
659 938
659 664
659 680
659 937
659 696
659 782
659 917
659 692
659 720
659 869
659 777
659 719
659 832
659 913
659 660
659 911
659 678
659 714
659 667
659 809
659 812
659 920
660 768
660 761
660 841
660 975
660 990
661 999
661 668
661 763
661 879
661 778
661 738
661 747
661 942
661 682
662 990
662 903
662 742
662 702
662 997
662 847
663 814
663 911
663 936
663 726
663 784
663 706
663 672
664 770
664 864
664 792
664 738
664 783
664 667
664 777
664 809
664 869
664 920
664 933
665 698
665 924
665 966
665 987
665 978
665 711
665 809
666 772
666 867
666 976
666 741
666 979
666 965
666 820
666 918
666 702
666 698
666 988
666 716
666 824
666 928
666 915
666 833
666 909
666 688
666 934
666 980
666 712
666 884
666 807
666 830
666 873
666 885
666 779
666 798
666 714
666 690
666 786
666 922
666 893
666 717
667 899
667 807
667 735
667 777
667 809
667 832
667 920
667 933
668 843
668 762
668 682
668 763
668 732
668 970
668 999
668 940
668 980
668 753
668 942
668 944
668 704
669 862
669 865
669 816
669 994
669 735
669 709
669 914
669 883
669 749
669 804
669 998
669 777
669 932
669 850
669 838
670 770
670 900
670 983
670 902
670 671
670 989
670 755
670 897
671 861
671 929
671 725
671 736
671 684
671 952
671 995
671 986
671 864
671 758
671 827
671 877
671 776
671 972
671 722
671 850
671 811
671 920
672 860
672 923
672 783
672 769
672 948
673 698
673 761
673 905
673 783
673 910
673 948
674 986
674 818
674 873
674 893
674 894
674 898
674 951
674 731
674 974
674 740
675 769
675 950
675 717
675 727
676 881
676 849
676 677
676 743
676 811
676 678
676 973
676 947
676 734
676 857
676 686
676 699
676 703
676 718
676 744
676 919
676 925
676 926
676 949
676 906
676 964
676 920
677 941
677 836
677 988
677 841
677 818
677 702
677 838
677 756
677 703
677 707
677 744
677 849
677 926
677 949
678 744
678 811
678 908
678 919
678 925
678 926
678 993
678 957
679 815
679 819
679 760
679 821
679 691
679 991
679 805
679 829
680 720
680 743
680 713
680 777
680 812
680 832
680 869
680 920
680 933
681 891
681 907
681 767
681 921
681 825
681 828
681 986
681 919
681 730
682 942
682 970
682 999
682 843
682 978
682 754
682 933
683 921
683 945
683 861
683 897
683 920
683 933
684 952
684 685
684 800
684 929
684 725
684 986
684 877
684 913
684 850
684 778
684 827
684 793
684 966
684 740
684 722
684 736
684 758
684 794
684 861
684 864
684 995
684 992
685 902
685 929
685 850
685 995
685 952
685 814
685 722
685 736
685 800
685 864
685 877
686 699
686 718
686 737
686 751
686 971
686 811
686 687
686 755
686 870
686 738
686 919
686 949
687 788
687 931
687 743
687 695
687 998
687 961
687 854
688 928
688 909
688 846
688 698
688 930
688 988
688 836
688 775
688 976
688 935
688 980
688 716
688 947
688 690
688 786
688 824
688 867
688 884
688 979
689 818
689 894
689 731
690 979
690 988
690 965
690 918
690 702
690 928
690 980
690 712
690 934
690 772
690 716
690 846
690 915
690 976
690 775
690 786
690 867
690 693
690 977
690 774
690 817
690 843
690 814
690 820
690 824
690 860
690 922
690 935
690 975
691 815
691 821
691 991
691 819
692 765
692 783
692 869
692 780
692 696
692 809
692 812
692 920
692 933
693 922
693 762
693 782
693 809
693 920
693 933
694 878
694 894
694 956
695 788
695 787
695 802
695 931
695 764
695 804
695 909
696 744
696 933
696 913
696 811
696 833
696 777
696 812
696 869
696 920
697 731
697 809
698 935
698 922
698 771
698 860
698 976
698 775
698 980
698 712
698 846
698 988
698 824
698 851
698 833
698 814
698 796
698 884
698 820
698 934
698 930
698 716
698 928
698 867
698 772
698 979
698 918
698 870
698 958
698 835
698 879
698 909
698 792
699 918
699 947
699 840
699 707
699 718
699 738
699 744
699 919
699 925
699 926
699 700
699 868
700 744
700 868
700 962
700 927
700 746
700 721
700 754
700 756
700 779
700 813
700 834
700 838
700 885
700 906
700 967
700 847
700 720
701 893
701 898
701 997
701 873
701 983
702 979
702 804
702 786
702 820
702 860
702 867
702 884
702 922
702 935
702 943
702 920
703 982
703 849
703 737
703 738
703 743
703 925
703 949
703 993
703 805
704 966
704 855
704 744
704 964
704 826
704 904
704 921
704 795
704 728
704 969
704 953
704 885
704 912
704 906
704 872
704 785
704 716
704 756
704 813
704 838
704 868
705 977
705 798
705 863
705 835
705 939
705 808
705 790
705 963
705 767
705 801
705 841
705 926
706 735
706 814
706 911
706 784
706 792
706 779
707 974
707 744
707 743
707 919
707 949
707 811
707 858
707 907
707 832
707 718
707 738
707 926
708 806
708 729
708 856
708 857
708 829
709 791
709 816
709 866
709 883
709 932
709 735
710 924
711 987
711 752
711 765
712 930
712 814
712 836
712 884
712 980
712 934
712 786
712 820
712 824
712 909
712 935
712 811
713 954
713 937
713 773
713 869
713 920
713 933
714 967
714 803
714 830
714 955
714 800
714 854
715 995
715 958
715 739
715 845
715 992
715 747
716 846
716 860
716 884
716 980
716 824
716 867
716 935
716 979
716 978
716 868
717 957
717 880
717 874
717 881
717 981
717 727
717 745
718 767
718 947
718 950
718 738
718 744
718 949
718 908
718 890
718 724
718 852
718 984
718 926
719 846
719 884
719 723
719 871
719 920
719 773
719 777
719 809
719 933
720 764
720 758
720 913
720 939
720 898
720 919
720 809
720 832
720 920
720 933
721 825
721 800
721 996
721 839
721 886
721 774
721 807
721 795
721 754
721 868
721 789
721 906
721 797
721 921
721 885
721 805
721 842
721 785
721 813
721 838
721 993
721 752
721 880
721 756
721 953
721 964
721 967
722 922
722 800
722 952
722 913
722 794
722 861
722 725
722 929
722 877
722 758
722 850
722 793
722 736
722 995
722 864
722 778
722 986
722 953
722 801
722 806
722 894
722 853
722 762
722 743
723 860
723 798
723 797
723 730
723 756
723 779
723 834
723 885
723 921
724 964
724 955
724 935
724 771
724 854
725 834
725 758
725 800
725 877
725 995
725 801
725 978
726 770
726 844
726 817
726 727
727 814
727 864
727 960
727 925
727 957
727 981
727 874
727 880
727 973
727 890
728 738
728 849
728 892
728 795
728 901
728 842
728 964
728 789
728 805
728 874
728 796
728 730
728 756
728 785
728 868
728 906
728 967
728 869
729 857
729 856
729 968
729 764
729 881
729 756
730 996
730 789
730 962
730 807
730 779
730 797
730 868
730 795
730 885
730 904
730 967
730 906
730 894
730 929
730 774
730 826
730 838
730 964
731 909
731 817
731 818
731 898
731 778
731 999
731 834
732 879
732 776
732 806
732 919
732 931
732 762
732 763
732 959
733 924
733 777
733 780
733 897
733 920
733 933
734 875
734 758
734 811
734 974
735 816
735 883
735 932
735 914
735 865
735 791
735 804
735 998
735 862
735 859
735 866
735 994
735 972
735 926
735 902
736 800
736 793
736 995
736 913
736 929
736 861
736 794
736 758
736 864
736 765
736 992
736 835
736 850
736 877
736 852
736 873
737 849
737 924
737 903
737 738
737 744
737 919
737 925
737 905
738 818
738 751
738 811
738 919
738 744
738 849
738 973
738 743
738 839
738 807
738 995
738 778
738 876
738 884
738 926
738 974
739 845
739 958
739 863
739 747
739 809
740 824
740 977
740 818
740 873
740 894
740 898
740 813
740 799
741 922
741 817
741 824
741 867
741 794
741 841
741 949
742 794
742 903
742 853
742 887
742 847
743 974
743 849
743 973
743 908
743 804
743 943
743 787
743 940
743 761
743 811
743 919
744 771
744 974
744 973
744 811
744 919
744 971
744 926
744 949
744 951
744 839
744 990
744 925
744 993
745 850
745 981
745 811
746 852
746 992
746 996
746 872
746 817
746 790
746 751
747 758
747 992
747 852
748 859
748 827
748 995
748 761
748 841
748 975
748 774
748 780
749 804
749 883
749 932
749 867
750 899
750 925
750 845
750 829
750 754
750 756
750 779
750 838
750 885
750 886
750 901
750 927
750 967
751 927
751 919
752 877
752 924
752 966
752 987
753 849
753 956
753 959
753 878
753 794
754 944
754 855
754 785
754 921
754 964
754 756
754 826
754 838
754 904
754 779
754 807
754 795
754 906
754 967
754 799
754 935
754 948
754 874
754 974
754 916
754 774
754 813
754 927
755 770
755 900
755 902
755 983
755 899
755 889
755 941
755 896
755 989
755 765
755 867
755 774
756 967
756 901
756 904
756 842
756 839
756 826
756 927
756 774
756 953
756 799
756 962
756 779
756 964
756 892
756 785
756 795
756 885
756 805
756 921
756 969
756 872
756 813
756 912
756 834
756 797
756 777
756 767
756 940
756 908
756 837
756 987
756 768
756 838
756 906
757 949
757 933
757 770
757 877
757 777
757 809
757 812
757 832
757 897
757 920
758 861
758 995
758 793
758 778
758 877
758 864
758 986
758 984
758 820
758 943
758 764
758 785
758 893
758 800
758 850
758 826
759 829
759 987
759 897
760 815
760 821
760 866
760 796
760 909
760 953
761 983
761 835
761 841
761 961
761 960
761 990
761 863
761 808
761 985
761 768
761 790
761 978
761 798
761 975
761 977
761 939
761 858
761 801
761 848
761 859
761 906
761 821
761 783
761 895
761 827
761 892
762 944
762 942
762 843
763 942
763 843
763 776
763 940
763 777
764 857
764 856
764 890
765 827
765 924
765 844
765 898
766 942
766 943
766 837
766 906
766 921
767 825
767 828
767 891
767 907
767 846
767 974
768 841
768 975
768 933
769 837
769 910
769 948
769 823
770 983
770 989
770 889
770 896
770 902
770 900
770 899
770 941
770 992
771 820
771 867
771 824
771 884
771 922
771 979
772 974
772 814
772 824
772 860
772 884
772 935
772 849
773 933
773 851
773 777
773 869
773 920
774 972
774 785
774 886
774 969
774 834
774 927
774 863
774 775
774 779
774 813
774 826
774 885
774 953
774 967
775 899
775 935
775 976
775 786
775 820
775 867
775 922
775 988
775 838
776 922
776 944
776 992
776 801
776 906
776 921
777 938
777 832
777 870
777 809
777 937
777 901
777 882
777 906
777 907
777 812
777 920
777 933
778 988
778 942
778 905
778 794
778 877
778 995
779 791
779 993
779 834
779 885
779 967
779 906
779 964
779 785
779 807
779 799
779 886
779 997
779 940
779 957
779 813
779 838
779 868
780 967
780 782
780 835
780 832
780 920
780 933
781 975
781 795
781 937
781 959
782 899
782 984
782 977
782 897
782 971
782 861
782 809
782 812
782 832
782 869
782 920
782 981
783 828
783 905
783 948
783 910
783 928
784 816
784 911
784 936
784 844
784 785
784 792
784 854
785 842
785 885
785 854
785 838
786 824
786 860
786 814
786 909
786 884
786 915
786 918
786 980
786 930
786 928
786 965
786 957
786 922
786 935
786 979
786 834
787 788
787 931
787 916
787 819
788 802
788 931
788 916
788 894
789 885
789 921
789 953
789 964
789 967
789 957
790 978
790 961
790 841
790 939
790 848
790 801
790 947
790 975
790 977
791 998
791 865
791 862
791 866
791 883
791 932
791 972
791 824
791 805
792 841
792 911
793 900
793 850
793 864
793 877
793 995
794 867
794 995
794 827
794 861
794 907
794 989
794 800
794 838
795 962
795 813
795 838
795 927
795 953
795 967
796 959
796 824
796 867
796 884
796 909
796 922
796 935
796 837
797 834
797 906
797 805
797 872
797 829
797 813
797 838
797 885
797 886
797 901
797 927
797 953
797 964
797 967
798 877
798 848
798 808
798 990
798 960
798 830
798 801
798 841
799 813
799 826
799 838
799 839
799 868
799 885
799 927
799 964
800 850
800 913
800 827
800 877
800 854
800 861
800 995
801 850
801 975
801 985
801 858
801 961
801 848
801 977
801 831
801 841
801 837
801 898
801 939
802 967
802 931
802 841
802 885
803 854
804 972
804 816
804 883
804 994
804 859
804 866
804 852
804 880
804 914
804 932
805 813
805 838
805 885
805 906
805 953
805 967
805 890
806 856
806 857
807 836
807 925
807 813
807 834
807 838
807 901
807 906
807 967
808 877
808 841
808 975
808 977
808 880
809 948
809 871
809 812
809 920
809 897
809 840
809 938
809 933
809 832
809 869
809 875
809 999
809 972
810 896
810 900
810 902
810 989
810 992
810 818
811 973
811 949
811 923
811 849
811 974
811 947
811 925
811 993
811 926
811 998
811 889
811 919
812 922
812 939
812 937
812 917
812 938
812 832
812 920
812 933
812 871
812 840
812 898
812 970
812 869
813 842
813 962
813 967
813 885
813 921
813 927
813 826
813 872
813 838
813 906
813 839
813 868
813 886
813 912
813 892
813 969
813 901
813 904
813 920
813 964
813 887
814 884
814 860
814 909
814 836
814 988
814 922
814 979
814 934
814 928
814 822
814 824
814 915
814 965
814 867
814 935
814 980
814 930
814 918
814 859
814 913
814 873
814 908
814 820
814 921
815 821
815 818
815 920
816 931
816 865
816 866
816 998
816 901
816 826
817 951
817 818
817 873
818 988
818 995
818 997
818 873
818 951
818 898
818 893
818 948
818 926
819 991
819 821
820 991
820 988
820 867
820 980
820 824
820 943
820 821
820 857
820 881
820 940
821 991
821 860
822 854
822 867
822 884
822 979
822 933
823 868
823 830
823 854
824 851
824 979
824 928
824 980
824 915
824 860
824 930
824 935
824 833
824 988
824 918
824 867
824 844
824 922
825 891
825 907
825 835
825 949
825 882
825 995
825 838
826 922
826 999
826 962
826 912
826 838
826 842
826 892
826 904
826 927
826 921
826 917
826 884
826 873
826 941
826 886
826 906
826 964
826 967
827 867
827 861
827 924
827 995
828 891
828 907
828 912
828 922
828 885
828 869
829 876
829 954
830 941
830 955
830 854
831 867
831 961
831 841
831 975
831 908
832 949
832 869
832 840
832 897
832 920
832 870
832 938
832 997
833 932
833 867
833 909
834 886
834 838
834 964
834 868
834 901
834 872
834 927
834 969
834 921
834 953
834 967
834 955
835 841
835 901
836 930
836 851
836 928
836 965
836 934
836 903
836 860
837 895
837 885
838 986
838 901
838 912
838 964
838 892
838 872
838 967
838 921
838 839
838 886
838 962
838 885
838 976
838 877
838 957
838 934
838 927
838 953
839 868
839 885
839 886
839 906
839 927
839 953
839 967
840 920
840 933
841 977
841 985
841 939
841 975
841 963
841 990
841 978
841 855
841 858
841 960
841 848
841 926
841 959
842 868
842 885
842 953
842 967
843 857
843 970
843 940
843 885
844 875
844 936
844 911
844 895
845 958
845 996
846 922
846 909
846 935
846 918
846 887
846 979
847 888
847 887
847 903
847 973
847 866
848 963
849 947
849 919
849 920
850 864
850 952
850 995
850 870
850 965
850 861
850 877
851 860
851 867
851 884
852 958
852 996
852 932
852 863
853 862
854 955
854 933
855 975
855 977
855 990
856 857
856 967
858 975
859 972
859 862
859 866
859 883
859 932
859 942
859 885
859 920
860 884
860 934
860 998
860 867
860 901
861 929
861 997
861 877
861 995
862 972
862 994
862 930
862 866
862 883
862 932
862 909
862 964
862 880
863 882
863 975
863 977
864 913
864 877
864 890
864 928
865 915
865 933
865 883
866 994
866 916
866 956
866 883
866 932
866 972
867 983
867 915
867 976
867 988
867 928
867 884
867 965
867 934
867 980
867 922
867 909
867 935
867 930
867 979
867 961
867 924
867 995
868 885
868 927
868 904
868 969
868 962
868 961
868 937
868 964
868 967
869 886
869 938
869 871
869 937
869 920
869 870
869 983
869 990
869 985
869 872
869 933
870 984
870 920
870 933
871 920
871 933
872 964
872 967
873 951
873 898
873 997
873 930
873 989
873 953
874 960
874 957
875 984
875 882
875 946
876 982
876 895
876 950
877 991
877 995
877 952
877 986
877 913
877 910
877 912
878 979
878 908
878 981
878 915
879 940
879 942
879 944
880 956
882 995
883 994
883 998
883 932
884 918
884 921
884 981
884 909
884 922
884 935
884 885
885 892
885 901
885 927
885 912
885 969
885 967
885 904
885 923
885 906
885 964
885 890
886 900
886 892
886 901
886 953
886 964
887 903
888 906
888 967
888 903
889 899
889 900
889 902
889 941
889 926
890 981
891 907
891 951
892 901
892 921
892 953
892 967
893 951
893 898
893 997
894 898
894 919
894 926
896 902
896 968
896 899
896 900
897 922
897 920
897 933
898 951
898 942
898 946
898 938
899 983
899 900
899 937
899 902
900 968
900 989
900 941
900 945
900 902
901 921
901 947
901 904
901 906
901 953
901 964
902 968
902 983
903 926
903 978
904 967
904 950
904 921
904 927
905 919
905 910
905 948
906 958
906 953
906 967
906 936
906 921
906 964
907 922
908 918
908 961
908 919
908 925
908 993
908 964
909 935
909 928
909 979
909 923
909 922
909 988
909 949
911 970
911 936
911 928
913 995
914 932
914 937
915 922
915 935
915 979
915 975
916 931
917 920
917 933
918 922
918 976
918 928
918 979
919 974
919 949
919 947
919 950
919 993
919 980
920 937
920 938
920 933
920 922
920 956
921 927
921 967
922 979
922 934
922 930
923 949
923 974
924 968
924 955
925 926
925 971
925 947
925 949
925 993
925 994
926 935
926 979
926 984
926 950
926 995
926 949
927 969
927 967
927 962
927 975
927 984
927 953
927 964
928 979
928 982
929 995
930 935
931 993
932 998
932 994
932 980
933 937
934 935
934 988
935 988
935 974
939 975
941 989
941 968
941 996
942 970
943 989
943 991
944 988
945 946
949 973
949 993
949 980
951 990
952 995
953 964
953 969
953 962
953 972
953 967
956 959
958 996
959 983
959 988
960 977
961 979
961 975
961 977
962 975
963 975
963 990
964 969
965 979
966 987
969 988
971 974
972 998
972 994
973 987
973 993
975 990
975 977
975 985
975 978
976 979
976 988
980 988
981 997
983 989
983 987
985 990
986 995
992 996
