0 447
0 651
0 732
0 51
0 767
0 865
0 123
0 575
0 333
0 619
0 457
0 472
0 745
0 394
0 809
0 320
0 893
0 300
0 873
0 998
0 118
0 50
0 980
0 64
0 191
0 582
0 353
0 71
0 612
0 606
0 252
0 731
0 419
0 563
0 474
0 820
0 446
0 688
0 962
0 218
0 481
0 937
0 855
0 211
0 357
0 581
0 531
0 167
0 143
0 670
0 753
0 656
0 434
0 269
1 770
1 685
1 844
1 750
1 329
1 694
1 151
1 787
1 890
1 789
1 776
1 481
1 190
1 775
1 925
1 437
1 21
1 23
1 382
1 31
1 502
1 904
1 178
1 132
1 946
1 813
1 654
1 319
1 390
1 718
1 458
1 272
1 347
1 251
1 393
1 591
1 421
1 891
1 231
1 664
1 333
1 468
1 75
1 146
1 690
1 305
1 882
1 412
1 425
1 996
1 496
1 820
1 794
1 101
1 427
2 532
2 723
2 37
2 158
2 148
2 800
2 957
2 421
2 331
2 915
2 934
2 947
2 166
2 594
2 639
2 86
2 707
2 67
2 681
2 829
2 577
2 435
2 351
2 738
2 452
2 285
2 501
2 366
2 152
2 522
2 149
2 28
2 542
2 559
2 646
2 711
2 740
2 755
2 244
2 257
2 810
2 404
2 886
2 949
2 631
3 787
3 946
3 495
3 830
3 105
3 7
3 130
3 895
3 492
3 709
3 415
3 489
3 665
3 17
3 490
3 557
3 345
3 459
3 518
3 793
3 858
3 541
3 354
3 927
3 159
3 337
3 519
3 348
3 100
3 470
3 802
3 810
3 313
3 380
3 870
3 940
3 186
3 514
3 651
3 539
3 25
3 886
3 289
3 88
3 815
3 152
3 741
4 582
4 808
4 670
4 898
4 648
4 749
4 973
4 298
4 916
4 155
4 16
4 389
4 888
4 679
4 184
4 309
4 524
4 54
4 992
4 655
4 471
4 168
4 907
4 769
4 264
4 215
4 671
4 478
4 543
4 36
4 55
4 116
4 659
4 230
4 240
4 857
4 884
4 926
4 433
4 441
4 509
4 994
4 892
4 550
5 830
5 640
5 514
5 605
5 613
5 876
5 388
5 379
5 479
5 629
5 227
5 673
5 284
5 650
5 779
5 782
5 531
5 27
5 564
5 988
5 120
5 614
5 499
5 118
5 973
5 164
5 763
5 935
5 979
5 580
5 719
6 754
6 374
6 213
6 131
6 751
6 803
6 940
6 304
6 363
6 306
6 23
6 925
6 534
6 550
6 845
6 208
6 215
7 128
7 328
7 256
7 100
7 858
7 490
7 874
7 626
7 927
7 709
7 871
7 359
7 232
7 651
7 17
7 530
7 665
7 541
7 25
7 415
7 557
7 337
7 345
7 105
7 886
7 143
8 348
8 501
8 843
8 19
8 15
8 637
8 966
8 703
8 948
8 759
8 13
8 222
8 239
8 336
8 511
8 11
8 52
8 708
8 967
8 592
8 996
8 496
8 632
8 962
8 116
8 859
8 392
8 475
8 228
9 957
9 531
9 14
9 887
9 497
9 528
9 561
9 196
9 271
9 836
9 573
9 697
9 41
9 589
9 974
9 83
9 343
9 995
9 98
9 106
10 681
10 107
10 622
10 753
10 896
10 175
10 951
10 950
10 771
10 656
10 101
10 831
10 187
10 227
10 66
10 781
10 355
10 49
10 598
10 834
10 509
10 861
10 576
10 150
10 406
10 482
10 934
10 916
10 68
10 512
10 923
10 137
10 156
10 556
10 568
10 201
10 76
10 610
10 372
10 591
11 829
11 541
11 967
11 13
11 708
11 759
11 724
11 223
11 721
11 948
11 496
11 15
11 758
11 278
11 500
11 646
11 228
11 631
11 19
11 181
11 833
11 592
11 247
11 733
11 222
11 996
11 632
11 118
11 433
11 780
11 726
11 153
11 391
11 225
11 242
12 50
12 309
12 511
12 624
12 156
12 296
12 832
12 87
12 318
12 933
12 997
12 384
12 290
12 475
12 704
12 978
12 109
12 381
12 463
12 167
12 82
12 919
12 837
12 358
12 914
12 99
12 285
12 280
12 94
12 395
12 714
12 580
12 663
12 453
12 448
12 878
12 212
12 588
12 736
12 127
12 494
12 112
12 684
12 442
12 365
12 193
12 928
12 372
12 301
12 62
12 411
12 699
12 218
12 712
12 186
12 464
12 426
12 134
12 246
12 85
12 971
12 86
12 121
12 346
12 321
12 795
12 353
12 787
12 792
12 797
12 319
12 913
12 300
12 326
12 869
12 97
12 102
12 623
12 137
12 706
12 790
12 949
13 158
13 742
13 517
13 501
13 999
13 592
13 703
13 15
13 708
13 632
13 822
13 733
13 521
13 759
13 197
13 19
13 247
13 966
13 967
13 222
13 996
13 637
13 833
13 223
13 233
13 278
13 181
13 395
13 199
13 512
13 314
13 117
13 588
13 894
13 473
13 496
13 252
13 649
13 267
13 81
13 595
13 627
14 450
14 665
14 728
14 766
14 143
14 535
14 410
14 163
14 293
14 41
14 430
14 63
14 676
14 73
14 480
14 982
14 343
14 818
14 552
14 536
14 444
14 836
14 83
14 276
14 485
14 662
14 46
14 993
14 660
14 106
14 203
14 98
14 423
14 617
14 216
14 589
14 560
14 462
14 887
14 78
14 274
14 987
14 69
14 226
14 497
14 638
14 303
14 456
14 826
14 528
14 618
14 974
14 271
14 278
14 340
14 981
14 881
14 668
14 631
14 500
14 458
14 736
14 862
14 79
14 103
14 113
14 646
14 995
14 868
14 104
14 835
14 134
14 684
14 133
14 209
14 70
15 830
15 517
15 521
15 181
15 833
15 999
15 883
15 733
15 758
15 496
15 721
15 592
15 197
15 93
15 233
15 708
15 822
15 19
15 222
15 465
15 637
15 759
15 966
15 703
15 247
15 278
15 724
15 843
15 578
15 996
15 632
15 967
15 52
15 64
15 611
15 727
15 158
15 705
15 83
15 961
15 205
15 774
15 137
15 820
16 412
16 520
16 524
16 525
16 471
16 367
16 888
16 891
16 879
16 753
16 309
16 669
16 847
16 615
16 670
16 155
16 298
16 992
16 74
16 295
16 973
16 168
16 397
16 445
16 909
16 433
16 511
16 658
16 768
16 224
16 797
16 527
16 938
16 794
16 172
16 590
16 805
16 884
16 898
16 382
16 802
16 84
16 310
16 839
16 275
16 428
16 332
16 855
16 27
16 36
16 54
16 55
16 58
16 603
16 107
16 621
16 622
16 116
16 672
16 289
16 806
16 821
16 853
16 857
16 292
16 734
16 790
17 128
17 519
17 793
17 245
17 490
17 886
17 415
17 651
17 874
17 530
17 470
17 29
17 570
17 369
17 665
17 539
17 541
17 557
17 459
17 337
17 105
17 500
17 796
17 587
17 636
17 623
18 146
18 801
18 305
18 825
18 597
18 149
18 972
18 449
18 455
18 382
18 249
18 661
18 23
18 481
18 178
18 981
18 686
18 963
18 461
18 739
18 718
18 31
18 651
18 367
18 280
18 724
18 204
18 548
18 75
18 654
18 685
18 690
18 262
18 263
18 275
18 882
18 918
18 946
18 655
18 859
18 41
18 180
18 827
19 481
19 521
19 247
19 883
19 578
19 996
19 517
19 278
19 197
19 632
19 637
19 966
19 233
19 592
19 843
19 708
19 52
19 703
19 181
19 833
19 822
19 733
19 93
19 496
19 758
19 724
19 967
19 465
19 223
19 49
19 868
19 148
19 153
19 891
19 530
19 127
19 984
19 72
19 222
19 168
19 286
19 696
19 790
19 949
19 997
19 881
19 375
19 921
20 707
20 75
20 305
20 980
20 644
20 906
20 920
20 649
20 486
20 875
20 86
20 926
20 284
20 922
20 678
20 697
20 322
20 885
20 126
20 97
20 546
20 713
21 516
21 522
21 447
21 275
21 311
21 190
21 597
21 685
21 319
21 119
21 465
21 58
21 23
21 75
21 628
21 132
21 645
21 147
21 189
21 192
21 718
21 263
21 272
21 305
21 882
21 890
21 382
21 946
21 455
21 481
21 393
22 47
22 723
22 992
22 993
22 976
22 42
22 702
22 136
22 299
22 270
22 140
22 675
22 378
22 983
22 689
22 179
22 156
22 930
22 835
22 647
22 923
22 965
22 402
22 504
22 451
22 671
22 255
22 323
22 141
22 473
22 334
22 586
22 815
22 454
22 368
22 219
22 942
22 994
22 169
22 850
22 811
22 817
22 624
22 929
22 769
22 763
22 716
22 799
22 164
22 730
22 468
22 32
22 668
22 266
22 460
22 392
22 907
22 261
22 902
22 991
22 804
22 296
22 248
22 854
22 729
22 720
22 634
22 985
22 417
22 601
22 969
22 97
22 911
22 434
22 48
22 562
22 999
22 630
22 592
22 620
22 521
22 511
22 497
22 488
22 397
22 641
22 318
22 539
22 325
22 501
22 411
22 878
22 338
22 625
22 254
22 498
22 636
22 153
22 279
22 894
22 706
23 698
23 694
23 75
23 449
23 178
23 645
23 146
23 613
23 67
23 454
23 132
23 654
23 685
23 690
23 263
23 801
23 813
23 305
23 311
23 825
23 329
23 347
23 412
23 946
23 503
23 107
23 959
23 900
23 260
24 548
24 801
24 412
24 942
24 72
24 551
24 313
24 687
24 399
24 396
24 913
24 291
24 939
24 795
24 692
24 570
24 546
24 393
24 730
24 778
24 760
24 788
24 547
24 562
24 59
24 599
24 600
24 608
24 636
24 144
24 667
24 188
24 710
24 199
24 211
24 734
24 735
24 326
24 842
24 349
24 418
24 427
24 975
25 981
25 128
25 651
25 895
25 665
25 337
25 541
25 130
25 737
25 105
25 100
25 927
25 557
25 459
25 520
25 941
25 986
25 929
25 415
25 345
25 874
25 886
25 270
25 562
26 249
26 890
26 322
26 875
26 974
26 827
26 807
26 330
26 81
26 350
26 383
26 77
26 869
26 443
26 315
26 357
26 206
26 641
26 221
26 312
26 115
26 612
26 208
26 968
26 141
26 260
26 936
26 937
26 824
26 346
26 122
26 318
27 351
27 514
27 523
27 779
27 398
27 782
27 613
27 564
27 29
27 302
27 379
27 650
27 43
27 388
27 988
27 629
27 746
27 614
27 479
27 761
27 783
27 450
27 347
27 368
27 566
27 41
27 916
27 44
27 360
27 236
27 240
27 827
27 291
27 209
28 559
28 553
28 166
28 404
28 723
28 204
28 711
28 316
28 244
28 125
28 957
28 646
28 532
28 429
28 947
28 823
28 742
28 755
28 308
28 435
28 810
28 707
28 491
28 725
28 380
28 915
28 829
28 385
28 183
28 117
28 310
28 67
28 945
28 277
28 934
28 416
28 158
28 331
28 86
28 351
28 37
28 594
28 762
28 639
28 400
28 880
28 738
28 257
28 681
28 577
28 243
28 740
28 452
28 384
28 896
28 398
28 213
28 362
28 683
28 360
28 171
28 832
28 361
28 771
28 590
28 420
28 79
28 144
28 294
28 358
29 945
29 632
29 640
29 514
29 779
29 782
29 531
29 876
29 360
29 629
29 505
29 388
29 523
29 48
29 215
29 881
29 498
29 261
29 372
29 549
29 44
29 564
29 120
29 749
29 392
29 174
30 882
30 567
30 865
30 618
30 894
30 935
30 919
30 129
30 260
30 774
30 620
30 536
30 830
30 174
30 591
30 609
30 493
30 506
31 450
31 787
31 654
31 146
31 890
31 311
31 841
31 132
31 513
31 958
31 75
31 597
31 151
31 718
31 739
31 249
31 263
31 305
31 825
31 319
31 412
31 425
31 946
31 455
31 481
31 708
31 378
31 392
31 827
31 72
31 765
32 809
32 121
32 143
32 270
32 483
32 292
32 402
32 323
32 901
32 593
32 649
32 586
32 624
32 625
32 140
32 162
32 675
32 729
32 248
32 286
32 815
32 334
32 368
32 392
32 930
32 994
32 751
32 92
33 946
33 984
33 225
33 131
33 751
33 363
33 439
33 550
33 432
33 195
33 931
33 234
33 940
33 565
33 209
33 513
33 194
33 601
33 852
33 711
33 581
33 803
33 119
34 275
34 336
34 98
34 566
34 636
34 975
34 268
34 269
34 631
34 374
34 802
34 627
34 375
34 881
34 924
34 872
34 223
34 950
34 448
34 854
34 651
34 38
34 620
34 877
34 386
34 133
34 713
34 225
34 741
35 650
35 543
35 295
35 408
35 74
35 847
35 172
35 121
35 603
35 670
35 653
35 821
35 898
35 717
35 155
35 622
35 786
35 733
35 980
35 547
35 469
35 54
35 58
35 107
35 116
35 643
35 648
35 672
35 749
35 240
35 753
35 298
35 879
35 888
35 926
35 441
35 511
35 766
35 291
36 404
36 50
36 525
36 543
36 615
36 367
36 74
36 938
36 558
36 655
36 722
36 224
36 786
36 903
36 445
36 847
36 309
36 155
36 926
36 659
36 879
36 524
36 58
36 859
36 653
36 603
36 884
36 54
36 569
36 298
36 220
36 107
36 717
36 283
36 408
36 898
36 168
36 805
36 768
36 226
36 112
36 948
36 222
36 307
36 66
36 964
36 554
36 927
36 223
36 555
36 55
36 621
36 622
36 116
36 643
36 648
36 184
36 753
36 772
36 289
36 821
36 441
36 535
36 974
36 261
36 635
36 427
37 553
37 310
37 307
37 117
37 183
37 947
37 532
37 243
37 800
37 204
37 435
37 421
37 763
37 232
37 422
37 304
37 559
37 47
37 67
37 639
37 646
37 148
37 681
37 711
37 725
37 740
37 747
37 755
37 244
37 257
37 829
37 862
37 351
37 404
37 120
37 675
37 817
37 137
37 790
37 260
38 800
38 356
38 601
38 851
38 878
38 269
38 281
38 512
38 877
38 657
38 604
38 917
38 881
38 871
38 68
38 957
38 895
38 361
38 366
38 374
38 375
38 631
38 145
38 713
38 719
39 347
39 779
39 549
39 610
39 221
39 696
39 260
39 777
39 526
39 609
39 774
39 591
39 743
39 642
39 317
39 555
39 699
39 682
39 691
39 341
39 506
39 510
40 927
40 980
40 987
40 780
40 726
40 369
40 990
40 373
40 173
40 507
40 839
40 90
40 339
40 198
40 871
40 342
40 238
40 253
40 478
40 469
40 959
40 239
40 529
40 177
40 231
40 60
40 855
40 359
40 466
40 438
40 57
40 960
40 400
40 657
40 917
40 553
40 174
40 930
40 47
40 524
40 56
40 584
40 601
40 641
41 425
41 806
41 912
41 766
41 143
41 788
41 660
41 536
41 410
41 676
41 196
41 868
41 343
41 444
41 638
41 826
41 480
41 73
41 163
41 995
41 561
41 423
41 589
41 617
41 226
41 535
41 84
41 982
41 848
41 104
41 974
41 83
41 836
41 662
41 581
41 528
41 75
41 357
41 417
41 175
41 967
41 454
41 711
41 115
41 621
41 818
41 180
41 203
41 216
41 987
41 106
41 623
41 374
42 542
42 63
42 343
42 969
42 97
42 930
42 671
42 933
42 496
42 586
42 156
42 162
42 675
42 689
42 219
42 248
42 254
42 255
42 261
42 270
42 815
42 817
42 835
42 323
42 334
42 901
42 417
42 965
42 460
42 994
42 498
42 595
43 75
43 640
43 783
43 236
43 876
43 549
43 505
43 564
43 379
43 77
43 577
43 605
43 120
43 613
43 614
43 108
43 629
43 761
43 403
43 536
43 180
43 270
43 623
43 699
43 510
44 147
44 844
44 222
44 640
44 388
44 650
44 523
44 779
44 782
44 988
44 120
44 479
44 360
44 271
44 401
44 934
44 117
44 613
44 614
44 108
44 761
44 229
44 77
44 476
44 475
45 459
45 912
45 441
45 710
45 696
45 512
45 515
45 269
45 537
45 579
45 989
45 719
45 376
45 114
45 917
45 366
45 705
45 620
45 604
45 139
45 213
45 386
45 889
45 405
45 65
45 383
45 471
45 561
45 61
45 472
45 991
45 361
45 881
45 713
46 750
46 766
46 528
46 143
46 274
46 788
46 662
46 535
46 536
46 676
46 430
46 73
46 216
46 995
46 552
46 196
46 589
46 974
46 638
46 98
46 931
46 188
46 992
46 117
46 185
46 560
46 203
46 83
46 343
46 987
46 868
46 104
46 106
46 937
46 961
46 978
47 542
47 559
47 435
47 244
47 711
47 740
47 421
47 553
47 331
47 915
47 934
47 385
47 73
47 817
47 646
47 166
47 681
47 762
47 257
47 810
47 351
47 880
47 404
47 945
47 452
47 770
47 842
47 572
48 632
48 514
48 523
48 779
48 782
48 531
48 302
48 217
48 783
48 664
48 810
48 749
48 827
48 596
48 387
48 225
49 857
49 656
49 406
49 150
49 175
49 771
49 905
49 76
49 896
49 732
49 125
49 131
49 950
49 568
49 66
49 610
49 101
49 392
49 574
49 70
50 725
50 419
50 809
50 980
50 962
50 353
50 325
50 71
50 998
50 202
50 235
50 873
50 820
50 606
50 344
50 64
50 865
50 472
50 954
50 252
50 826
50 277
50 547
50 51
50 575
50 457
50 731
50 131
50 609
51 419
51 809
51 688
51 563
51 300
51 64
51 998
51 333
51 893
51 699
51 95
51 132
51 446
51 457
51 980
51 344
51 622
51 847
51 162
52 517
52 948
52 501
52 883
52 197
52 222
52 996
52 496
52 966
52 724
52 253
52 653
52 867
52 833
52 967
52 733
52 107
52 956
53 646
53 311
53 865
53 909
53 163
53 667
53 734
53 269
53 537
53 281
53 409
53 917
53 579
53 719
53 366
53 631
53 627
53 225
53 713
53 877
53 872
53 376
53 881
53 213
53 604
53 404
53 543
53 868
53 80
53 665
53 581
53 620
53 133
53 682
54 810
54 841
54 118
54 615
54 155
54 230
54 916
54 805
54 397
54 58
54 289
54 569
54 912
54 973
54 441
54 590
54 867
54 367
54 184
54 445
54 543
54 603
54 295
54 859
54 55
54 797
54 903
54 898
54 672
54 722
54 168
54 938
54 371
54 643
54 121
54 821
54 768
54 653
54 283
54 808
54 436
54 407
54 728
54 879
54 107
54 224
54 679
54 622
54 658
54 525
54 926
54 524
54 669
54 870
54 644
54 501
54 715
54 265
54 473
54 62
54 273
54 763
54 507
54 124
54 418
54 609
54 616
54 456
54 956
54 74
54 621
54 116
54 648
54 749
54 753
54 298
54 857
54 884
54 888
54 992
54 511
54 949
55 79
55 125
55 524
55 58
55 615
55 621
55 794
55 853
55 805
55 471
55 309
55 74
55 870
55 230
55 992
55 603
55 669
55 401
55 520
55 116
55 903
55 648
55 859
55 283
55 926
55 371
55 764
55 653
55 569
55 340
55 155
55 772
55 938
55 717
55 511
55 551
55 697
55 296
55 943
55 412
55 103
55 425
55 335
55 773
55 437
55 107
55 655
55 184
55 749
55 289
55 298
55 821
55 857
55 884
55 616
55 177
55 584
55 803
55 526
55 591
55 493
56 311
56 523
56 529
56 177
56 198
56 57
56 342
56 88
56 726
56 466
56 253
56 438
56 238
56 433
56 455
56 474
56 792
56 964
56 327
56 584
56 373
56 795
56 842
56 714
56 442
57 659
57 805
57 177
57 80
57 327
57 959
57 239
57 478
57 839
57 88
57 438
57 537
57 918
57 315
57 60
57 964
57 584
57 466
57 342
57 231
57 538
57 109
57 719
58 249
58 412
58 569
58 401
58 968
58 441
58 590
58 859
58 309
58 155
58 230
58 912
58 184
58 240
58 371
58 527
58 992
58 879
58 107
58 622
58 338
58 764
58 847
58 224
58 511
58 794
58 669
58 289
58 648
58 679
58 367
58 973
58 884
58 433
58 653
58 157
58 891
58 558
58 615
58 389
58 172
58 520
58 786
58 408
58 397
58 857
58 749
58 436
58 295
58 926
58 797
58 621
58 555
58 643
58 670
58 237
58 525
58 524
58 717
58 768
58 655
58 722
58 728
58 445
58 469
58 566
58 226
58 488
58 343
58 264
58 366
58 703
58 308
58 297
58 712
58 306
58 580
58 375
58 924
58 953
58 319
58 87
58 603
58 121
58 168
58 298
58 377
58 682
59 244
59 628
59 481
59 886
59 72
59 673
59 427
59 544
59 795
59 60
59 676
59 607
59 636
59 144
59 667
59 185
59 710
59 842
59 892
59 396
59 399
59 935
59 961
59 975
59 537
60 681
60 589
60 177
60 438
60 373
60 990
60 959
60 327
60 726
60 918
60 230
60 964
60 584
60 342
60 88
60 478
60 985
60 424
60 878
60 900
61 105
61 567
61 353
61 930
61 693
61 562
61 288
61 170
61 795
61 393
61 111
61 816
61 600
61 607
61 113
61 188
61 710
61 211
61 734
61 754
61 291
61 324
61 842
61 851
61 892
61 935
61 424
61 427
61 975
61 695
62 441
62 285
62 246
62 332
62 475
62 712
62 494
62 127
62 294
62 134
62 96
62 314
62 109
62 971
62 928
62 358
62 978
62 193
62 85
62 395
62 82
62 837
62 102
62 997
62 112
62 933
62 949
62 663
62 684
62 280
62 863
62 910
62 878
62 301
62 588
62 700
62 699
62 448
62 919
62 365
62 182
62 186
62 426
62 94
62 387
62 714
62 137
62 704
62 212
62 696
62 484
62 167
62 99
62 602
62 986
62 372
62 384
62 914
62 464
62 623
62 900
62 453
62 442
62 290
62 790
62 765
62 706
62 103
62 218
62 736
62 344
62 205
62 809
62 515
62 981
62 289
62 882
62 635
62 406
62 911
62 953
62 284
62 350
62 70
62 867
62 556
62 225
62 571
62 87
62 318
62 604
63 662
63 535
63 180
63 143
63 271
63 69
63 276
63 91
63 83
63 552
63 84
63 974
63 766
63 73
63 98
63 430
63 887
63 343
63 940
63 545
63 864
63 547
63 203
63 589
63 848
63 216
63 995
63 106
63 726
63 593
63 114
64 100
64 809
64 300
64 688
64 820
64 954
64 320
64 474
64 745
64 472
64 494
64 112
64 222
64 513
64 619
64 118
64 252
64 772
64 371
64 887
65 404
65 654
65 833
65 555
65 558
65 229
65 817
65 544
65 562
65 596
65 389
65 238
65 595
65 599
65 607
65 630
65 636
65 144
65 153
65 710
65 754
65 892
65 399
65 427
65 134
65 919
66 433
66 899
66 781
66 556
66 568
66 187
66 406
66 598
66 201
66 610
66 771
66 509
66 905
66 951
66 482
66 175
66 235
66 528
66 364
66 981
66 407
66 339
66 417
66 600
66 228
67 542
67 559
67 880
67 243
67 711
67 792
67 810
67 862
67 639
67 577
67 310
67 257
67 148
67 723
67 945
67 829
67 725
67 411
67 802
67 348
67 671
67 828
67 79
67 158
67 681
67 740
67 755
67 762
67 823
67 351
67 356
67 404
67 180
67 102
67 751
68 639
68 711
68 108
68 211
68 188
68 715
68 735
68 943
68 652
68 979
68 748
68 955
68 754
68 424
68 961
68 600
68 607
68 154
68 427
68 279
68 636
68 710
68 866
68 773
68 393
68 635
68 958
68 975
68 673
68 570
68 913
68 130
68 967
68 448
68 101
68 343
68 760
68 936
68 860
68 97
68 583
68 587
68 595
68 596
68 144
68 734
68 324
68 842
68 851
68 349
68 892
68 894
68 396
68 418
68 935
68 134
69 390
69 766
69 143
69 274
69 535
69 536
69 676
69 430
69 818
69 180
69 203
69 968
69 556
69 589
69 83
69 343
69 987
69 868
69 104
69 106
69 96
69 940
70 946
70 267
70 715
70 87
70 572
70 609
70 743
70 242
70 510
70 777
70 506
70 691
70 341
70 174
70 642
70 740
70 903
70 585
70 205
70 591
70 362
70 756
71 479
71 419
71 954
71 333
71 962
71 582
71 446
71 745
71 118
71 688
71 606
71 998
71 353
71 191
71 344
71 820
71 767
71 809
71 390
71 910
71 705
71 849
71 507
71 980
71 757
71 857
71 383
71 706
72 305
72 835
72 562
72 265
72 393
72 349
72 424
72 153
72 471
72 146
72 587
72 595
72 599
72 113
72 636
72 144
72 667
72 185
72 188
72 754
72 851
72 892
72 396
72 935
72 427
72 975
72 914
73 385
73 541
73 886
73 278
73 629
73 274
73 662
73 535
73 536
73 676
73 979
73 539
73 203
73 589
73 974
73 995
73 868
73 106
73 292
73 815
74 525
74 555
74 870
74 622
74 898
74 621
74 503
74 720
74 260
74 121
74 753
74 298
74 821
74 857
74 888
74 912
74 511
74 104
74 169
74 765
74 318
75 522
75 447
75 425
75 503
75 787
75 412
75 458
75 944
75 413
75 645
75 461
75 776
75 918
75 272
75 147
75 251
75 548
75 816
75 744
75 455
75 981
75 189
75 789
75 151
75 784
75 770
75 178
75 972
75 382
75 739
75 661
75 305
75 319
75 844
75 390
75 597
75 946
75 925
75 718
75 801
75 437
75 963
75 841
75 502
75 628
75 192
75 690
75 449
75 952
75 275
75 132
75 654
75 694
75 890
75 421
75 860
75 156
75 98
75 154
75 544
75 536
75 334
75 287
75 692
75 679
75 901
75 80
75 686
75 698
75 825
75 329
75 882
75 520
75 444
75 84
75 607
76 654
76 952
76 843
76 757
76 656
76 150
76 796
76 556
76 950
76 951
76 953
76 897
76 831
76 227
76 175
76 752
76 568
76 905
76 834
76 771
76 187
76 235
76 809
76 747
76 798
76 401
76 872
76 610
76 509
76 255
77 340
77 689
77 641
77 807
77 936
77 431
77 693
77 824
77 357
77 383
77 443
77 828
77 312
77 110
77 852
77 95
77 476
77 129
77 765
77 381
77 504
77 346
77 221
77 122
77 318
77 341
78 755
78 385
78 151
78 283
78 441
78 992
78 766
78 271
78 535
78 536
78 430
78 303
78 818
78 444
78 203
78 868
78 106
78 140
78 607
79 553
79 559
79 125
79 385
79 723
79 244
79 183
79 800
79 639
79 707
79 307
79 755
79 435
79 158
79 525
79 359
79 587
79 646
79 711
79 725
79 740
79 747
79 243
79 762
79 257
79 823
79 862
79 351
79 880
79 404
79 421
79 132
79 305
79 299
79 706
80 105
80 398
80 603
80 780
80 529
80 177
80 964
80 584
80 466
80 369
80 756
80 380
80 300
80 339
80 726
80 342
80 90
80 373
80 169
80 326
80 588
80 102
80 924
81 371
81 177
81 641
81 165
81 807
81 936
81 937
81 827
81 330
81 637
81 573
81 221
81 122
81 188
82 305
82 180
82 460
82 588
82 381
82 99
82 332
82 358
82 914
82 837
82 314
82 832
82 895
82 312
82 125
82 602
82 96
82 102
82 127
82 134
82 137
82 696
82 706
82 294
82 318
82 863
82 919
82 442
82 475
82 997
83 766
83 143
83 274
83 662
83 676
83 430
83 561
83 818
83 180
83 589
83 974
83 848
83 293
83 303
83 462
83 271
83 617
83 196
83 497
83 581
83 423
83 987
83 982
83 995
83 216
83 535
83 993
83 836
83 163
83 723
83 473
83 364
83 760
83 762
83 852
83 156
83 210
83 900
83 170
83 343
83 868
83 104
83 618
83 106
83 254
83 402
83 595
83 99
83 565
84 505
84 857
84 766
84 143
84 788
84 535
84 676
84 430
84 180
84 589
84 974
84 770
84 686
84 343
84 987
84 995
84 868
84 106
84 497
84 842
85 351
85 724
85 590
85 995
85 827
85 935
85 878
85 112
85 411
85 285
85 494
85 714
85 663
85 461
85 922
85 721
85 816
85 94
85 96
85 706
85 318
85 914
85 919
85 949
85 475
86 542
86 559
86 594
86 416
86 738
86 707
86 310
86 792
86 356
86 244
86 308
86 112
86 817
86 626
86 646
86 158
86 681
86 711
86 725
86 740
86 243
86 762
86 257
86 823
86 351
86 880
86 404
86 382
86 337
86 710
86 428
87 404
87 822
87 524
87 621
87 196
87 292
87 299
87 701
87 494
87 442
87 332
87 997
87 103
87 695
87 395
87 580
87 978
87 167
87 949
87 704
87 663
87 684
87 919
87 464
87 285
87 602
87 623
87 218
87 910
87 212
87 314
87 246
87 475
87 971
87 112
87 134
87 699
87 914
87 94
87 96
87 358
87 318
87 365
87 588
87 387
87 498
87 689
87 766
87 345
87 390
87 489
87 600
87 738
87 637
87 510
87 974
87 137
87 182
87 696
87 186
87 706
87 790
87 863
87 448
88 93
88 524
88 766
88 173
88 584
88 466
88 726
88 342
88 780
88 573
88 369
88 611
88 855
88 964
88 238
88 658
88 443
88 492
88 674
88 90
88 359
88 507
89 310
89 345
89 549
89 669
89 935
89 427
89 234
89 129
89 642
89 260
89 777
89 526
89 174
89 691
89 956
89 341
89 618
89 747
89 697
89 609
89 506
89 510
90 768
90 780
90 529
90 173
90 177
90 198
90 726
90 507
90 327
90 369
90 438
90 231
90 342
90 964
90 959
90 573
90 359
90 238
90 253
90 836
90 474
90 801
90 518
90 954
90 953
90 219
90 392
91 767
91 766
91 143
91 535
91 536
91 676
91 293
91 430
91 180
91 826
91 203
91 589
91 974
91 848
91 987
91 230
91 763
91 653
91 549
91 995
91 868
91 98
91 106
91 359
91 248
91 195
92 745
92 154
92 975
92 642
92 260
92 778
92 585
92 591
92 174
92 488
92 572
92 691
92 205
92 774
92 439
92 495
92 609
92 510
93 415
93 517
93 948
93 822
93 578
93 708
93 967
93 592
93 733
93 721
93 903
93 787
93 996
93 496
93 632
93 809
93 622
93 805
93 922
93 960
93 994
93 113
93 411
94 257
94 843
94 419
94 188
94 464
94 978
94 103
94 588
94 301
94 928
94 790
94 704
94 863
94 699
94 294
94 442
94 765
94 997
94 365
94 910
94 900
94 182
94 684
94 96
94 387
94 878
94 914
94 285
94 832
94 99
94 696
94 372
94 358
94 453
94 109
94 448
94 736
94 695
94 700
94 134
94 714
94 919
94 218
94 602
94 318
94 463
94 186
94 167
94 494
94 971
94 999
94 495
94 629
94 831
94 635
94 609
94 721
94 106
94 371
94 659
94 185
94 620
94 944
94 717
94 623
94 127
94 193
94 706
94 475
94 176
95 948
95 650
95 121
95 511
95 378
95 538
95 693
95 827
95 221
95 869
95 293
95 726
95 950
95 863
95 620
95 751
96 967
96 324
96 588
96 602
96 910
96 736
96 448
96 494
96 484
96 290
96 463
96 900
96 978
96 358
96 365
96 109
96 714
96 442
96 695
96 914
96 246
96 623
96 387
96 712
96 182
96 863
96 928
96 384
96 426
96 919
96 285
96 453
96 652
96 838
96 707
96 809
96 660
96 898
96 994
96 546
96 127
96 706
96 790
96 294
96 949
96 475
96 921
97 536
97 586
97 601
97 769
97 929
97 976
97 815
97 286
97 983
97 835
97 811
97 292
97 671
97 901
97 164
97 270
97 624
97 720
97 685
97 238
97 191
97 183
97 707
97 647
97 668
97 162
97 689
97 248
97 763
97 254
97 255
97 334
97 368
97 378
97 392
97 930
97 965
97 460
97 985
97 498
97 892
97 877
98 511
98 766
98 143
98 536
98 293
98 180
98 203
98 589
98 343
98 216
98 987
98 995
98 868
98 535
98 921
98 204
98 438
98 473
98 104
98 106
98 381
99 650
99 343
99 607
99 211
99 427
99 580
99 602
99 218
99 387
99 832
99 900
99 997
99 960
99 269
99 685
99 137
99 167
99 182
99 695
99 696
99 700
99 790
99 318
99 863
99 878
99 372
99 914
99 919
99 949
99 448
99 475
100 380
100 793
100 541
100 557
100 337
100 105
100 111
100 245
100 651
100 490
100 886
100 302
100 171
100 752
100 487
100 134
101 646
101 896
101 905
101 796
101 556
101 950
101 610
101 598
101 509
101 656
101 406
101 175
101 568
101 861
101 187
101 771
101 586
101 388
101 549
101 839
101 930
102 243
102 251
102 434
102 144
102 935
102 246
102 919
102 997
102 448
102 736
102 112
102 285
102 623
102 294
102 878
102 182
102 384
102 832
102 910
102 863
102 900
102 332
102 395
102 453
102 365
102 358
102 212
102 704
102 484
102 837
102 372
102 314
102 644
102 807
102 480
102 916
102 219
102 234
102 548
102 109
102 134
102 193
102 706
102 790
102 318
102 914
102 949
102 978
102 475
103 257
103 813
103 106
103 368
103 562
103 366
103 524
103 547
103 623
103 134
103 706
103 790
103 294
103 318
103 863
103 878
103 900
103 919
103 949
103 442
103 475
104 639
104 766
104 163
104 818
104 444
104 589
104 987
104 995
104 868
104 410
104 528
104 456
104 826
104 430
104 216
104 226
104 974
104 617
104 788
104 676
104 677
104 768
104 797
104 622
104 831
104 832
104 269
105 718
105 128
105 130
105 651
105 539
105 541
105 927
105 415
105 557
105 337
105 345
105 858
105 518
105 490
105 874
105 530
105 500
105 328
105 519
105 492
105 709
105 459
105 737
105 495
105 256
105 159
105 111
105 895
105 886
105 354
105 626
105 830
105 470
105 956
105 965
105 922
105 302
105 273
105 383
105 109
105 333
105 499
105 286
105 498
105 706
106 966
106 612
106 143
106 660
106 662
106 536
106 676
106 818
106 180
106 974
106 982
106 216
106 987
106 995
106 618
106 410
106 788
106 560
106 993
106 528
106 535
106 276
106 561
106 241
106 868
106 303
106 430
106 480
106 462
106 444
106 200
106 766
106 581
106 196
106 343
106 617
106 274
106 226
106 271
106 638
106 203
106 848
106 299
106 700
106 598
106 498
106 734
106 153
106 916
106 661
106 600
106 871
106 883
106 230
106 664
106 497
106 324
107 524
107 555
107 621
107 808
107 659
107 884
107 525
107 590
107 679
107 909
107 289
107 121
107 433
107 857
107 821
107 527
107 569
107 916
107 407
107 338
107 859
107 753
107 240
107 172
107 669
107 298
107 903
107 672
107 658
107 728
107 283
107 806
107 941
107 870
107 615
107 520
107 237
107 436
107 938
107 511
107 655
107 622
107 371
107 157
107 853
107 537
107 831
107 501
107 979
107 978
107 249
107 216
107 431
107 353
107 112
107 168
107 220
107 340
107 912
107 441
107 992
107 826
107 835
107 281
108 404
108 645
108 776
108 398
108 782
108 605
108 120
108 505
108 236
108 499
108 336
108 779
108 640
108 549
108 783
108 217
108 317
108 316
108 319
108 406
108 346
108 135
109 502
109 671
109 602
109 127
109 318
109 453
109 463
109 695
109 395
109 986
109 290
109 878
109 182
109 167
109 978
109 218
109 280
109 448
109 381
109 832
109 314
109 910
109 714
109 736
109 250
109 427
109 688
109 727
109 845
109 768
109 664
109 623
109 134
109 137
109 706
109 790
109 837
109 863
109 372
109 914
109 919
109 949
109 475
109 997
110 496
110 286
110 498
110 538
110 807
110 566
110 827
110 330
110 221
110 761
110 755
110 689
110 324
110 280
110 442
111 128
111 519
111 651
111 530
111 665
111 793
111 927
111 415
111 328
111 337
111 345
111 271
111 886
112 687
112 715
112 623
112 526
112 134
112 696
112 714
112 790
112 318
112 919
112 949
112 475
113 542
113 720
113 498
113 562
113 599
113 607
113 851
113 561
113 446
113 636
113 135
113 144
113 153
113 188
113 710
113 735
113 259
113 291
113 324
113 842
113 396
113 418
113 935
113 427
113 975
113 579
114 740
114 192
114 275
114 998
114 524
114 835
114 854
114 460
114 515
114 269
114 281
114 537
114 620
114 719
114 889
114 705
114 376
114 366
114 161
114 989
114 802
114 211
114 649
114 638
114 156
114 954
114 375
114 713
114 213
114 225
115 257
115 767
115 729
115 538
115 807
115 936
115 827
115 828
115 321
115 346
115 287
115 153
115 122
115 442
116 629
116 520
116 524
116 525
116 603
116 295
116 926
116 938
116 408
116 309
116 621
116 436
116 909
116 968
116 172
116 806
116 679
116 653
116 772
116 916
116 853
116 338
116 768
116 371
116 669
116 867
116 157
116 912
116 764
116 395
116 257
116 663
116 218
116 842
116 680
116 551
116 344
116 655
116 670
116 168
116 289
116 298
116 857
116 879
116 992
116 232
117 792
117 243
117 404
117 594
117 435
117 559
117 148
117 125
117 224
117 909
117 639
117 646
117 158
117 711
117 723
117 725
117 762
117 351
117 222
117 121
117 153
117 863
117 174
118 190
118 354
118 394
118 809
118 688
118 563
118 820
118 954
118 575
118 980
118 474
118 731
118 865
118 745
118 582
118 962
118 732
118 252
118 325
118 123
118 320
118 419
118 612
118 353
118 300
118 446
118 767
118 297
118 893
118 457
118 472
118 663
118 143
118 306
118 246
118 852
118 276
118 795
119 263
119 789
119 835
119 131
119 428
119 176
119 306
119 574
119 195
119 208
119 432
119 819
119 803
119 234
119 215
119 534
119 124
119 554
119 317
119 565
119 856
119 550
119 921
119 194
119 370
119 209
119 246
119 980
119 129
119 523
119 276
119 509
119 958
120 435
120 801
120 984
120 895
120 514
120 523
120 779
120 782
120 531
120 549
120 614
120 388
120 640
120 761
120 302
120 650
120 479
120 783
120 760
120 360
120 217
120 564
120 876
120 746
120 499
120 505
120 379
120 988
120 629
120 336
120 605
120 824
120 815
120 495
120 700
120 415
120 378
120 816
120 340
120 236
120 847
120 624
120 919
121 159
121 520
121 524
121 527
121 973
121 938
121 622
121 643
121 992
121 805
121 471
121 401
121 155
121 648
121 867
121 289
121 543
121 659
121 230
121 525
121 603
121 728
121 768
121 237
121 797
121 749
121 808
121 717
121 220
121 821
121 433
121 240
121 786
121 590
121 157
121 879
121 658
121 722
121 669
121 670
121 941
121 857
121 853
121 891
121 753
121 772
121 888
121 367
121 283
121 679
121 441
121 621
121 172
121 397
121 309
121 338
121 909
121 295
121 615
121 794
121 629
121 792
121 424
121 462
121 217
121 551
121 578
121 793
121 605
121 761
121 935
121 128
121 673
121 298
121 511
121 163
121 667
122 390
122 658
122 660
122 165
122 807
122 936
122 827
122 346
122 221
122 377
122 693
122 846
122 383
122 812
122 443
122 533
122 456
122 302
122 192
122 764
122 631
122 488
123 257
123 492
123 419
123 809
123 688
123 820
123 191
123 575
123 980
123 472
123 606
123 865
123 912
123 892
123 432
124 261
124 346
124 803
124 304
124 565
124 574
124 195
124 845
124 751
124 861
124 285
124 923
124 260
125 553
125 559
125 257
125 577
125 166
125 947
125 542
125 392
125 646
125 158
125 681
125 711
125 755
125 243
125 351
125 880
125 385
125 404
125 597
125 543
125 598
125 964
125 584
125 689
125 270
125 127
126 519
126 632
126 899
126 649
126 138
126 906
126 540
126 545
126 674
126 678
126 697
126 322
126 885
126 477
126 267
126 644
126 258
126 970
126 908
126 922
126 616
126 650
126 503
126 630
126 245
126 935
126 339
127 739
127 710
127 580
127 193
127 280
127 290
127 602
127 978
127 426
127 358
127 790
127 986
127 832
127 395
127 695
127 933
127 384
127 878
127 837
127 971
127 736
127 212
127 910
127 863
127 919
127 684
127 928
127 411
127 182
127 448
127 381
127 137
127 663
127 712
127 997
127 631
127 771
127 233
127 498
127 697
127 150
127 812
127 766
127 521
127 134
127 696
127 706
127 714
127 294
127 318
127 900
127 949
127 475
128 522
128 651
128 159
128 830
128 500
128 337
128 709
128 793
128 492
128 470
128 415
128 557
128 539
128 626
128 886
128 874
128 906
128 976
128 311
128 336
128 404
128 135
128 256
128 541
128 927
128 348
128 895
128 839
128 286
128 835
129 676
129 763
129 324
129 174
129 591
129 362
129 756
129 572
129 205
129 642
129 535
129 469
129 941
129 173
129 260
129 774
129 666
129 691
129 585
130 823
130 694
130 470
130 927
130 354
130 459
130 737
130 830
130 159
130 492
130 328
130 886
130 434
130 590
130 518
130 519
130 541
130 557
130 337
130 345
130 874
130 599
130 418
130 171
131 370
131 160
131 176
131 428
131 940
131 228
131 209
131 215
131 803
131 432
131 845
131 317
131 977
131 439
131 550
131 995
131 713
131 690
131 952
131 306
131 565
131 208
132 904
132 686
132 813
132 952
132 449
132 825
132 645
132 516
132 718
132 784
132 311
132 262
132 273
132 502
132 694
132 329
132 458
132 522
132 347
132 251
132 412
132 698
132 789
132 744
132 461
132 455
132 190
132 263
132 925
132 739
132 844
132 319
132 882
132 816
132 750
132 249
132 918
132 972
132 770
132 963
132 946
132 776
132 984
132 661
132 368
132 799
132 245
132 138
132 747
132 431
132 156
132 185
132 187
132 169
132 527
132 355
132 654
132 685
132 690
132 189
132 305
132 382
132 425
132 895
132 766
132 276
132 200
132 586
132 350
133 708
133 912
133 378
133 851
133 515
133 269
133 537
133 579
133 361
133 620
133 924
133 225
133 414
133 376
133 409
133 877
133 705
133 405
133 171
133 741
133 391
133 281
133 719
133 268
133 366
133 802
133 161
133 713
133 145
133 842
133 219
133 640
133 751
133 827
133 317
133 655
134 646
134 522
134 653
134 173
134 580
134 900
134 933
134 997
134 442
134 301
134 318
134 453
134 463
134 218
134 137
134 832
134 978
134 712
134 167
134 623
134 290
134 358
134 475
134 919
134 186
134 426
134 765
134 464
134 790
134 736
134 372
134 381
134 332
134 704
134 294
134 395
134 695
134 914
134 193
134 949
134 280
134 706
134 285
134 484
134 984
134 893
134 592
134 952
134 157
134 405
134 219
134 973
134 824
134 888
134 863
134 878
134 411
134 778
135 723
135 302
135 861
135 544
135 546
135 595
135 144
135 562
135 636
135 185
135 958
135 428
135 155
135 687
135 188
135 710
135 715
135 211
135 232
135 754
135 814
135 842
135 892
135 396
135 399
135 935
135 427
135 975
135 803
135 341
136 841
136 633
136 482
136 586
136 601
136 299
136 720
136 647
136 994
136 270
136 378
136 804
136 976
136 368
136 141
136 854
136 140
136 817
136 942
136 716
136 179
136 835
136 286
136 499
136 726
136 736
136 191
136 732
136 869
136 675
136 689
136 219
136 248
136 763
136 254
136 255
136 334
136 901
136 392
136 930
136 460
136 498
136 846
136 710
136 265
136 842
136 602
137 758
137 600
137 710
137 211
137 892
137 427
137 623
137 442
137 704
137 736
137 167
137 900
137 395
137 463
137 314
137 949
137 910
137 484
137 381
137 464
137 986
137 700
137 714
137 765
137 588
137 712
137 186
137 318
137 837
137 790
137 358
137 919
137 764
137 718
137 872
137 798
137 769
137 394
137 793
137 490
137 915
137 253
137 684
137 695
137 696
137 193
137 706
137 863
137 411
137 475
137 515
138 723
138 452
138 224
138 644
138 649
138 875
138 258
138 970
138 229
138 267
138 284
138 422
138 486
138 540
138 477
138 885
138 372
138 253
138 549
138 988
138 371
138 908
138 920
138 674
138 678
138 995
138 763
138 334
138 498
138 152
139 945
139 557
139 490
139 643
139 995
139 868
139 473
139 512
139 537
139 579
139 620
139 366
139 881
139 631
139 376
139 657
139 713
139 225
140 457
140 284
140 674
140 611
140 586
140 624
140 720
140 261
140 965
140 434
140 451
140 625
140 983
140 164
140 702
140 671
140 730
140 219
140 811
140 270
140 647
140 901
140 799
140 817
140 323
140 911
140 141
140 675
140 976
140 334
140 601
140 689
140 923
140 392
140 850
140 854
140 991
140 468
140 804
140 402
140 454
140 683
140 729
140 668
140 169
140 985
140 417
140 716
140 156
140 473
140 179
140 299
140 815
140 172
140 826
140 458
140 949
140 655
140 767
140 860
140 218
140 297
140 877
140 518
140 827
140 345
140 248
140 296
140 835
140 368
140 378
140 930
140 460
140 994
140 498
140 538
141 788
141 586
141 601
141 799
141 156
141 468
141 460
141 243
141 439
141 668
141 675
141 689
141 179
141 248
141 763
141 254
141 270
141 286
141 299
141 323
141 334
141 850
141 368
141 378
141 392
141 930
141 417
141 985
141 994
141 863
142 399
142 956
142 205
142 664
142 785
142 642
142 260
142 506
142 778
142 571
142 728
142 212
142 152
142 666
142 682
142 691
142 572
142 585
142 341
142 510
143 810
143 258
143 868
143 196
143 974
143 560
143 561
143 410
143 497
143 480
143 589
143 535
143 581
143 528
143 293
143 826
143 485
143 216
143 818
143 848
143 274
143 618
143 536
143 887
143 203
143 271
143 444
143 987
143 836
143 660
143 163
143 766
143 462
143 995
143 241
143 423
143 552
143 276
143 226
143 662
143 200
143 993
143 456
143 638
143 343
143 982
143 588
143 725
143 481
143 479
143 332
143 336
143 373
143 259
143 956
143 345
143 355
143 393
143 233
143 676
143 930
143 734
143 892
143 627
143 756
144 782
144 248
144 815
144 547
144 562
144 583
144 600
144 607
144 630
144 636
144 939
144 544
144 399
144 188
144 635
144 199
144 715
144 687
144 170
144 324
144 259
144 210
144 265
144 349
144 424
144 153
144 427
144 287
144 795
144 798
144 326
144 551
144 313
144 748
144 232
144 710
144 420
144 773
144 913
144 154
144 595
144 587
144 570
144 264
144 667
144 680
144 692
144 677
144 599
144 393
144 418
144 288
144 533
144 593
144 279
144 608
144 546
144 955
144 596
144 814
144 396
144 851
144 673
144 652
144 849
144 866
144 735
144 467
144 291
144 160
144 409
144 700
144 261
144 707
144 571
144 372
144 200
144 834
144 956
144 407
144 307
144 452
144 251
144 501
144 876
144 196
144 211
144 734
144 754
144 842
144 935
144 975
144 475
145 654
145 876
145 281
145 537
145 361
145 282
145 620
145 375
145 795
145 491
145 933
145 713
145 719
146 597
146 654
146 890
146 984
146 904
146 262
146 217
146 659
146 243
146 661
146 694
146 801
146 813
146 305
146 311
146 329
146 882
146 390
146 412
146 425
146 946
146 455
146 980
146 975
146 212
146 977
147 880
147 522
147 597
147 628
147 654
147 841
147 801
147 192
147 178
147 502
147 437
147 882
147 694
147 925
147 263
147 413
147 770
147 472
147 517
147 950
147 846
147 690
147 718
147 305
147 825
147 329
147 412
147 425
147 952
147 481
147 909
147 689
148 559
148 646
148 725
148 934
148 413
148 372
148 711
148 244
148 243
148 762
148 810
148 829
148 862
148 351
148 404
148 435
148 820
148 863
148 997
149 522
149 654
149 694
149 275
149 597
149 461
149 516
149 645
149 412
149 442
149 965
149 871
149 685
149 718
149 739
149 801
149 305
149 311
149 844
149 890
149 425
149 946
149 481
150 656
150 406
150 556
150 897
150 187
150 752
150 796
150 951
150 637
150 169
150 364
150 175
150 950
150 440
150 598
150 610
150 482
150 355
150 647
150 689
150 248
150 185
151 425
151 249
151 450
151 744
151 904
151 449
151 694
151 503
151 882
151 311
151 750
151 913
151 610
151 690
151 718
151 305
151 329
151 412
151 455
151 230
151 951
151 285
151 381
151 914
151 160
152 755
152 718
152 459
152 229
152 478
152 460
152 900
152 515
152 281
152 579
152 620
152 631
152 366
152 375
152 361
152 719
152 327
152 235
153 930
153 562
153 595
153 600
153 607
153 636
153 587
153 593
153 396
153 715
153 170
153 842
153 773
153 748
153 313
153 324
153 652
153 544
153 735
153 866
153 265
153 958
153 630
153 596
153 247
153 879
153 266
153 276
153 687
153 188
153 710
153 211
153 734
153 814
153 851
153 349
153 892
153 418
153 935
153 427
153 975
153 657
153 585
154 452
154 496
154 603
154 155
154 562
154 595
154 600
154 607
154 652
154 710
154 715
154 734
154 754
154 324
154 326
154 842
154 349
154 892
154 935
154 424
154 427
154 975
155 541
155 619
155 520
155 808
155 786
155 679
155 909
155 728
155 795
155 646
155 897
155 753
155 857
155 884
155 888
155 441
155 992
155 511
155 885
155 203
155 930
155 936
156 809
156 771
156 552
156 668
156 671
156 254
156 729
156 504
156 901
156 647
156 392
156 625
156 248
156 683
156 472
156 469
156 896
156 656
156 162
156 675
156 689
156 255
156 270
156 299
156 815
156 835
156 323
156 334
156 378
156 454
156 460
156 994
156 498
156 199
156 424
156 282
157 639
157 747
157 447
157 455
157 874
157 809
157 474
157 524
157 525
157 527
157 603
157 622
157 655
157 749
157 237
157 240
157 298
157 821
157 857
157 879
157 884
157 912
157 926
157 441
157 992
157 511
157 438
157 566
158 639
158 646
158 577
158 742
158 491
158 277
158 435
158 452
158 723
158 792
158 823
158 307
158 416
158 738
158 404
158 559
158 762
158 243
158 681
158 947
158 204
158 747
158 331
158 860
158 957
158 932
158 733
158 590
158 561
158 812
158 826
158 761
158 172
158 711
158 257
158 829
158 862
158 351
158 945
158 890
158 505
158 745
158 248
158 498
158 713
159 425
159 651
159 530
159 665
159 541
159 927
159 415
159 858
159 626
159 519
159 688
159 606
159 337
159 345
159 886
159 247
159 297
159 689
160 520
160 392
160 735
160 997
160 657
160 921
160 554
160 534
160 332
160 931
160 803
160 306
160 574
160 845
160 208
160 751
160 609
161 801
161 817
161 533
161 595
161 269
161 281
161 872
161 620
161 366
161 631
161 386
161 391
161 838
161 713
161 225
162 549
162 300
162 524
162 859
162 633
162 586
162 624
162 668
162 804
162 689
162 994
162 671
162 729
162 911
162 854
162 969
162 296
162 261
162 799
162 266
162 930
162 219
162 498
162 815
162 335
162 291
162 302
162 509
162 685
162 814
162 675
162 716
162 254
162 270
162 286
162 811
162 835
162 334
162 368
162 378
162 901
162 392
162 402
162 942
162 965
162 321
162 955
162 242
163 305
163 749
163 536
163 180
163 271
163 216
163 993
163 535
163 836
163 423
163 887
163 766
163 638
163 276
163 581
163 456
163 868
163 203
163 410
163 241
163 497
163 660
163 589
163 293
163 826
163 667
163 192
163 570
163 487
163 411
163 676
163 444
163 196
163 987
163 995
163 618
163 599
163 600
163 979
164 390
164 481
164 586
164 624
164 647
164 668
164 675
164 597
164 255
164 296
164 299
164 815
164 817
164 835
164 334
164 368
164 378
164 392
164 454
164 994
164 498
164 448
164 366
165 874
165 302
165 641
165 846
165 346
165 357
165 476
165 206
165 787
165 536
165 807
165 330
165 207
165 221
165 949
166 542
166 559
166 639
166 725
166 742
166 957
166 947
166 577
166 738
166 921
166 653
166 573
166 755
166 257
166 862
166 351
166 404
166 945
166 733
166 520
166 433
166 286
166 294
166 919
167 289
167 368
167 602
167 919
167 837
167 949
167 246
167 623
167 706
167 971
167 381
167 750
167 887
167 853
167 899
167 399
167 696
167 193
167 790
167 318
167 863
167 448
167 978
167 475
167 997
167 506
168 524
168 543
168 621
168 672
168 283
168 871
168 567
168 753
168 764
168 772
168 289
168 298
168 912
168 441
168 511
168 668
168 790
168 294
169 711
169 723
169 848
169 586
169 601
169 671
169 675
169 815
169 976
169 483
169 186
169 855
169 720
169 248
169 763
169 254
169 255
169 270
169 296
169 299
169 811
169 835
169 368
169 901
169 994
169 372
169 914
170 665
170 586
170 533
170 546
170 583
170 600
170 607
170 636
170 773
170 326
170 344
170 246
170 240
170 687
170 692
170 188
170 734
170 735
170 287
170 842
170 349
170 427
170 961
170 588
170 579
171 549
171 615
171 438
171 378
171 515
171 269
171 281
171 881
171 375
171 391
171 260
171 713
171 719
171 225
171 571
172 524
172 525
172 543
172 621
172 648
172 659
172 218
172 724
172 749
172 753
172 772
172 289
172 806
172 821
172 859
172 884
172 888
172 926
172 441
172 992
172 511
172 624
172 208
173 674
173 180
173 780
173 373
173 231
173 253
173 359
173 339
173 959
173 573
173 198
173 507
173 369
173 513
173 435
173 786
173 177
173 438
173 584
173 726
173 478
173 990
173 811
173 975
174 487
174 999
174 884
174 454
174 700
174 774
174 777
174 785
174 526
174 571
174 778
174 756
174 864
174 205
174 493
174 260
174 870
174 678
174 583
174 691
174 585
174 609
174 488
174 510
175 966
175 289
175 857
175 656
175 796
175 556
175 951
175 905
175 550
175 445
175 906
175 610
175 625
175 668
175 334
176 286
176 754
176 623
176 294
176 515
176 921
176 803
176 550
176 554
176 513
176 215
176 440
176 237
176 306
176 565
176 845
176 751
177 697
177 780
177 339
177 726
177 960
177 239
177 466
177 369
177 839
177 959
177 469
177 231
177 611
177 507
177 327
177 529
177 573
177 253
177 855
177 584
177 198
177 342
177 871
177 990
177 373
177 757
177 394
177 993
177 955
177 904
177 684
177 817
178 522
178 685
178 690
178 249
178 628
178 893
178 935
178 933
178 718
178 744
178 784
178 801
178 813
178 825
178 319
178 382
178 412
178 425
178 981
178 481
178 768
178 763
178 208
179 257
179 345
179 648
179 659
179 586
179 601
179 624
179 675
179 689
179 368
179 817
179 683
179 451
179 720
179 791
179 196
179 302
179 437
179 248
179 763
179 254
179 255
179 270
179 286
179 835
179 378
179 930
179 994
179 498
179 892
180 783
180 766
180 536
180 410
180 618
180 274
180 226
180 196
180 203
180 462
180 638
180 423
180 676
180 560
180 617
180 974
180 485
180 987
180 480
180 497
180 826
180 528
180 216
180 271
180 848
180 200
180 276
180 581
180 430
180 313
180 876
180 975
180 539
180 896
180 589
180 982
180 343
180 995
180 868
180 624
180 323
181 685
181 390
181 278
181 724
181 733
181 948
181 517
181 222
181 883
181 721
181 392
181 198
181 214
181 421
181 708
181 996
181 632
181 524
181 289
181 992
181 835
181 734
182 718
182 801
182 873
182 884
182 588
182 602
182 314
182 442
182 684
182 742
182 998
182 598
182 244
182 706
182 714
182 790
182 863
182 919
183 542
183 559
183 646
183 681
183 860
183 711
183 316
183 452
183 351
183 594
183 755
183 723
183 800
183 204
183 764
183 228
183 450
183 437
183 747
183 243
183 762
183 257
183 810
183 823
183 862
183 385
183 404
183 781
183 959
183 720
183 583
183 510
184 525
184 621
184 648
184 898
184 471
184 371
184 622
184 338
184 916
184 968
184 401
184 655
184 445
184 808
184 938
184 717
184 847
184 728
184 806
184 670
184 879
184 361
184 186
184 456
184 351
184 203
184 904
184 725
184 772
184 298
184 821
184 857
184 888
184 912
184 926
184 433
184 441
184 992
184 511
184 589
184 443
184 537
185 575
185 610
185 562
185 595
185 600
185 607
185 630
185 636
185 652
185 570
185 420
185 544
185 866
185 673
185 188
185 583
185 396
185 798
185 754
185 748
185 393
185 955
185 547
185 199
185 389
185 745
185 315
185 951
185 553
185 380
185 710
185 211
185 734
185 735
185 795
185 324
185 349
185 892
185 399
185 418
185 935
185 424
185 427
185 975
185 631
185 554
186 256
186 353
186 754
186 602
186 314
186 414
186 530
186 581
186 706
186 790
186 294
186 318
186 919
186 475
187 518
187 247
187 867
187 896
187 897
187 781
187 406
187 796
187 556
187 598
187 231
188 592
188 655
188 562
188 607
188 630
188 677
188 687
188 546
188 313
188 955
188 420
188 958
188 547
188 961
188 636
188 892
188 727
188 583
188 798
188 939
188 508
188 715
188 851
188 265
188 264
188 773
188 211
188 635
188 680
188 288
188 544
188 652
188 600
188 795
188 667
188 943
188 593
188 427
188 287
188 866
188 574
188 416
188 507
188 859
188 872
188 808
188 203
188 450
188 530
188 931
188 816
188 710
188 734
188 735
188 814
188 324
188 326
188 842
188 349
188 396
188 399
188 975
189 522
189 654
189 694
189 698
189 925
189 503
189 882
189 437
189 450
189 683
189 290
189 499
189 718
189 739
189 305
189 825
189 841
189 890
189 412
189 946
189 997
190 277
190 685
190 686
190 690
190 694
190 801
190 329
190 904
190 866
190 909
190 718
190 273
190 813
190 319
190 390
190 918
190 629
190 270
190 299
190 210
190 713
190 585
191 243
191 522
191 813
191 419
191 446
191 300
191 767
191 820
191 610
191 302
191 575
191 457
191 980
191 472
191 344
191 865
191 612
191 873
191 745
191 433
191 584
191 361
191 341
192 516
192 522
192 548
192 690
192 461
192 352
192 698
192 890
192 654
192 841
192 952
192 330
192 552
192 718
192 776
192 263
192 801
192 816
192 305
192 311
192 329
192 882
192 425
192 970
192 261
192 427
192 949
192 510
193 559
193 698
193 319
193 382
193 196
193 601
193 259
193 396
193 623
193 696
193 714
193 765
193 280
193 442
193 580
193 971
193 712
193 863
193 285
193 484
193 933
193 700
193 365
193 928
193 387
193 453
193 290
193 736
193 588
193 604
193 720
193 200
193 237
193 896
193 513
193 759
193 576
193 994
193 706
193 790
193 318
193 372
193 914
193 949
193 448
193 475
193 375
194 973
194 616
194 901
194 454
194 318
194 631
194 921
194 803
194 550
194 940
194 304
194 306
194 574
194 195
194 208
194 228
194 751
195 905
195 466
195 210
195 734
195 264
195 393
195 803
195 565
195 363
195 317
195 921
195 574
195 534
195 209
195 981
195 353
195 638
195 954
195 208
196 319
196 708
196 766
196 536
196 303
196 818
196 638
196 485
196 836
196 293
196 581
196 535
196 276
196 788
196 456
196 753
196 655
196 547
196 203
196 589
196 343
196 987
196 995
196 323
196 935
196 475
196 631
196 585
197 204
197 425
197 278
197 948
197 822
197 833
197 708
197 977
197 733
197 223
197 996
197 496
197 632
197 753
197 441
197 633
197 203
197 378
198 967
198 758
198 524
198 527
198 859
198 780
198 959
198 501
198 474
198 974
198 368
198 291
198 975
198 684
198 706
199 755
199 733
199 298
199 788
199 456
199 248
199 417
199 562
199 595
199 600
199 607
199 652
199 773
199 558
199 484
199 458
199 734
199 326
199 396
199 399
199 935
199 427
199 975
199 979
199 260
200 564
200 252
200 441
200 766
200 536
200 676
200 560
200 444
200 974
200 552
200 430
200 836
200 423
200 303
200 405
200 447
200 222
200 203
200 216
200 987
200 255
200 837
200 705
201 771
201 905
201 656
201 796
201 556
201 950
201 568
201 440
201 951
201 687
201 681
201 222
201 610
201 482
201 219
201 396
201 695
202 823
202 419
202 809
202 563
202 325
202 252
202 865
202 474
202 731
202 954
202 394
202 575
202 457
202 980
202 688
202 472
202 235
202 757
202 300
202 801
202 562
202 384
202 449
202 786
202 873
202 912
202 441
202 673
202 734
202 399
203 681
203 880
203 753
203 888
203 271
203 660
203 536
203 676
203 293
203 552
203 430
203 818
203 560
203 343
203 274
203 410
203 535
203 303
203 276
203 662
203 485
203 836
203 617
203 462
203 241
203 618
203 848
203 444
203 788
203 589
203 995
203 480
203 987
203 561
203 766
203 982
203 993
203 423
203 226
203 208
203 976
203 885
203 770
203 253
203 243
203 252
203 715
203 664
203 924
203 586
203 916
203 624
204 559
204 639
204 646
204 681
204 711
204 316
204 823
204 862
204 725
204 310
204 792
204 257
204 422
204 261
204 251
204 723
204 243
204 762
204 810
204 351
204 356
204 880
204 404
204 957
204 382
204 223
204 992
204 322
204 683
204 544
204 715
205 328
205 497
205 668
205 811
205 850
205 942
205 330
205 642
205 260
205 774
205 778
205 691
205 664
205 572
205 997
205 311
205 919
205 331
205 644
205 591
205 341
205 609
205 506
205 510
206 675
206 763
206 983
206 641
206 538
206 807
206 936
206 824
206 827
206 330
206 846
206 346
206 221
206 790
207 784
207 764
207 216
207 373
207 930
207 538
207 807
207 936
207 937
207 566
207 827
207 330
207 261
207 290
207 713
207 346
207 221
207 399
207 526
208 350
208 211
208 418
208 361
208 921
208 931
208 803
208 428
208 432
208 306
208 565
208 845
208 554
208 317
208 228
208 977
208 534
208 751
208 370
208 439
208 840
208 234
208 838
208 513
208 940
208 215
208 383
208 907
208 582
208 821
208 927
208 336
208 867
208 956
209 323
209 534
209 803
209 819
209 574
209 840
209 845
209 304
209 432
209 279
209 228
209 751
210 946
210 879
210 583
210 595
210 600
210 607
210 636
210 710
210 313
210 667
210 635
210 410
210 734
210 754
210 842
210 892
210 396
210 418
210 935
210 427
211 257
211 718
211 818
211 964
211 930
211 473
211 544
211 595
211 600
211 636
211 667
211 687
211 748
211 467
211 677
211 427
211 635
211 715
211 551
211 734
211 935
211 583
211 842
211 979
211 393
211 546
211 593
211 313
211 961
211 265
211 943
211 599
211 851
211 795
211 596
211 259
211 955
211 754
211 508
211 735
211 673
211 547
211 692
211 607
211 680
211 570
211 287
211 630
211 969
211 772
211 617
211 672
211 448
211 684
211 637
211 304
211 227
211 833
211 351
211 896
211 232
211 349
211 892
211 396
211 399
211 975
212 555
212 441
212 296
212 961
212 695
212 706
212 714
212 527
212 958
212 790
212 318
212 863
212 949
212 997
213 329
213 337
213 521
213 353
213 675
213 846
213 537
213 579
213 620
213 374
213 375
213 391
213 802
213 282
213 281
213 627
213 924
213 376
213 741
213 604
213 719
213 225
213 405
213 705
213 657
213 989
213 364
213 631
213 515
213 386
213 268
213 785
213 859
213 623
213 994
213 758
213 873
213 729
213 706
214 723
214 860
214 629
214 805
214 965
214 641
214 807
214 936
214 824
214 827
214 701
214 580
214 795
214 978
214 751
215 236
215 959
215 940
215 306
215 840
215 565
215 582
215 750
215 516
215 751
216 435
216 882
216 367
216 920
216 660
216 535
216 536
216 676
216 826
216 444
216 848
216 618
216 836
216 430
216 456
216 241
216 987
216 361
216 624
216 242
216 955
216 924
216 300
216 868
216 923
216 795
216 287
217 532
217 957
217 388
217 398
217 782
217 302
217 567
217 761
217 379
217 613
217 600
217 778
217 806
217 479
217 614
217 505
217 821
218 559
218 686
218 882
218 621
218 220
218 985
218 602
218 696
218 714
218 790
218 318
218 837
218 411
218 448
219 480
219 586
219 601
219 624
219 668
219 675
219 689
219 763
219 625
219 571
219 755
219 254
219 255
219 286
219 296
219 815
219 835
219 334
219 368
219 378
219 901
219 392
219 417
219 454
219 994
219 291
219 294
219 513
220 578
220 996
220 605
220 648
220 655
220 401
220 389
220 753
220 569
220 968
220 879
220 779
220 820
220 240
220 298
220 821
220 857
220 884
220 926
220 937
220 607
220 814
221 813
221 763
221 807
221 936
221 824
221 443
221 827
221 852
221 346
221 357
221 330
221 693
221 566
221 701
221 476
221 350
221 312
221 315
221 383
221 377
221 538
221 828
221 646
221 380
221 661
221 643
221 426
221 682
221 550
221 318
221 488
222 263
222 813
222 517
222 521
222 833
222 708
222 592
222 247
222 733
222 632
222 758
222 637
222 465
222 578
222 703
222 572
222 434
222 969
222 233
222 496
222 796
222 456
222 270
222 652
222 851
223 490
223 521
223 278
223 708
223 967
223 843
223 733
223 966
223 833
223 999
223 948
223 578
223 465
223 517
223 466
223 873
223 542
223 996
223 233
223 632
223 836
223 402
224 275
224 543
224 603
224 659
224 397
224 914
224 749
224 753
224 764
224 772
224 794
224 289
224 298
224 821
224 857
224 867
224 884
224 441
224 511
224 334
224 599
225 594
225 890
225 415
225 441
225 974
225 248
225 546
225 269
225 537
225 620
225 366
225 375
225 391
225 719
225 627
225 705
225 917
225 741
225 579
225 374
225 364
225 802
225 409
225 713
225 405
225 606
225 384
225 483
225 954
225 895
225 261
226 766
226 662
226 589
226 343
226 987
226 898
226 995
226 868
226 279
227 404
227 661
227 514
227 250
227 897
227 656
227 406
227 556
227 950
227 440
227 598
227 610
227 601
227 675
227 713
228 711
228 698
228 882
228 586
228 299
228 965
228 636
228 602
228 921
228 428
228 306
228 574
228 554
228 513
228 856
228 370
228 977
228 550
228 840
228 931
228 534
228 696
228 346
228 438
228 816
228 519
228 751
229 351
229 644
229 267
229 403
229 284
229 922
229 697
229 906
229 674
229 422
229 908
229 885
229 678
229 875
229 677
229 378
230 646
230 524
230 603
230 655
230 648
230 847
230 867
230 237
230 298
230 407
230 808
230 797
230 240
230 888
230 659
230 658
230 836
230 267
230 686
230 630
230 859
230 926
230 441
230 511
230 953
230 785
231 711
231 998
231 237
231 511
231 885
231 960
231 964
231 839
231 584
231 466
231 726
231 342
231 238
231 239
231 359
231 611
231 910
231 338
231 412
231 792
231 994
232 557
232 779
232 688
232 621
232 334
232 392
232 930
232 544
232 595
232 599
232 607
232 630
232 715
232 734
232 396
232 593
232 462
232 449
232 315
232 571
232 842
232 851
232 892
232 399
232 935
232 424
232 427
232 975
233 521
233 278
233 833
233 708
233 843
233 733
233 996
233 724
233 637
233 758
233 883
233 948
233 974
233 545
233 523
233 241
233 548
233 496
233 632
234 435
234 489
234 708
234 479
234 842
234 803
234 304
234 565
234 845
234 432
234 937
234 620
234 751
235 725
235 740
235 421
235 412
235 419
235 809
235 300
235 820
235 954
235 962
235 575
235 457
235 472
235 865
235 745
235 639
235 452
235 643
235 534
235 574
235 506
236 388
236 782
236 783
236 531
236 505
236 629
236 613
236 650
236 336
236 640
236 988
236 398
236 499
236 972
236 382
236 753
236 565
236 922
236 641
236 900
236 442
237 723
237 351
237 435
237 328
237 708
237 648
237 655
237 821
237 815
237 855
237 753
237 772
237 806
237 309
237 857
237 926
237 441
237 992
237 511
237 811
237 600
237 264
237 691
238 882
238 895
238 726
238 342
238 855
238 478
238 964
238 239
238 241
238 705
238 699
238 373
238 994
238 636
238 631
239 959
239 584
239 726
239 342
239 870
239 458
239 285
239 923
239 454
240 621
240 648
240 670
240 749
240 898
240 764
240 524
240 371
240 653
240 669
240 590
240 659
240 658
240 672
240 511
240 298
240 859
240 941
240 806
240 728
240 433
240 441
240 949
240 300
240 585
240 564
240 883
240 383
240 473
240 753
240 821
240 847
240 857
240 867
240 884
240 616
240 378
240 734
240 475
241 536
241 560
241 589
241 974
241 343
241 987
241 995
241 868
241 710
241 326
241 375
242 557
242 556
242 642
242 260
242 585
242 591
242 341
242 488
242 354
242 756
243 559
243 646
243 681
243 723
243 725
243 742
243 957
243 755
243 356
243 934
243 932
243 452
243 810
243 707
243 416
243 792
243 310
243 277
243 880
243 331
243 316
243 747
243 594
243 762
243 823
243 429
243 257
243 945
243 947
243 532
243 738
243 400
243 915
243 577
243 307
243 244
243 385
243 522
243 445
243 832
243 875
243 414
243 936
243 325
243 586
243 835
243 619
243 351
243 404
243 655
243 987
243 601
243 687
244 542
244 639
244 646
244 707
244 711
244 723
244 740
244 755
244 257
244 738
244 681
244 594
244 307
244 932
244 945
244 762
244 800
244 823
244 862
244 288
244 937
244 857
244 492
244 419
244 791
244 810
244 351
244 880
244 404
244 421
244 716
244 583
245 319
245 449
245 651
245 541
245 927
245 415
245 328
245 337
245 345
245 874
245 886
245 779
245 575
245 974
245 720
246 749
246 901
246 851
246 580
246 588
246 602
246 623
246 706
246 790
246 318
246 863
246 475
246 997
247 559
247 521
247 278
247 703
247 708
247 967
247 721
247 632
247 966
247 627
247 313
247 733
247 996
247 847
247 375
248 351
248 739
248 586
248 624
248 671
248 675
248 689
248 720
248 976
248 923
248 730
248 504
248 254
248 483
248 299
248 683
248 965
248 368
248 468
248 969
248 929
248 911
248 991
248 817
248 454
248 994
248 266
248 417
248 804
248 378
248 811
248 668
248 270
248 261
248 716
248 769
248 983
248 334
248 286
248 255
248 323
248 434
248 799
248 930
248 647
248 431
248 840
248 905
248 494
248 450
248 919
248 768
248 757
248 815
248 835
248 460
248 498
249 522
249 698
249 718
249 251
249 628
249 944
249 770
249 754
249 275
249 305
249 390
249 412
249 422
249 255
249 266
250 257
250 455
250 328
250 511
250 899
250 644
250 649
250 885
250 545
250 322
250 875
250 678
250 697
250 486
250 659
250 954
250 252
250 544
250 537
250 493
251 404
251 522
251 628
251 685
251 690
251 718
251 776
251 263
251 813
251 305
251 412
251 455
251 981
251 481
251 999
251 888
251 417
251 735
251 602
252 957
252 394
252 419
252 809
252 457
252 980
252 731
252 865
252 745
252 619
252 757
252 954
252 333
252 575
252 461
252 562
252 916
252 607
252 372
253 780
253 960
253 839
253 584
253 726
253 373
253 402
253 570
254 632
254 601
254 624
254 668
254 675
254 683
254 689
254 720
254 763
254 730
254 634
254 969
254 504
254 417
254 976
254 907
254 799
254 804
254 702
254 451
254 811
254 850
254 647
254 334
254 942
254 902
254 983
254 769
254 832
254 281
254 656
254 939
254 822
254 344
254 405
254 463
254 908
254 255
254 286
254 815
254 835
254 323
254 930
254 965
254 454
254 460
254 994
254 498
254 318
255 757
255 586
255 601
255 675
255 266
255 323
255 625
255 942
255 901
255 902
255 634
255 689
255 668
255 296
255 504
255 716
255 417
255 991
255 460
255 730
255 483
255 434
255 702
255 763
255 292
255 994
255 334
255 451
255 929
255 930
255 911
255 976
255 850
255 983
255 923
255 454
255 729
255 402
255 299
255 969
255 468
255 268
255 408
255 701
255 619
255 469
255 285
255 431
255 622
255 840
255 750
255 261
255 270
255 286
255 815
255 835
255 368
255 378
255 392
255 985
255 498
255 620
256 516
256 487
256 626
256 495
256 459
256 345
256 518
256 793
256 709
256 422
256 667
256 519
256 530
256 541
256 927
256 415
256 337
256 886
256 505
256 675
256 710
256 881
257 542
257 639
257 646
257 711
257 723
257 755
257 307
257 435
257 553
257 385
257 915
257 932
257 945
257 860
257 491
257 532
257 316
257 738
257 356
257 747
257 862
257 594
257 880
257 277
257 404
257 416
257 957
257 810
257 725
257 762
257 681
257 707
257 310
257 577
257 429
257 351
257 299
257 566
257 972
257 703
257 668
257 349
257 823
257 380
257 541
257 759
257 586
257 418
257 318
257 832
258 404
258 645
258 816
258 649
258 545
258 644
258 899
258 885
258 616
258 422
258 708
258 377
258 906
258 284
258 540
258 922
258 674
258 697
258 322
258 983
258 538
258 259
258 396
258 900
259 681
259 533
259 562
259 595
259 596
259 599
259 636
259 715
259 734
259 754
259 727
259 851
259 975
259 667
259 587
259 660
259 285
259 645
259 264
259 894
259 396
259 427
259 919
259 691
260 740
260 563
260 573
260 730
260 939
260 832
260 863
260 375
260 840
260 642
260 506
260 493
260 774
260 585
260 691
260 785
260 591
260 664
260 791
260 756
260 797
260 331
260 798
260 433
260 526
260 510
261 325
261 624
261 634
261 675
261 720
261 817
261 965
261 763
261 296
261 902
261 730
261 994
261 804
261 901
261 460
261 417
261 498
261 850
261 907
261 462
261 611
261 335
261 659
261 270
261 299
261 815
261 835
261 334
261 368
261 378
261 930
261 324
262 646
262 516
262 548
262 628
262 654
262 718
262 739
262 347
262 690
262 273
262 275
262 860
262 858
262 360
262 263
262 801
262 813
262 305
262 882
262 412
262 425
262 300
262 603
262 562
262 399
262 863
263 548
263 654
263 685
263 690
263 718
263 750
263 801
263 825
263 972
263 813
263 447
263 984
263 844
263 437
263 904
263 458
263 516
263 352
263 739
263 645
263 686
263 461
263 997
263 564
263 409
263 842
263 315
263 878
263 273
263 272
263 305
263 882
263 412
263 952
263 481
263 465
263 271
263 342
263 695
264 670
264 533
264 595
264 599
264 600
264 636
264 652
264 710
264 291
264 635
264 551
264 393
264 608
264 734
264 894
264 831
264 527
264 725
264 326
264 892
264 935
264 424
264 304
265 470
265 408
265 562
265 583
265 595
265 600
265 607
265 608
265 630
265 687
265 692
265 710
265 754
265 794
265 799
265 655
265 725
265 324
265 326
265 842
265 892
265 396
265 418
265 935
265 424
265 427
265 961
265 803
266 586
266 624
266 625
266 668
266 671
266 675
266 689
266 708
266 270
266 286
266 296
266 299
266 835
266 334
266 378
266 901
266 994
266 498
266 727
267 945
267 899
267 649
267 540
267 422
267 644
267 284
267 885
267 403
267 322
267 674
267 906
267 545
267 875
267 486
267 477
267 908
267 883
267 756
267 607
267 697
267 970
267 378
267 424
268 277
268 810
268 825
268 951
268 323
268 881
268 889
268 620
268 405
268 688
268 798
268 402
268 282
268 537
268 579
268 631
268 386
268 506
269 945
269 498
269 790
269 361
269 364
269 657
269 604
269 414
269 376
269 405
269 877
269 631
269 374
269 620
269 375
269 627
269 741
269 366
269 806
269 446
269 717
269 722
269 363
269 281
269 579
269 881
269 386
269 391
269 924
270 926
270 586
270 624
270 668
270 675
270 683
270 689
270 763
270 991
270 902
270 392
270 468
270 601
270 378
270 334
270 417
270 286
270 985
270 647
270 965
270 815
270 729
270 901
270 769
270 720
270 702
270 483
270 799
270 835
270 460
270 292
270 854
270 969
270 983
270 625
270 804
270 911
270 930
270 323
270 454
270 634
270 451
270 907
270 994
270 504
270 942
270 473
270 446
270 474
270 355
270 599
270 773
270 782
270 700
270 661
270 813
270 618
270 889
270 296
270 368
270 498
271 578
271 988
271 524
271 543
271 857
271 766
271 982
271 836
271 788
271 303
271 535
271 845
271 323
271 957
271 410
271 676
271 430
271 818
271 589
271 480
271 995
271 497
272 516
272 690
272 718
272 458
272 694
272 275
272 780
272 444
272 305
272 825
272 329
272 412
272 952
272 455
272 481
272 415
272 853
272 417
272 448
273 698
273 718
273 944
273 789
273 458
273 787
273 281
273 961
273 491
273 305
273 825
273 319
273 882
273 412
273 946
273 873
273 562
273 734
273 393
273 534
274 423
274 456
274 589
274 303
274 826
274 676
274 597
274 615
274 608
274 662
274 535
274 536
274 818
274 987
274 995
274 868
274 618
275 628
275 718
275 548
275 890
275 516
275 844
275 816
275 841
275 813
275 522
275 787
275 698
275 754
275 950
275 801
275 305
275 311
275 319
275 329
275 347
275 390
275 481
275 557
275 886
275 753
275 478
276 639
276 740
276 690
276 619
276 899
276 618
276 423
276 826
276 789
276 430
276 818
276 589
276 974
276 480
276 995
276 675
277 542
277 559
277 639
277 646
277 681
277 711
277 725
277 742
277 755
277 385
277 712
277 829
277 862
277 351
277 404
277 945
277 435
277 452
277 329
277 539
277 974
277 418
277 375
278 639
278 521
278 733
278 496
278 948
278 843
278 708
278 721
278 758
278 578
278 703
278 632
278 897
278 927
278 643
278 606
278 967
278 996
278 888
278 560
278 327
279 733
279 726
279 533
279 562
279 583
279 595
279 599
279 600
279 607
279 715
279 734
279 677
279 349
279 417
279 627
279 795
279 324
279 326
279 842
279 851
279 892
279 399
279 975
280 731
280 527
280 623
280 706
280 790
280 301
280 863
280 669
280 778
280 294
280 318
280 914
280 919
280 978
280 986
280 475
280 997
280 386
280 565
281 815
281 374
281 405
281 713
281 282
281 877
281 414
281 366
281 579
281 754
281 926
281 727
281 912
281 375
281 657
281 719
282 676
282 303
282 515
282 705
282 414
282 364
282 391
282 802
282 719
282 627
282 361
282 917
282 830
282 603
282 620
282 366
282 631
282 386
282 713
282 741
283 557
283 527
283 655
283 749
283 768
283 805
283 298
283 821
283 847
283 857
283 879
283 888
283 912
283 926
283 441
283 511
283 573
284 899
284 906
284 403
284 422
284 545
284 322
284 540
284 697
284 970
284 920
284 477
284 649
284 616
284 885
284 486
284 644
284 487
284 576
284 808
284 772
284 552
284 674
284 771
284 334
285 718
285 297
285 293
285 974
285 588
285 602
285 706
285 790
285 620
285 318
285 863
285 900
285 914
285 949
285 448
285 475
285 997
286 459
286 586
286 647
286 668
286 675
286 689
286 763
286 854
286 392
286 334
286 504
286 730
286 454
286 911
286 729
286 923
286 965
286 985
286 625
286 720
286 402
286 468
286 799
286 929
286 378
286 299
286 460
286 930
286 296
286 901
286 817
286 907
286 671
286 451
286 323
286 683
286 368
286 804
286 405
286 591
286 789
286 869
286 470
286 960
286 999
286 815
286 835
286 994
286 498
287 885
287 868
287 547
287 595
287 600
287 636
287 687
287 710
287 625
287 790
287 326
287 842
287 851
287 892
287 399
287 418
287 975
287 919
288 305
288 499
288 678
288 689
288 583
288 595
288 600
288 636
288 710
288 735
288 795
288 324
288 326
288 851
288 892
288 396
288 418
288 935
288 427
288 975
288 979
289 860
289 890
289 858
289 603
289 648
289 655
289 749
289 753
289 527
289 805
289 912
289 968
289 397
289 941
289 898
289 445
289 772
289 973
289 909
289 679
289 879
289 806
289 622
289 433
289 659
289 558
289 555
289 653
289 870
289 295
289 926
289 436
289 658
289 992
289 525
289 621
289 888
289 630
289 798
289 358
289 474
289 842
289 976
289 685
289 940
289 298
289 859
289 867
289 884
289 441
289 511
289 837
290 718
290 906
290 766
290 321
290 714
290 765
290 790
290 294
290 318
290 863
290 919
290 949
290 475
290 341
291 686
291 544
291 595
291 599
291 607
291 636
291 734
291 735
291 748
291 955
291 667
291 570
291 313
291 710
291 851
291 420
291 742
291 814
291 842
291 396
291 935
291 975
292 707
292 400
292 967
292 697
292 586
292 675
292 689
292 730
292 763
292 907
292 417
292 942
292 331
292 296
292 299
292 811
292 815
292 817
292 835
292 368
292 378
292 392
292 930
292 965
292 454
292 994
292 498
293 415
293 511
293 766
293 560
293 423
293 818
293 993
293 868
293 465
293 798
293 875
293 430
293 444
293 589
293 848
293 480
293 995
293 448
294 780
294 668
294 673
294 623
294 663
294 706
294 790
294 714
294 736
294 463
294 699
294 475
294 914
294 949
294 765
294 684
294 910
294 301
294 358
294 387
294 588
294 464
294 919
294 712
294 442
294 395
294 314
294 837
294 332
294 695
294 933
294 836
294 483
294 876
294 667
294 635
294 940
294 318
294 878
294 411
295 711
295 745
295 520
295 648
295 749
295 772
295 891
295 720
295 746
295 666
295 857
295 884
295 888
295 912
295 926
295 441
295 511
295 610
295 482
295 396
295 335
296 833
296 564
296 982
296 586
296 634
296 668
296 675
296 689
296 729
296 763
296 716
296 983
296 850
296 624
296 991
296 923
296 854
296 402
296 299
296 969
296 368
296 702
296 929
296 965
296 815
296 769
296 671
296 712
296 938
296 713
296 917
296 727
296 977
296 428
296 530
296 817
296 835
296 323
296 334
296 378
296 901
296 392
296 930
296 460
296 994
296 498
296 931
296 819
297 419
297 809
297 745
297 865
297 582
297 732
297 619
297 394
297 757
297 475
297 446
297 457
297 980
297 344
297 408
297 766
297 726
297 378
297 892
298 520
298 555
298 603
298 622
298 659
298 753
298 401
298 648
298 525
298 853
298 433
298 867
298 941
298 764
298 445
298 655
298 794
298 367
298 909
298 938
298 397
298 527
298 768
298 672
298 968
298 471
298 338
298 615
298 653
298 879
298 859
298 423
298 598
298 708
298 849
298 913
298 906
298 594
298 341
298 828
298 940
298 539
298 939
298 821
298 340
298 926
298 441
298 908
298 544
298 587
298 719
299 356
299 927
299 459
299 446
299 586
299 601
299 625
299 634
299 689
299 720
299 702
299 729
299 671
299 378
299 976
299 965
299 969
299 451
299 504
299 716
299 902
299 815
299 929
299 817
299 835
299 991
299 744
299 464
299 358
299 925
299 585
299 743
299 368
299 901
299 930
299 994
299 498
299 666
300 419
300 809
300 619
300 606
300 575
300 474
300 745
300 582
300 998
300 313
300 688
300 980
300 766
300 965
300 381
301 955
301 602
301 714
301 765
301 453
301 878
301 663
301 448
301 832
301 791
301 493
301 331
301 905
301 318
301 863
301 372
301 919
301 475
301 565
301 956
302 755
302 776
302 501
302 640
302 650
302 779
302 531
302 783
302 523
302 332
302 336
302 614
302 360
302 505
302 884
303 862
303 766
303 788
303 535
303 536
303 430
303 993
303 818
303 472
303 685
303 560
303 343
303 987
303 995
304 595
304 428
304 363
304 432
304 370
304 439
304 550
304 838
304 849
304 630
304 574
305 516
305 628
305 654
305 718
305 801
305 813
305 450
305 784
305 461
305 352
305 744
305 694
305 890
305 770
305 841
305 739
305 311
305 481
305 645
305 661
305 382
305 686
305 775
305 825
305 503
305 698
305 918
305 944
305 502
305 984
305 844
305 690
305 963
305 816
305 946
305 685
305 787
305 882
305 925
305 952
305 447
305 413
305 548
305 904
305 597
305 390
305 415
305 954
305 388
305 572
305 464
305 738
305 644
305 401
305 682
305 332
305 375
305 412
305 425
305 455
305 981
305 772
305 507
305 689
305 392
305 765
306 882
306 930
306 921
306 931
306 439
306 751
306 977
306 428
306 554
306 363
306 574
306 317
306 534
306 644
306 309
306 918
306 814
306 578
306 326
306 845
307 532
307 542
307 553
307 577
307 594
307 646
307 681
307 711
307 723
307 740
307 823
307 829
307 331
307 351
307 404
307 435
307 645
307 871
307 827
307 798
307 366
307 840
308 532
308 542
308 553
308 639
308 646
308 681
308 711
308 740
308 747
308 762
308 331
308 934
308 998
308 771
308 786
308 448
308 823
308 351
308 404
308 435
308 793
308 592
308 640
308 536
308 765
309 348
309 745
309 520
309 524
309 525
309 622
309 648
309 753
309 821
309 653
309 992
309 916
309 672
309 371
309 397
309 439
309 639
309 366
309 319
309 604
309 441
309 511
310 542
310 559
310 646
310 681
310 711
310 725
310 747
310 755
310 823
310 816
310 858
310 789
310 351
310 385
310 404
310 957
310 452
310 754
311 681
311 351
311 718
311 744
311 686
311 690
311 801
311 825
311 776
311 750
311 698
311 447
311 787
311 739
311 548
311 946
311 844
311 481
311 352
311 998
311 920
311 896
311 551
311 509
311 602
311 319
311 882
311 412
311 425
311 876
312 592
312 905
312 538
312 807
312 936
312 937
312 431
312 566
312 827
312 721
312 935
312 701
312 330
312 350
313 404
313 643
313 992
313 576
313 562
313 636
313 692
313 710
313 734
313 795
313 324
313 842
313 892
313 399
313 418
313 935
313 427
313 975
314 711
314 454
314 985
314 790
314 715
314 710
314 625
314 318
314 863
314 914
314 919
314 475
315 674
315 478
315 668
315 901
315 538
315 807
315 936
315 824
315 827
315 701
315 330
316 542
316 553
316 559
316 639
316 646
316 681
316 742
316 755
316 762
316 862
316 351
316 404
316 963
316 950
316 868
317 740
317 433
317 339
317 634
317 434
317 846
317 819
317 565
317 969
317 574
317 751
317 666
318 489
318 992
318 536
318 584
318 451
318 892
318 706
318 790
318 365
318 986
318 372
318 623
318 484
318 426
318 411
318 381
318 588
318 837
318 663
318 736
318 442
318 714
318 878
318 765
318 448
318 695
318 949
318 387
318 475
318 395
318 971
318 900
318 863
318 997
318 602
318 919
318 332
318 494
318 696
318 704
318 384
318 928
318 700
318 463
318 453
318 447
318 705
318 597
318 983
318 353
318 954
318 500
318 418
318 811
318 889
318 454
318 713
319 522
319 685
319 690
319 718
319 739
319 813
319 825
319 844
319 972
319 329
319 661
319 694
319 450
319 750
319 654
319 449
319 890
319 784
319 447
319 925
319 660
319 624
319 682
319 369
319 391
319 882
319 412
319 481
319 927
319 612
319 790
320 762
320 685
320 412
320 502
320 419
320 809
320 563
320 474
320 980
320 325
320 612
320 606
320 457
320 767
320 409
320 976
320 856
320 410
320 865
320 745
320 618
320 811
320 378
320 623
321 762
321 952
321 419
321 575
321 511
321 634
321 641
321 538
321 807
321 443
321 827
321 693
321 950
321 846
321 687
322 531
322 649
322 922
322 920
322 674
322 545
322 697
322 970
322 885
322 906
322 785
322 770
322 875
322 901
322 498
322 608
322 358
322 475
323 489
323 567
323 509
323 586
323 668
323 689
323 720
323 835
323 473
323 716
323 799
323 675
323 368
323 504
323 334
323 850
323 392
323 907
323 483
323 923
323 929
323 804
323 417
323 930
323 454
323 550
323 686
323 791
323 787
323 517
323 332
323 378
323 460
323 498
324 398
324 562
324 595
324 600
324 607
324 635
324 692
324 710
324 734
324 814
324 851
324 533
324 935
324 420
324 546
324 975
324 795
324 508
324 544
324 849
324 630
324 596
324 798
324 687
324 831
324 614
324 923
324 494
324 842
324 396
324 399
324 424
324 979
325 419
325 809
325 688
325 563
325 446
325 893
325 575
325 582
325 619
325 757
325 472
325 612
325 732
325 353
325 731
325 820
325 940
325 916
325 822
325 475
325 980
325 622
325 427
325 949
326 532
326 500
326 456
326 562
326 596
326 599
326 600
326 630
326 652
326 692
326 710
326 734
326 508
326 547
326 715
326 979
326 798
326 894
326 418
326 851
326 546
326 975
326 424
326 879
326 654
326 930
326 363
326 690
326 504
326 498
326 842
326 892
326 935
326 427
327 511
327 960
327 964
327 342
327 478
327 611
327 959
327 529
327 939
327 740
327 339
327 726
328 519
328 541
328 927
328 557
328 830
328 348
328 737
328 489
328 874
328 470
328 416
328 337
328 345
328 886
328 992
328 610
328 949
329 522
329 654
329 685
329 690
329 718
329 789
329 825
329 952
329 661
329 739
329 882
329 437
329 597
329 455
329 801
329 449
329 984
329 516
329 760
329 901
329 957
329 967
329 444
329 390
329 918
329 412
329 425
329 946
329 567
330 641
330 538
330 807
330 936
330 431
330 852
330 566
330 828
330 476
330 377
330 937
330 701
330 824
330 693
330 827
330 778
330 585
330 351
330 541
330 726
330 960
330 346
330 358
331 559
331 639
331 681
331 711
331 723
331 755
331 762
331 800
331 725
331 945
331 452
331 416
331 914
331 900
331 790
331 651
331 826
331 351
331 356
331 404
331 435
331 492
331 710
331 488
332 962
332 896
332 769
332 930
332 696
332 706
332 765
332 790
332 837
332 919
332 949
332 448
332 986
332 475
332 997
333 605
333 419
333 809
333 563
333 820
333 757
333 463
333 693
333 488
333 980
333 865
333 745
333 885
334 676
334 586
334 601
334 624
334 668
334 675
334 720
334 763
334 815
334 817
334 835
334 929
334 769
334 730
334 911
334 716
334 930
334 965
334 799
334 504
334 392
334 902
334 985
334 923
334 473
334 983
334 976
334 729
334 378
334 804
334 451
334 468
334 402
334 498
334 991
334 417
334 689
334 460
334 702
334 671
334 647
334 981
334 954
334 700
334 640
334 778
334 541
334 518
334 574
334 495
334 398
334 993
334 368
334 901
334 454
334 994
334 693
334 349
335 867
335 381
335 777
335 572
335 585
335 743
335 682
335 362
335 864
335 612
335 587
335 594
335 341
335 488
335 756
335 510
336 640
336 514
336 523
336 782
336 398
336 388
336 761
336 666
336 988
336 614
336 505
336 655
336 607
336 442
336 475
337 744
337 665
337 793
337 541
337 927
337 415
337 557
337 459
337 495
337 830
337 519
337 709
337 490
337 518
337 737
337 895
337 348
337 345
337 470
337 492
337 530
337 858
337 354
337 651
337 874
337 539
337 751
337 357
337 779
337 862
337 977
337 992
337 777
337 529
337 886
337 593
338 688
338 524
338 525
338 527
338 555
338 603
338 655
338 659
338 670
338 857
338 879
338 884
338 441
338 511
338 790
338 358
339 541
339 879
339 780
339 438
339 964
339 584
339 960
339 529
339 359
339 744
339 402
340 655
340 659
340 717
340 753
340 772
340 847
340 658
340 749
340 653
340 367
340 524
340 800
340 703
340 780
340 857
340 884
340 441
340 992
340 714
341 757
341 497
341 668
341 846
341 572
341 585
341 591
341 666
341 506
341 691
341 791
341 778
341 493
341 571
341 642
341 777
341 510
341 956
341 682
341 743
341 925
341 495
341 919
341 488
342 438
342 584
342 466
342 959
342 990
342 960
342 855
342 359
342 839
342 780
342 469
342 964
342 611
342 871
342 369
342 478
342 373
342 573
342 678
342 633
342 661
342 836
342 915
342 656
342 625
343 761
343 525
343 408
343 536
343 676
343 561
343 528
343 462
343 410
343 485
343 552
343 887
343 581
343 535
343 662
343 638
343 423
343 497
343 589
343 995
343 987
343 473
343 407
343 488
343 433
343 402
343 915
343 793
343 568
344 416
344 419
344 809
344 563
344 446
344 575
344 582
344 980
344 757
344 732
344 429
344 679
344 519
344 923
344 474
344 865
344 745
345 519
345 530
345 665
345 793
345 539
345 541
345 927
345 415
345 557
345 709
345 489
345 354
345 490
345 895
345 651
345 348
345 858
345 886
345 495
345 518
345 492
345 626
345 737
345 702
345 910
345 894
345 823
345 449
345 746
345 469
345 430
345 561
345 476
345 418
346 689
346 641
346 538
346 807
346 936
346 566
346 827
346 846
346 357
346 937
346 828
346 693
346 401
346 663
346 603
347 404
347 522
347 661
347 685
347 690
347 698
347 718
347 801
347 813
347 650
347 732
347 882
347 918
347 412
347 425
347 981
347 481
347 518
347 457
347 982
347 692
347 802
348 351
348 518
348 541
348 927
348 415
348 557
348 487
348 737
348 521
348 754
348 874
348 497
348 448
348 565
349 632
349 575
349 595
349 600
349 636
349 673
349 734
349 842
349 467
349 961
349 975
349 587
349 544
349 727
349 894
349 546
349 939
349 607
349 795
349 773
349 958
349 866
349 596
349 979
349 533
349 935
349 798
349 393
349 715
349 680
349 424
349 399
349 608
349 450
349 899
349 891
349 665
349 372
349 651
349 361
349 749
349 898
349 356
349 892
349 396
349 427
349 774
350 525
350 987
350 641
350 538
350 807
350 936
350 846
350 674
350 595
350 424
350 713
351 559
351 639
351 681
351 711
351 723
351 740
351 860
351 400
351 945
351 594
351 932
351 725
351 416
351 542
351 800
351 452
351 380
351 577
351 553
351 742
351 829
351 762
351 957
351 755
351 810
351 385
351 491
351 915
351 880
351 404
351 823
351 646
351 862
351 738
351 435
351 947
351 532
351 707
351 747
351 934
351 356
351 429
351 757
351 394
351 826
351 680
351 549
351 460
351 440
351 931
351 668
351 576
351 603
351 710
351 602
351 512
351 803
352 548
352 685
352 690
352 718
352 801
352 481
352 904
352 770
352 971
352 986
352 583
352 882
352 412
352 425
352 946
352 502
353 829
353 452
353 354
353 419
353 809
353 688
353 820
353 575
353 457
353 980
353 865
353 365
353 612
353 619
353 670
353 749
354 519
354 651
354 530
354 415
354 557
354 489
354 500
354 728
354 817
354 595
355 646
355 821
355 884
355 905
355 781
355 656
355 796
355 950
355 576
355 861
355 752
355 722
355 356
355 846
355 599
356 542
356 577
356 646
356 681
356 711
356 755
356 829
356 725
356 860
356 723
356 400
356 700
356 863
356 521
356 404
356 519
356 517
356 586
356 812
356 756
357 556
357 641
357 538
357 807
357 824
357 846
358 603
358 752
358 588
358 602
358 696
358 863
358 468
358 914
358 919
358 411
358 949
359 529
359 964
359 438
359 994
359 402
359 696
359 574
359 751
360 862
360 640
360 514
360 388
360 398
360 782
360 783
360 531
360 549
360 613
360 614
360 379
360 972
360 799
360 738
360 747
360 817
360 505
360 767
360 600
360 630
360 374
361 761
361 668
361 547
361 376
361 375
361 374
361 604
361 881
361 889
361 741
361 917
361 364
361 872
361 877
361 562
361 748
361 548
361 986
361 570
361 620
361 631
361 391
361 719
362 835
362 454
362 512
362 774
362 526
362 691
362 585
362 591
362 864
362 734
362 604
362 545
362 510
363 685
363 927
363 830
363 779
363 753
363 486
363 573
363 418
363 790
363 803
363 428
363 751
364 419
364 859
364 766
364 625
364 802
364 872
364 416
364 928
364 749
364 631
364 713
364 591
365 725
365 829
365 884
365 368
365 602
365 706
365 790
365 381
365 919
365 949
365 442
365 448
365 475
366 816
366 512
366 537
366 877
366 741
366 989
366 620
366 386
366 983
366 778
366 570
366 375
367 559
367 957
367 622
367 753
367 857
367 879
367 555
367 524
367 669
367 922
367 881
367 835
367 884
367 926
367 441
367 992
367 961
368 639
368 718
368 651
368 586
368 668
368 675
368 683
368 689
368 720
368 763
368 817
368 835
368 942
368 985
368 483
368 769
368 624
368 983
368 468
368 454
368 601
368 634
368 799
368 451
368 804
368 402
368 730
368 460
368 671
368 929
368 811
368 994
368 969
368 930
368 965
368 702
368 901
368 991
368 647
368 473
368 716
368 392
368 504
368 854
368 902
368 791
368 369
368 813
368 762
368 906
368 872
368 764
368 819
368 563
368 849
368 433
368 496
368 898
368 378
368 498
368 595
368 914
369 755
369 843
369 474
369 529
369 573
369 584
369 726
370 985
370 997
370 534
370 931
370 803
370 565
370 840
370 845
370 977
370 751
371 553
371 525
371 621
371 622
371 648
371 753
371 806
371 821
371 737
371 576
371 888
371 903
371 992
371 533
372 676
372 675
372 815
372 814
372 602
372 623
372 695
372 706
372 714
372 765
372 790
372 863
372 978
372 580
372 878
372 704
372 475
372 442
372 381
372 712
372 433
372 402
372 867
372 619
372 462
372 868
372 997
373 412
373 629
373 959
373 960
373 584
373 726
373 469
373 839
373 573
373 990
373 562
373 664
373 986
373 417
373 571
374 997
374 620
374 881
374 924
374 877
374 375
374 631
374 719
375 542
375 472
375 752
375 515
375 537
375 579
375 405
375 741
375 391
375 719
375 889
375 409
375 631
375 657
375 872
375 414
375 620
375 514
375 767
375 386
375 713
376 689
376 714
376 411
376 512
376 537
376 579
376 620
376 414
376 437
376 703
376 732
376 657
376 713
377 883
377 419
377 536
377 818
377 601
377 936
377 812
377 827
377 846
377 727
377 811
377 851
378 980
378 444
378 586
378 624
378 668
378 675
378 763
378 815
378 817
378 835
378 850
378 985
378 417
378 689
378 923
378 498
378 483
378 976
378 671
378 625
378 929
378 991
378 983
378 460
378 601
378 454
378 402
378 930
378 769
378 468
378 994
378 504
378 907
378 854
378 911
378 720
378 451
378 799
378 965
378 811
378 942
378 702
378 730
378 580
378 388
378 642
378 643
378 409
378 951
378 613
378 798
379 800
379 996
379 632
379 514
379 650
379 779
379 398
379 782
379 531
379 549
379 564
379 567
379 614
379 629
379 417
380 577
380 639
380 646
380 681
380 711
380 755
380 810
380 811
380 404
380 435
380 718
380 474
380 524
380 648
380 672
380 941
380 992
380 636
380 975
381 825
381 564
381 903
381 656
381 995
381 636
381 714
381 790
381 863
381 623
381 484
381 986
381 411
381 949
381 700
381 699
381 706
381 494
381 910
381 961
381 760
381 403
381 900
381 914
381 919
381 475
381 872
382 522
382 548
382 654
382 685
382 698
382 718
382 813
382 825
382 413
382 450
382 390
382 882
382 928
382 987
382 412
382 481
382 640
382 806
382 878
383 753
383 641
383 538
383 807
383 827
384 481
384 531
384 603
384 659
384 749
384 644
384 920
384 580
384 695
384 714
384 790
384 863
384 949
384 475
384 997
385 542
385 559
385 577
385 639
385 646
385 681
385 711
385 755
385 823
385 934
385 740
385 594
385 829
385 738
385 762
385 707
385 532
385 400
385 491
385 723
385 923
385 965
385 891
385 970
385 529
385 856
385 404
385 957
385 987
385 638
385 418
385 475
385 803
386 879
386 892
386 579
386 719
386 620
386 924
386 802
386 515
386 900
386 445
386 654
386 713
387 857
387 850
387 892
387 623
387 696
387 790
387 863
387 914
387 919
387 411
387 949
387 448
387 475
387 997
388 628
388 514
388 479
388 779
388 531
388 760
388 613
388 650
388 792
388 420
388 630
388 858
388 398
388 782
388 549
388 564
388 567
388 614
388 505
388 629
388 992
388 868
388 689
388 562
388 677
388 735
389 690
389 520
389 621
389 648
389 655
389 722
389 749
389 753
389 768
389 847
389 857
389 888
389 992
389 511
390 548
390 645
390 654
390 698
390 686
390 739
390 844
390 789
390 690
390 784
390 841
390 902
390 412
390 946
390 481
390 668
390 602
391 668
391 930
391 537
391 620
391 713
391 989
391 881
391 924
391 405
391 705
391 872
391 604
391 802
391 786
391 411
391 686
391 921
391 815
392 496
392 586
392 601
392 647
392 668
392 675
392 689
392 720
392 835
392 434
392 976
392 994
392 930
392 671
392 902
392 702
392 730
392 402
392 850
392 907
392 817
392 624
392 729
392 468
392 763
392 854
392 929
392 769
392 498
392 901
392 504
392 911
392 942
392 815
392 991
392 625
392 716
392 454
392 483
392 965
392 969
392 460
392 923
392 811
392 985
392 805
392 467
392 430
392 580
392 711
392 777
392 409
392 859
392 417
392 600
393 544
393 546
393 595
393 607
393 667
393 673
393 710
393 851
393 424
393 635
393 913
393 571
393 532
393 863
393 399
393 418
393 935
393 427
393 975
393 978
394 481
394 564
394 731
394 732
394 820
394 998
394 665
394 864
394 915
394 419
394 809
394 688
394 575
394 865
394 873
394 745
394 535
394 850
394 399
394 914
395 555
395 436
395 602
395 623
395 696
395 700
395 706
395 714
395 790
395 837
395 863
395 900
395 919
395 949
395 475
396 681
396 848
396 716
396 533
396 544
396 595
396 600
396 636
396 710
396 734
396 795
396 842
396 851
396 892
396 547
396 596
396 635
396 849
396 692
396 955
396 961
396 508
396 599
396 814
396 979
396 798
396 715
396 570
396 593
396 866
396 418
396 727
396 587
396 975
396 748
396 913
396 652
396 680
396 687
396 607
396 424
396 630
396 399
396 735
396 939
396 467
396 818
396 822
396 611
396 856
396 559
396 825
396 514
396 613
396 602
396 510
396 443
396 468
396 483
396 935
396 427
396 914
396 777
397 996
397 621
397 643
397 655
397 753
397 772
397 821
397 853
397 857
397 867
397 888
397 903
397 982
397 850
397 417
397 431
397 851
397 642
397 785
398 514
398 523
398 779
398 988
398 650
398 760
398 505
398 428
398 781
398 782
398 564
398 479
399 755
399 885
399 533
399 544
399 562
399 595
399 600
399 607
399 636
399 692
399 710
399 795
399 842
399 667
399 735
399 773
399 851
399 866
399 975
399 677
399 958
399 939
399 418
399 551
399 635
399 630
399 546
399 979
399 727
399 599
399 935
399 828
399 959
399 811
399 470
399 704
399 788
399 507
399 790
399 997
400 532
400 646
400 681
400 707
400 711
400 740
400 747
400 755
400 762
400 823
400 829
400 862
400 404
400 421
400 867
400 528
400 900
401 543
401 603
401 648
401 722
401 753
401 768
401 857
401 859
401 590
401 821
401 947
401 918
401 664
401 736
401 873
401 441
401 992
401 649
401 897
401 618
401 498
401 443
401 418
401 881
401 428
402 690
402 517
402 441
402 644
402 601
402 624
402 668
402 675
402 683
402 689
402 763
402 811
402 815
402 817
402 835
402 850
402 901
402 799
402 720
402 985
402 902
402 930
402 434
402 956
402 910
402 928
402 477
402 569
402 417
402 454
402 498
402 734
403 886
403 999
403 745
403 649
403 920
403 973
403 545
403 674
403 678
403 697
403 633
403 726
404 594
404 639
404 646
404 681
404 723
404 725
404 747
404 762
404 810
404 823
404 829
404 755
404 416
404 542
404 915
404 880
404 553
404 932
404 577
404 934
404 945
404 740
404 452
404 435
404 862
404 860
404 491
404 800
404 429
404 742
404 532
404 957
404 707
404 421
404 711
404 947
404 738
404 463
404 925
404 513
404 571
404 887
404 907
404 968
404 808
404 690
404 841
404 419
404 811
404 687
404 863
404 515
405 697
405 512
405 537
405 579
405 620
405 639
405 713
406 775
406 412
406 656
406 610
406 950
406 951
406 905
406 598
406 482
406 896
406 703
406 415
406 651
406 796
406 556
406 568
406 850
406 627
407 524
407 603
407 622
407 648
407 655
407 749
407 753
407 772
407 821
407 541
407 789
407 628
407 926
407 436
407 992
407 673
408 520
408 524
408 603
408 648
408 672
408 753
408 786
408 821
408 853
408 857
408 879
408 884
408 722
408 659
408 449
408 511
408 975
408 609
409 967
409 658
409 515
409 620
409 881
409 713
410 654
410 503
410 552
410 528
410 826
410 788
410 581
410 535
410 638
410 618
410 968
410 885
410 594
410 449
410 676
410 430
410 818
410 456
410 987
410 995
410 868
410 596
410 715
410 734
410 778
411 698
411 575
411 602
411 623
411 706
411 790
411 914
411 695
411 971
411 748
411 455
411 964
411 818
411 949
411 475
412 718
412 750
412 784
412 789
412 801
412 825
412 882
412 503
412 816
412 455
412 522
412 787
412 841
412 458
412 481
412 690
412 447
412 963
412 739
412 516
412 685
412 775
412 925
412 437
412 654
412 984
412 944
412 698
412 548
412 694
412 744
412 425
412 813
412 890
412 502
412 776
412 844
412 628
412 661
412 981
412 946
412 918
412 972
412 461
412 904
412 413
412 686
412 645
412 449
412 591
412 856
412 436
412 665
412 831
412 934
412 527
412 464
412 923
412 681
412 949
412 496
412 967
412 883
412 766
412 601
412 510
413 516
413 522
413 654
413 685
413 686
413 690
413 694
413 718
413 801
413 813
413 425
413 481
413 876
414 879
414 901
414 454
414 701
414 537
414 579
414 620
414 881
414 631
414 657
414 713
414 585
415 519
415 665
415 793
415 541
415 927
415 500
415 651
415 470
415 858
415 530
415 487
415 492
415 830
415 737
415 557
415 459
415 518
415 539
415 709
415 489
415 874
415 613
415 551
415 424
415 917
415 933
415 883
415 886
415 942
415 774
416 542
416 559
416 639
416 646
416 681
416 711
416 747
416 755
416 762
416 862
416 625
416 464
416 492
416 945
416 957
416 859
416 720
416 460
416 547
416 493
417 586
417 624
417 668
417 675
417 763
417 811
417 835
417 930
417 468
417 969
417 625
417 671
417 634
417 504
417 498
417 942
417 907
417 683
417 454
417 483
417 994
417 460
417 647
417 799
417 720
417 804
417 473
417 929
417 779
417 650
417 608
417 825
417 462
418 503
418 521
418 826
418 600
418 607
418 710
418 715
418 754
418 547
418 939
418 508
418 595
418 608
418 842
418 546
418 979
418 975
418 866
418 814
418 551
418 892
418 735
418 636
418 849
418 599
418 913
418 851
418 593
418 727
418 570
418 596
418 773
418 687
418 424
418 943
418 629
418 991
418 657
418 453
418 751
418 935
418 961
419 500
419 809
419 865
419 873
419 732
419 893
419 980
419 954
419 962
419 688
419 563
419 575
419 474
419 457
419 767
419 820
419 619
419 472
419 745
419 606
419 612
419 446
419 998
419 757
419 517
419 496
419 726
419 916
419 438
419 937
419 595
420 926
420 547
420 583
420 595
420 596
420 599
420 607
420 636
420 710
420 734
420 735
420 842
420 851
420 892
420 935
420 424
420 427
420 975
421 553
421 559
421 639
421 646
421 711
421 723
421 762
421 532
421 862
421 932
421 557
421 551
421 574
421 558
421 807
421 734
422 899
422 649
422 908
422 920
422 674
422 697
422 970
422 885
422 633
422 636
423 896
423 766
423 788
423 662
423 536
423 676
423 934
423 919
423 818
423 589
423 848
423 995
423 868
423 930
423 710
424 775
424 757
424 815
424 807
424 544
424 595
424 607
424 636
424 710
424 715
424 734
424 795
424 842
424 851
424 935
424 939
424 652
424 892
424 975
424 958
424 427
424 583
424 979
424 735
424 630
424 508
424 687
424 672
424 917
424 480
424 788
424 755
424 611
424 739
425 862
425 522
425 548
425 645
425 654
425 685
425 718
425 789
425 882
425 776
425 750
425 694
425 904
425 447
425 690
425 461
425 661
425 981
425 963
425 516
425 775
425 984
425 481
425 450
425 825
425 787
425 723
425 808
425 736
425 577
425 544
425 876
425 889
425 700
425 946
425 952
425 634
425 671
425 689
425 942
425 949
425 921
426 874
426 926
426 469
426 636
426 602
426 714
426 790
426 863
426 878
426 919
426 448
426 537
427 821
427 771
427 901
427 454
427 533
427 546
427 562
427 593
427 595
427 599
427 600
427 652
427 667
427 710
427 715
427 734
427 842
427 851
427 892
427 547
427 866
427 587
427 795
427 979
427 467
427 943
427 687
427 677
427 608
427 636
427 961
427 935
427 630
427 570
427 955
427 975
427 544
427 508
427 754
427 894
427 583
427 680
427 939
427 727
427 735
427 596
427 692
427 814
427 913
427 805
427 664
427 493
427 848
427 856
427 696
427 535
427 890
427 492
427 744
427 589
427 868
427 933
427 790
427 878
427 604
428 498
428 931
428 856
428 838
428 813
428 658
428 574
428 840
428 751
429 542
429 559
429 639
429 646
429 681
429 711
429 738
429 740
429 742
429 755
429 810
429 823
429 665
429 869
430 766
430 662
430 535
430 536
430 676
430 528
430 581
430 618
430 818
430 589
430 848
430 896
430 859
430 858
430 652
430 931
430 826
430 987
430 480
430 995
430 868
430 687
430 837
431 538
431 807
431 936
431 937
431 566
431 958
431 916
431 827
431 701
432 685
432 619
432 527
432 511
432 842
432 921
432 931
432 803
432 856
432 534
432 732
432 914
433 541
433 520
433 524
433 558
433 621
433 622
433 643
433 655
433 753
433 821
433 879
433 884
433 749
433 968
433 555
433 669
433 859
433 624
433 828
433 441
433 992
433 892
433 845
434 792
434 717
434 586
434 601
434 624
434 668
434 671
434 675
434 720
434 763
434 817
434 835
434 930
434 965
434 460
434 985
434 994
434 498
434 754
435 542
435 559
435 639
435 646
435 681
435 723
435 725
435 755
435 740
435 577
435 711
435 452
435 862
435 747
435 553
435 742
435 945
435 762
435 829
435 910
435 652
435 581
435 764
435 743
435 733
436 470
436 558
436 603
436 753
436 772
436 847
436 884
436 524
436 622
436 857
436 870
436 797
436 821
436 879
436 992
436 520
436 471
436 621
436 743
436 566
436 706
436 567
436 754
436 441
436 466
437 542
437 548
437 628
437 718
437 750
437 784
437 882
437 481
437 551
437 863
438 503
438 708
438 622
438 753
438 573
438 780
438 990
438 806
438 756
438 964
438 584
438 852
438 881
439 862
439 718
439 730
439 917
439 803
439 565
439 928
439 820
439 741
440 539
440 772
440 771
440 656
440 556
440 950
440 951
440 976
440 631
440 974
440 482
440 618
440 636
441 823
441 524
441 525
441 543
441 622
441 655
441 753
441 764
441 772
441 821
441 867
441 884
441 888
441 903
441 603
441 648
441 717
441 569
441 898
441 445
441 511
441 891
441 968
441 938
441 859
441 670
441 520
441 669
441 621
441 847
441 728
441 870
441 768
441 794
441 653
441 992
441 722
441 973
441 749
441 806
441 797
441 659
441 912
441 555
441 658
441 857
441 808
441 853
441 643
441 858
441 556
441 519
441 610
441 662
441 676
441 703
441 763
441 570
441 934
441 771
441 586
442 793
442 821
442 818
442 497
442 729
442 602
442 623
442 790
442 863
442 878
442 919
442 949
442 837
442 807
442 664
442 475
442 997
443 641
443 538
443 807
443 936
443 824
443 937
443 827
443 879
443 846
444 548
444 993
444 560
444 848
444 597
444 954
444 589
444 995
444 602
444 706
445 525
445 527
445 621
445 622
445 655
445 753
445 772
445 821
445 857
445 879
445 884
445 888
445 992
445 511
445 836
445 763
446 809
446 688
446 820
446 472
446 619
446 732
446 612
446 448
446 631
446 519
446 575
446 457
446 980
446 757
446 589
447 654
447 661
447 698
447 718
447 801
447 825
447 844
447 725
447 793
447 517
447 624
448 772
448 950
448 676
448 710
448 623
448 706
448 714
448 790
448 837
448 863
448 914
448 919
448 684
448 696
448 700
448 736
448 663
448 602
448 712
448 484
448 949
448 878
448 699
448 463
448 933
448 986
448 910
448 997
448 735
448 824
448 731
448 474
448 715
448 614
448 880
448 483
448 728
448 978
448 475
449 548
449 597
449 654
449 690
449 694
449 718
449 825
449 841
449 879
449 481
449 503
449 912
450 628
450 654
450 686
450 698
450 784
450 801
450 882
450 890
450 946
450 522
450 789
450 718
450 651
450 824
450 873
450 897
450 481
450 503
450 783
450 563
450 857
450 568
451 553
451 648
451 634
451 671
451 675
451 689
451 716
451 815
451 835
451 929
451 698
451 789
451 478
451 756
451 994
451 498
452 542
452 559
452 639
452 646
452 681
452 711
452 723
452 740
452 829
452 862
452 532
452 747
452 725
452 755
452 643
452 528
452 866
452 817
452 510
453 481
453 564
453 696
453 790
453 919
453 475
453 997
454 867
454 796
454 826
454 586
454 601
454 675
454 689
454 720
454 815
454 835
454 850
454 901
454 930
454 942
454 965
454 811
454 634
454 769
454 976
454 907
454 969
454 983
454 902
454 683
454 668
454 716
454 702
454 817
454 985
454 624
454 994
454 991
454 498
454 923
454 473
454 730
454 795
454 819
454 772
454 505
454 676
454 517
454 465
454 460
455 681
455 522
455 685
455 698
455 718
455 789
455 825
455 645
455 787
455 776
455 784
455 686
455 904
455 890
455 654
455 458
455 816
455 661
455 925
455 844
455 770
455 503
455 481
455 920
455 497
455 646
455 595
455 629
455 463
455 704
455 535
455 900
456 744
456 882
456 865
456 662
456 536
456 818
456 619
456 589
456 987
456 995
456 618
456 994
457 548
457 809
457 563
457 962
457 954
457 575
457 606
457 619
457 980
457 474
457 612
457 998
457 731
457 767
457 745
457 971
457 739
457 501
457 591
457 472
457 873
457 644
457 975
458 522
458 548
458 654
458 686
458 690
458 801
458 841
458 882
458 955
458 820
458 619
459 519
459 665
459 793
459 541
459 927
459 557
459 737
459 539
459 886
459 495
459 874
459 718
459 487
459 895
459 621
460 865
460 601
460 624
460 675
460 689
460 716
460 763
460 835
460 930
460 965
460 769
460 907
460 720
460 799
460 991
460 647
460 730
460 815
460 901
460 483
460 817
460 504
460 994
460 923
460 854
460 850
460 729
460 469
460 572
460 847
460 785
460 604
460 964
460 711
460 828
460 615
460 498
461 654
461 690
461 718
461 481
461 926
461 935
462 945
462 530
462 535
462 536
462 676
462 818
462 589
462 982
462 987
462 480
463 640
463 623
463 706
463 714
463 765
463 790
463 837
463 863
463 878
463 919
463 949
463 475
464 974
464 607
464 588
464 602
464 623
464 696
464 706
464 790
464 997
465 750
465 517
465 822
465 703
465 708
465 967
465 592
465 733
465 883
465 948
465 521
465 644
465 787
465 566
465 996
465 496
465 632
465 511
465 595
465 754
466 651
466 839
466 584
466 990
466 964
466 921
466 957
466 726
466 478
467 648
467 689
467 544
467 562
467 607
467 608
467 630
467 636
467 710
467 715
467 734
467 735
467 842
467 851
467 892
467 935
468 606
468 589
468 586
468 601
468 624
468 668
468 675
468 811
468 835
468 498
468 607
469 481
469 517
469 753
469 960
469 964
469 584
469 873
469 952
469 478
469 795
469 975
470 518
470 530
470 665
470 541
470 626
470 980
470 874
470 490
470 492
470 886
470 895
470 527
470 674
470 507
470 714
470 571
471 520
471 527
471 603
471 621
471 753
471 821
471 857
471 884
471 926
471 908
471 625
472 841
472 809
472 563
472 820
472 954
472 998
472 582
472 980
472 767
472 745
472 619
472 732
472 612
472 706
472 945
472 520
472 669
472 616
472 865
472 757
472 842
473 499
473 731
473 586
473 601
473 675
473 683
473 689
473 716
473 729
473 763
473 815
473 835
473 901
473 930
473 985
473 701
473 904
473 489
473 486
473 500
473 994
473 498
473 533
473 609
474 809
474 688
474 980
474 619
474 732
474 731
474 893
474 757
474 962
474 575
474 820
474 804
474 500
474 815
474 873
474 745
474 562
474 620
475 738
475 926
475 624
475 544
475 623
475 700
475 790
475 863
475 919
475 706
475 986
475 928
475 949
475 580
475 914
475 971
475 837
475 699
475 878
475 832
475 997
475 910
475 696
475 765
475 695
475 663
475 900
475 978
475 736
475 684
475 714
475 712
475 588
475 602
475 494
475 704
475 724
475 556
475 511
475 720
475 825
475 652
475 918
475 617
475 689
475 757
475 708
475 807
476 823
476 718
476 901
476 641
476 538
476 812
476 827
476 817
477 858
477 649
477 922
477 920
477 674
477 644
477 908
477 616
477 512
477 805
477 515
477 560
477 493
478 796
478 560
478 529
478 584
478 726
478 611
478 960
478 990
478 964
478 792
478 734
479 650
479 779
479 531
479 564
479 567
479 640
479 499
479 746
479 584
479 887
479 926
479 920
479 498
479 596
479 919
480 621
480 749
480 766
480 535
480 552
480 589
480 987
480 995
480 497
480 993
480 485
480 560
480 543
480 522
480 946
480 910
480 646
480 868
480 696
480 949
481 522
481 654
481 690
481 698
481 801
481 844
481 882
481 963
481 661
481 972
481 784
481 918
481 981
481 904
481 946
481 770
481 516
481 718
481 841
481 628
481 944
481 597
481 789
481 776
481 645
481 890
481 739
481 952
481 484
481 675
481 872
481 910
481 592
481 806
481 725
481 703
481 845
481 510
482 654
482 622
482 908
482 896
482 905
482 796
482 950
482 568
482 610
482 834
482 509
482 562
482 606
482 788
482 675
482 710
483 721
483 670
483 836
483 586
483 624
483 668
483 675
483 683
483 689
483 716
483 729
483 835
483 930
483 994
483 863
484 721
484 817
484 807
484 696
484 706
484 790
484 863
484 919
484 997
485 766
485 676
485 560
485 589
485 982
485 995
485 868
485 497
486 578
486 669
486 899
486 906
486 540
486 674
486 678
486 970
486 616
486 885
486 995
486 706
487 711
487 518
487 519
487 665
487 793
487 541
487 927
487 495
487 874
487 626
487 509
487 910
487 811
487 886
488 851
488 663
488 691
488 956
488 585
488 591
488 777
488 774
488 791
488 798
488 966
488 510
489 646
489 518
489 651
489 539
489 541
489 927
489 557
489 519
489 874
489 613
489 994
490 880
490 665
490 541
490 927
490 626
490 557
490 830
490 890
490 727
490 886
490 992
491 559
491 639
491 646
491 681
491 711
491 740
491 829
491 643
491 683
491 673
491 997
492 793
492 541
492 927
492 557
492 874
492 886
492 821
492 622
492 895
492 589
492 601
493 750
493 859
493 926
493 835
493 642
493 785
493 666
493 691
493 756
493 591
493 791
493 526
493 585
493 664
493 572
493 872
493 506
493 510
494 789
494 602
494 696
494 765
494 790
494 863
494 914
494 986
494 909
495 952
495 519
495 539
495 541
495 927
495 557
495 874
495 886
495 733
495 899
495 662
496 517
496 822
496 708
496 733
496 999
496 724
496 721
496 703
496 758
496 578
496 637
496 592
496 883
496 843
496 833
496 948
496 967
496 867
496 595
496 803
496 835
496 994
497 857
497 992
497 920
497 766
497 536
497 818
497 589
497 987
497 995
497 788
497 660
497 982
497 528
497 581
497 662
497 656
497 813
497 991
498 860
498 946
498 963
498 586
498 675
498 689
498 811
498 815
498 835
498 930
498 994
498 804
498 983
498 911
498 901
498 965
498 923
498 907
498 683
498 720
498 991
498 702
498 668
498 671
498 625
498 769
498 716
498 799
498 929
498 985
498 624
498 850
498 504
498 729
498 976
498 902
498 942
498 634
498 730
498 996
498 978
498 744
498 541
498 864
498 979
498 662
498 534
498 503
498 544
498 635
498 719
499 517
499 640
499 514
499 779
499 782
499 564
499 567
499 531
499 605
499 988
499 523
499 629
499 557
499 519
499 728
499 675
499 901
499 754
499 832
500 519
500 665
500 793
500 541
500 927
500 557
500 830
500 651
500 530
500 550
500 886
501 654
501 946
501 822
501 703
501 833
501 708
501 967
501 592
501 733
501 996
501 758
501 632
501 980
502 645
502 654
502 690
502 698
502 718
502 784
502 801
502 841
502 946
502 838
502 865
502 753
502 868
502 795
502 591
503 597
503 654
503 690
503 718
503 813
503 841
503 882
503 694
503 516
503 844
503 925
503 775
503 972
503 944
503 825
503 532
503 566
503 550
503 806
504 681
504 536
504 601
504 624
504 634
504 668
504 675
504 817
504 835
504 994
504 663
504 940
505 640
505 783
505 564
505 567
505 531
505 614
505 782
505 988
505 760
505 876
505 613
505 747
505 844
505 734
505 992
505 600
506 734
506 978
506 585
506 609
506 526
506 642
506 778
506 743
506 571
506 612
506 546
507 749
507 959
507 584
507 624
507 599
508 820
508 926
508 533
508 544
508 587
508 595
508 673
508 687
508 710
508 715
508 734
508 735
508 754
508 814
508 842
508 892
508 935
508 975
509 511
509 905
509 656
509 796
509 556
509 598
509 861
509 610
509 635
509 747
509 735
509 591
510 683
510 777
510 666
510 691
510 956
510 526
510 791
510 572
510 774
510 642
510 778
510 864
510 638
511 927
511 524
511 603
511 621
511 648
511 659
511 749
511 821
511 857
511 888
511 926
511 992
511 805
511 968
511 764
511 941
511 853
511 670
511 525
511 847
511 672
511 569
511 806
511 786
511 909
511 938
511 891
511 859
511 898
511 722
511 658
511 527
511 916
511 867
511 768
511 728
511 879
511 912
511 973
511 792
511 641
511 842
511 948
511 875
511 624
511 955
511 975
511 537
512 811
512 832
512 620
512 604
512 780
512 537
512 579
512 719
512 565
513 646
513 818
513 693
513 600
513 604
513 741
513 565
513 574
513 845
513 751
514 948
514 567
514 782
514 783
514 613
514 746
514 605
514 650
514 596
514 935
514 770
514 581
514 779
514 549
514 564
514 614
514 835
515 927
515 979
515 877
515 537
515 620
515 631
515 657
515 719
515 741
516 718
516 770
516 548
516 776
516 808
516 522
516 597
516 654
516 686
516 744
516 784
516 882
516 946
516 709
516 879
517 810
517 708
517 759
517 632
517 592
517 833
517 822
517 883
517 966
517 843
517 733
517 578
517 724
517 996
517 758
517 926
517 937
518 557
518 665
518 541
518 927
518 858
518 886
518 626
518 805
518 714
518 519
518 879
518 756
519 626
519 530
519 927
519 886
519 709
519 874
519 830
519 737
519 541
519 539
519 651
519 745
519 884
519 861
519 549
519 677
519 665
519 575
519 648
519 535
519 987
520 903
520 672
520 867
520 941
520 569
520 670
520 938
520 669
520 859
520 555
520 679
520 525
520 786
520 717
520 898
520 926
520 808
520 660
520 871
520 751
520 791
520 897
520 524
520 558
520 603
520 659
520 749
520 753
520 821
520 847
520 888
520 992
520 695
520 949
521 880
521 578
521 948
521 708
521 759
521 632
521 703
521 833
521 954
521 816
521 822
521 967
521 592
521 721
521 733
521 996
521 897
521 610
522 747
522 844
522 944
522 548
522 882
522 825
522 813
522 654
522 698
522 784
522 718
522 890
522 972
522 739
522 789
522 816
522 685
522 981
522 708
522 732
522 845
522 883
522 743
522 725
522 556
522 597
522 628
522 686
522 801
522 709
522 815
522 817
522 936
523 762
523 640
523 988
523 567
523 779
523 564
523 746
523 605
523 782
523 838
523 624
523 943
523 783
523 965
523 949
524 553
524 646
524 968
524 884
524 821
524 909
524 764
524 870
524 891
524 603
524 926
524 859
524 941
524 867
524 879
524 670
524 973
524 806
524 672
524 569
524 653
524 938
524 622
524 669
524 643
524 615
524 659
524 772
524 857
524 655
524 805
524 794
524 797
524 590
524 619
524 962
524 595
524 533
524 539
524 897
524 621
524 753
524 888
524 598
524 710
524 734
524 851
525 653
525 679
525 659
525 655
525 806
525 857
525 658
525 847
525 669
525 749
525 859
525 898
525 622
525 912
525 968
525 569
525 797
525 903
525 590
525 722
525 884
525 615
525 867
525 941
525 870
525 772
525 558
525 670
525 629
525 650
525 894
525 549
525 987
525 609
525 547
525 984
525 527
525 621
525 753
525 926
525 992
525 529
526 981
526 970
526 982
526 804
526 630
526 924
526 774
526 785
526 791
526 908
526 614
526 691
526 591
526 756
527 639
527 764
527 898
527 555
527 728
527 603
527 648
527 847
527 857
527 884
527 888
527 992
527 561
527 935
528 801
528 768
528 857
528 766
528 974
528 848
528 538
528 662
528 535
528 536
528 676
528 589
528 987
528 995
528 730
528 677
528 892
528 790
529 584
529 726
529 559
529 556
529 960
529 964
530 539
530 793
530 665
530 858
530 883
530 602
530 541
530 874
531 640
531 779
531 746
531 567
531 605
531 629
531 614
531 782
531 549
531 988
531 876
531 740
531 695
531 607
532 707
532 823
532 957
532 747
532 947
532 915
532 542
532 559
532 639
532 681
532 711
532 740
532 755
532 810
532 829
532 862
533 569
533 847
533 950
533 680
533 583
533 608
533 544
533 635
533 593
533 955
533 570
533 798
533 958
533 748
533 562
533 754
533 622
533 799
533 682
533 546
533 587
533 595
533 607
533 630
533 636
533 687
533 715
533 734
533 735
533 795
533 842
533 892
533 975
534 610
534 987
534 706
534 921
534 845
534 838
534 554
534 620
534 931
534 803
534 751
535 766
535 848
535 887
535 617
535 560
535 839
535 625
535 536
535 676
535 589
535 995
535 720
535 631
536 557
536 688
536 766
536 560
536 987
536 660
536 581
536 589
536 995
536 638
536 848
536 618
536 552
536 993
536 818
536 868
536 974
536 663
536 703
536 822
536 739
536 890
536 758
536 826
536 729
537 862
537 649
537 892
537 881
537 579
537 889
537 917
537 627
537 877
537 924
537 719
537 989
537 705
537 872
537 620
537 713
537 741
537 852
537 679
537 640
537 539
537 631
537 657
538 654
538 613
538 942
538 869
538 641
538 937
538 846
538 693
538 701
538 827
538 852
538 807
538 566
538 824
538 812
538 952
538 707
538 577
538 894
538 921
538 888
539 957
539 793
539 626
539 709
539 816
539 541
539 927
539 557
539 874
540 912
540 899
540 644
540 649
540 908
540 697
540 679
540 630
540 802
540 920
540 674
540 970
540 885
540 982
540 720
541 651
541 858
541 830
541 793
541 874
541 665
541 737
541 557
541 886
541 626
541 709
541 895
541 570
541 702
541 653
541 631
541 632
541 772
542 646
542 915
542 707
542 738
542 577
542 723
542 823
542 755
542 945
542 932
542 762
542 594
542 681
542 947
542 559
542 860
542 957
542 568
542 888
542 996
542 989
542 777
542 639
542 725
542 603
542 950
542 689
543 912
543 717
543 653
543 672
543 615
543 992
543 555
543 621
543 772
543 808
543 805
543 874
543 574
543 919
543 655
543 749
543 857
543 888
544 601
544 835
544 687
544 547
544 913
544 583
544 773
544 595
544 608
544 710
544 955
544 754
544 855
544 599
544 630
544 636
544 734
544 842
544 892
545 559
545 690
545 899
545 644
545 649
545 922
545 552
545 758
545 892
545 674
545 697
545 885
546 681
546 603
546 635
546 607
546 842
546 667
546 673
546 630
546 692
546 979
546 677
546 881
546 782
546 547
546 595
546 687
546 710
546 734
546 735
546 851
546 892
546 935
546 961
546 975
547 950
547 994
547 812
547 635
547 599
547 939
547 562
547 795
547 608
547 667
547 866
547 754
547 680
547 692
547 715
547 946
547 844
547 648
547 804
547 595
547 607
547 636
547 652
547 710
547 735
547 842
547 851
547 935
547 975
548 718
548 597
548 750
548 775
548 925
548 746
548 685
548 690
548 789
548 801
548 841
548 882
548 614
548 556
548 642
549 639
549 665
549 650
549 779
549 564
549 613
549 614
549 757
549 567
549 629
549 975
549 741
550 847
550 867
550 879
550 644
550 834
550 921
550 856
550 751
550 808
550 587
550 966
550 940
550 565
550 574
550 840
550 977
551 884
551 636
551 692
551 697
551 587
551 600
551 607
551 630
551 710
551 842
551 851
551 892
551 979
552 660
552 982
552 681
552 826
552 589
552 720
552 965
553 639
553 646
553 862
553 707
553 800
553 559
553 576
553 711
553 723
553 740
553 755
553 762
553 823
553 927
553 828
554 614
554 753
554 906
554 811
554 863
554 803
554 985
554 565
554 751
555 857
555 973
555 622
555 648
555 655
555 672
555 749
555 753
555 772
555 888
555 912
555 992
556 749
556 905
556 656
556 796
556 598
556 568
556 752
556 610
556 771
556 953
556 897
556 576
556 896
556 950
556 834
556 646
556 802
556 570
556 863
556 915
557 762
557 665
557 927
557 709
557 793
557 830
557 651
557 814
557 751
557 874
557 899
558 768
558 884
558 912
558 805
558 941
558 791
558 621
558 821
558 867
558 888
558 992
559 862
559 594
559 725
559 915
559 762
559 823
559 947
559 755
559 707
559 957
559 740
559 932
559 742
559 880
559 625
559 855
559 930
559 928
559 784
559 639
559 681
559 723
559 945
560 761
560 818
560 638
560 581
560 618
560 982
560 836
560 676
560 655
560 991
560 987
560 868
560 763
561 766
561 662
561 676
561 581
561 974
561 826
561 618
561 813
561 818
561 987
561 995
561 599
562 681
562 635
562 866
562 961
562 979
562 608
562 596
562 975
562 599
562 735
562 583
562 630
562 680
562 734
562 748
562 727
562 595
562 636
562 710
562 587
562 728
562 820
562 678
562 808
562 785
562 626
562 677
562 842
562 851
562 892
562 894
562 802
562 631
562 924
563 809
563 619
563 732
563 731
563 767
563 893
563 745
563 889
563 622
563 695
563 820
563 954
563 575
563 980
563 865
563 873
563 757
563 851
564 876
564 783
564 746
564 614
564 613
564 782
564 779
564 605
564 629
564 640
564 954
564 971
564 567
564 669
564 992
564 964
565 784
565 960
565 803
565 751
565 838
565 931
565 940
565 921
565 578
566 875
566 641
566 807
566 936
566 812
566 634
566 999
566 846
567 740
567 779
567 782
567 746
567 761
567 760
567 605
567 629
567 730
567 715
568 665
568 905
568 781
568 656
568 796
568 950
568 951
568 752
568 576
568 896
568 897
568 902
568 928
568 685
568 623
568 610
569 725
569 786
569 938
569 768
569 670
569 643
569 906
569 907
569 655
569 753
569 821
569 888
570 718
570 884
570 676
570 747
570 595
570 635
570 673
570 734
570 735
570 754
570 795
570 842
570 851
570 892
570 975
571 777
571 691
571 585
572 919
572 642
572 774
572 682
572 609
572 864
572 833
572 839
572 585
573 685
573 780
573 871
573 990
573 960
573 839
573 584
573 726
573 878
574 921
574 819
574 940
574 845
574 751
574 931
574 726
574 721
574 914
574 840
575 809
575 954
575 980
575 731
575 865
575 732
575 688
575 745
575 619
575 612
575 873
575 998
575 893
575 962
575 847
575 951
575 623
576 945
576 896
576 781
576 656
576 831
576 796
576 771
576 614
576 758
576 610
576 636
577 862
577 747
577 681
577 620
577 775
577 594
577 639
577 711
577 740
577 945
577 624
577 842
578 948
578 883
578 703
578 822
578 708
578 967
578 843
578 592
578 733
578 996
578 612
578 867
578 716
578 817
578 642
579 731
579 857
579 720
579 835
579 741
579 631
579 802
579 889
579 705
579 722
579 859
579 664
579 698
579 719
580 622
580 857
580 704
580 949
580 790
580 986
580 950
580 810
580 641
580 651
580 602
580 623
580 696
580 863
580 919
581 685
581 847
581 676
581 589
581 995
581 868
582 809
582 688
582 757
582 865
582 954
582 726
582 980
582 612
582 745
582 774
583 886
583 708
583 687
583 608
583 734
583 600
583 635
583 596
583 842
583 975
583 652
583 924
583 705
583 645
583 852
583 595
583 607
583 636
583 673
583 692
583 710
583 754
583 814
583 977
584 821
584 871
584 611
584 990
584 726
584 960
584 780
584 839
584 643
584 650
584 802
584 975
585 918
585 774
585 785
585 691
585 664
585 609
585 778
585 777
585 864
585 682
585 956
585 743
585 591
585 666
585 969
585 847
585 669
585 625
586 639
586 886
586 720
586 675
586 647
586 689
586 716
586 671
586 907
586 683
586 730
586 991
586 668
586 625
586 969
586 835
586 983
586 811
586 902
586 994
586 634
586 763
586 923
586 929
586 624
586 815
586 799
586 976
586 601
586 729
586 702
586 850
586 769
586 778
586 637
586 961
586 768
586 707
586 874
586 606
586 941
586 988
586 819
586 652
586 817
586 901
586 930
586 600
587 662
587 608
587 939
587 735
587 680
587 754
587 652
587 815
587 595
587 600
587 636
587 710
587 734
587 851
587 892
587 935
587 975
588 815
588 827
588 900
588 878
588 933
588 905
588 627
588 602
588 623
588 714
588 765
588 790
588 863
588 919
589 946
589 766
589 818
589 993
589 982
589 638
589 836
589 617
589 676
589 848
589 868
589 995
589 788
589 987
589 660
589 856
589 864
589 828
589 670
589 870
589 879
589 758
589 642
590 740
590 661
590 675
590 603
590 717
590 753
590 821
590 847
590 857
590 888
590 912
590 992
591 711
591 946
591 988
591 702
591 790
591 785
591 691
591 774
591 609
591 756
591 864
591 642
591 778
591 791
591 664
591 743
591 666
591 995
591 879
591 701
591 687
592 723
592 948
592 967
592 822
592 637
592 966
592 721
592 708
592 999
592 703
592 769
592 958
592 790
592 733
592 996
592 632
592 614
593 816
593 894
593 600
593 687
593 842
593 913
593 892
593 595
593 599
593 636
593 710
593 734
593 935
593 955
593 975
594 829
594 711
594 732
594 639
594 646
594 681
594 723
594 725
594 755
594 810
594 880
594 857
595 880
595 888
595 683
595 869
595 608
595 715
595 975
595 958
595 979
595 842
595 596
595 754
595 667
595 798
595 677
595 635
595 851
595 710
595 939
595 795
595 894
595 866
595 961
595 600
595 734
595 692
595 630
595 680
595 607
595 892
595 687
595 913
595 756
595 707
595 810
595 598
595 949
595 690
595 655
595 786
595 636
595 748
595 935
595 713
596 677
596 913
596 599
596 687
596 710
596 734
596 851
596 935
596 975
597 952
597 661
597 645
597 787
597 670
597 989
597 735
597 654
597 685
597 698
597 718
597 813
597 825
597 882
598 656
598 796
598 861
598 896
598 897
598 834
598 951
598 762
598 696
598 792
598 610
598 919
598 691
599 936
599 680
599 975
599 652
599 630
599 727
599 754
599 958
599 798
599 715
599 600
599 866
599 607
599 673
599 961
599 773
599 734
599 710
599 735
599 795
599 935
599 824
599 602
599 810
599 705
599 636
599 892
599 706
599 919
599 741
600 813
600 805
600 781
600 715
600 842
600 955
600 975
600 636
600 939
600 943
600 673
600 748
600 734
600 795
600 913
600 710
600 892
600 773
600 667
600 735
600 961
600 630
600 932
600 986
600 834
600 980
600 851
600 935
601 621
601 903
601 656
601 729
601 804
601 907
601 769
601 702
601 799
601 969
601 854
601 817
601 850
601 716
601 923
601 985
601 811
601 763
601 743
601 675
601 835
601 930
601 965
601 994
601 936
602 665
602 863
602 878
602 914
602 910
602 695
602 790
602 997
602 928
602 949
602 714
602 700
602 971
602 765
602 699
602 696
602 712
602 845
602 793
602 726
602 854
602 625
602 623
602 706
602 919
603 806
603 857
603 941
603 669
603 679
603 968
603 992
603 888
603 870
603 912
603 728
603 853
603 615
603 753
603 938
603 926
603 672
603 622
603 621
603 655
603 884
603 643
603 717
603 847
603 768
603 772
603 648
603 985
603 611
603 718
603 680
603 947
603 749
603 821
603 859
603 662
603 936
603 727
603 714
603 609
604 895
604 884
604 992
604 826
604 620
604 631
604 657
604 719
605 779
605 782
605 614
605 876
605 629
605 761
605 643
605 863
606 809
606 980
606 893
606 619
606 698
606 617
606 745
606 675
606 751
607 890
607 946
607 614
607 618
607 675
607 955
607 958
607 748
607 608
607 798
607 715
607 892
607 667
607 866
607 979
607 680
607 913
607 687
607 975
607 935
607 773
607 795
607 630
607 652
607 735
607 727
607 857
607 760
607 774
607 936
607 876
607 885
607 636
607 710
607 734
607 754
607 842
607 851
608 764
608 975
608 735
608 748
608 964
608 696
608 689
608 667
608 710
608 842
609 762
609 884
609 888
609 666
609 691
609 864
609 664
609 743
610 648
610 896
610 656
610 796
610 950
610 953
610 752
610 951
610 905
610 861
610 771
610 834
610 923
610 909
611 762
611 980
611 960
611 817
611 922
612 813
612 809
612 980
612 757
612 729
612 619
612 817
612 975
612 931
613 779
613 782
613 988
613 760
613 746
613 640
613 761
613 841
613 728
613 921
613 629
613 741
614 640
614 783
614 650
614 779
614 760
614 629
614 761
614 988
614 744
614 973
614 632
614 622
614 660
615 711
615 718
615 688
615 670
615 953
615 864
615 621
615 643
615 655
615 753
615 857
615 884
615 888
615 992
615 818
615 994
616 899
616 649
616 908
616 920
616 674
616 970
616 922
616 875
616 769
616 710
616 714
616 956
617 766
617 788
617 662
617 676
617 826
617 974
617 987
617 995
617 868
617 641
617 807
617 842
618 639
618 766
618 676
618 987
618 993
618 982
618 826
618 760
618 735
619 820
619 980
619 731
619 873
619 745
619 757
619 636
619 645
620 821
620 802
620 705
620 719
620 889
620 784
620 717
620 893
620 922
620 768
620 763
620 631
620 657
621 927
621 884
621 888
621 768
621 909
621 797
621 992
621 670
621 941
621 938
621 772
621 659
621 749
621 643
621 903
621 853
621 722
621 842
621 639
621 675
621 766
621 821
621 857
621 859
621 879
622 698
622 806
622 805
622 912
622 808
622 916
622 749
622 786
622 903
622 717
622 648
622 653
622 772
622 821
622 884
622 633
622 950
623 755
623 736
623 699
623 914
623 765
623 900
623 997
623 933
623 706
623 684
623 663
623 949
623 863
623 714
623 978
623 880
623 912
623 707
623 766
623 790
624 782
624 753
624 811
624 923
624 702
624 815
624 969
624 929
624 976
624 675
624 991
624 907
624 799
624 689
624 668
624 911
624 720
624 716
624 835
624 634
624 850
624 671
624 730
624 683
624 769
624 804
624 901
624 630
624 767
624 859
624 997
624 924
624 625
624 763
624 930
624 994
624 795
625 980
625 702
625 668
625 854
625 730
625 842
625 689
625 729
625 763
625 817
625 835
625 901
625 930
625 994
626 711
626 823
626 665
626 858
626 886
626 790
626 705
626 741
627 988
627 630
627 877
627 631
627 657
627 713
627 719
628 740
628 904
628 645
628 952
628 944
628 770
628 946
628 787
628 897
628 781
628 928
628 685
628 686
628 690
628 698
628 750
628 882
628 995
628 919
628 921
629 733
629 996
629 779
629 782
629 988
629 746
629 783
629 876
629 640
629 797
629 969
629 985
629 706
630 779
630 888
630 773
630 892
630 939
630 735
630 814
630 673
630 842
630 754
630 824
630 758
630 693
630 895
630 768
630 636
630 710
630 734
630 795
630 851
630 975
631 896
631 995
631 675
631 994
631 924
631 719
631 872
631 741
631 802
631 705
631 917
631 691
631 855
632 946
632 833
632 708
632 967
632 733
632 721
632 883
632 999
632 703
632 822
632 759
632 943
633 908
633 920
633 674
633 678
633 885
633 649
633 899
633 875
633 970
633 906
633 667
633 940
634 725
634 733
634 821
634 656
634 983
634 668
634 675
634 763
634 817
634 835
634 901
634 994
634 935
634 924
635 821
635 961
635 720
635 636
635 710
635 734
635 735
635 748
635 851
635 892
635 935
635 975
635 997
635 778
636 923
636 961
636 710
636 894
636 667
636 814
636 734
636 687
636 773
636 975
636 958
636 892
636 754
636 866
636 673
636 939
636 795
636 727
636 748
636 715
636 913
636 955
636 943
636 677
636 842
636 849
636 680
636 637
636 711
636 638
636 887
636 714
636 906
636 735
636 851
636 935
637 948
637 708
637 967
637 843
637 996
637 999
637 853
637 675
637 997
638 766
638 662
638 676
638 987
638 995
638 962
638 842
639 945
639 810
639 957
639 947
639 800
639 934
639 762
639 646
639 742
639 707
639 681
639 755
639 880
639 740
639 723
639 932
639 738
639 725
639 915
639 823
639 706
639 835
639 864
639 711
639 747
639 994
639 935
640 988
640 761
640 650
640 779
640 782
640 714
641 726
641 807
641 869
641 937
641 852
641 846
641 941
641 877
641 856
641 936
641 812
641 692
642 703
642 996
642 675
642 975
642 837
642 791
642 777
642 664
642 731
642 980
642 774
642 691
642 756
643 809
643 672
643 658
643 912
643 648
643 749
643 753
643 772
643 847
643 857
643 859
643 879
643 888
643 926
643 992
644 865
644 875
644 906
644 678
644 899
644 674
644 697
644 649
644 970
644 953
644 908
644 700
644 919
645 844
645 685
645 952
645 972
645 654
645 687
645 690
645 775
645 801
645 882
645 745
645 872
646 860
646 810
646 880
646 932
646 725
646 792
646 747
646 762
646 707
646 681
646 957
646 947
646 800
646 829
646 915
646 755
646 862
646 723
646 738
646 693
646 682
646 870
646 766
646 711
646 740
646 823
646 708
646 987
646 675
647 929
647 976
647 817
647 969
647 937
647 694
647 683
647 689
647 716
647 763
647 815
647 835
647 807
647 677
648 946
648 806
648 916
648 669
648 821
648 717
648 768
648 891
648 797
648 909
648 670
648 847
648 808
648 941
648 857
648 853
648 831
648 688
648 777
648 866
648 655
648 912
648 990
649 857
649 899
649 697
649 906
649 875
649 885
649 674
649 922
649 841
649 834
650 718
650 779
650 783
650 962
650 782
650 876
650 980
651 665
651 927
651 895
651 737
651 680
651 871
651 874
651 886
651 857
651 888
651 662
652 975
652 849
652 748
652 935
652 795
652 892
652 836
652 693
652 857
652 922
652 710
652 842
652 851
653 721
653 821
653 780
653 680
653 729
653 655
653 722
653 749
653 753
653 772
653 857
653 879
653 884
653 992
654 882
654 946
654 718
654 698
654 776
654 890
654 816
654 981
654 750
654 770
654 685
654 690
654 775
654 984
654 784
654 825
654 918
654 994
654 862
654 747
654 864
654 866
654 678
655 859
655 808
655 786
655 753
655 898
655 717
655 867
655 764
655 659
655 679
655 794
655 712
655 759
655 904
655 889
655 747
655 738
655 749
655 821
655 847
655 857
655 884
655 912
655 992
655 818
655 689
656 896
656 781
656 831
656 951
656 834
656 796
656 953
656 905
656 897
656 861
656 950
656 771
656 982
656 818
656 744
657 817
657 713
657 989
657 924
657 986
657 838
657 976
658 880
658 733
658 753
658 916
658 663
658 749
658 857
658 884
658 926
658 992
659 797
659 881
659 753
659 857
659 867
659 926
659 992
660 788
660 982
660 703
660 826
660 836
660 987
661 963
661 971
661 685
661 690
661 801
661 813
661 841
661 844
661 882
661 950
661 848
661 815
661 965
661 695
662 973
662 766
662 788
662 868
662 826
662 742
662 818
662 987
663 704
663 971
663 759
663 898
663 684
663 700
663 706
663 790
663 863
663 914
663 919
663 949
664 807
664 691
665 886
665 830
665 927
665 806
665 899
665 748
665 851
666 903
666 774
666 956
666 756
666 864
666 677
666 691
667 747
667 964
667 851
667 935
667 734
667 849
667 971
667 827
667 710
667 754
667 842
667 892
667 961
667 975
668 835
668 811
668 994
668 976
668 702
668 929
668 965
668 671
668 911
668 907
668 930
668 675
668 683
668 991
668 854
668 799
668 969
668 730
668 720
668 923
668 942
668 967
668 784
668 943
668 724
668 711
668 729
668 817
668 850
668 901
668 936
669 793
669 703
669 797
669 682
669 753
669 821
669 857
669 879
669 884
669 888
670 918
670 764
670 806
670 962
670 749
670 853
670 857
670 888
670 912
670 926
671 966
671 782
671 769
671 699
671 909
671 675
671 689
671 811
671 815
671 817
671 901
671 930
671 965
671 790
672 957
672 962
672 753
672 884
672 926
672 992
672 935
673 794
673 848
673 710
673 734
673 754
673 842
673 892
673 894
673 961
673 975
674 899
674 922
674 920
674 906
674 678
674 697
674 908
674 970
674 875
674 812
674 781
674 885
675 902
675 720
675 804
675 683
675 799
675 769
675 985
675 907
675 811
675 991
675 965
675 923
675 729
675 850
675 983
675 702
675 716
675 835
675 976
675 969
675 817
675 689
675 854
675 994
675 911
675 815
675 930
675 901
675 942
675 730
675 929
675 763
675 987
675 964
675 856
675 915
675 745
675 736
676 708
676 724
676 766
676 868
676 848
676 818
676 826
676 836
676 791
676 693
676 876
676 720
676 982
676 987
676 995
677 687
677 734
677 754
677 814
677 842
677 892
677 935
677 961
677 975
678 899
678 920
678 973
678 875
678 885
678 719
679 753
679 821
679 879
679 884
679 926
680 879
680 834
680 716
680 710
680 734
680 735
680 754
680 842
680 892
680 935
680 975
681 810
681 880
681 934
681 755
681 711
681 723
681 957
681 862
681 738
681 740
681 915
681 932
681 823
681 725
681 945
681 800
681 792
681 747
681 762
681 742
681 707
681 876
681 816
681 900
681 930
681 717
681 855
681 763
682 865
682 774
682 743
682 708
682 956
683 981
683 868
683 815
683 976
683 835
683 817
683 738
683 953
683 689
683 716
683 730
683 763
683 811
683 901
683 930
683 942
683 994
683 756
684 772
684 987
684 990
684 832
684 865
684 706
684 790
684 914
684 919
684 949
685 690
685 963
685 984
685 775
685 925
685 776
685 787
685 981
685 770
685 686
685 750
685 744
685 944
685 698
685 825
685 789
685 784
685 890
685 904
685 801
685 918
685 995
685 969
685 731
685 892
685 993
685 718
685 882
685 946
685 875
685 961
686 925
686 984
686 718
686 877
686 920
686 801
686 841
686 882
686 946
686 781
687 825
687 965
687 715
687 734
687 961
687 727
687 894
687 942
687 824
687 714
687 710
687 842
687 851
687 975
688 825
688 809
688 980
688 865
688 873
688 998
688 732
688 893
688 820
688 960
688 977
688 745
688 781
689 707
689 690
689 992
689 815
689 923
689 716
689 763
689 901
689 811
689 930
689 985
689 729
689 929
689 817
689 835
689 911
689 799
689 991
689 769
689 804
689 854
689 969
689 902
689 952
689 720
689 965
689 994
689 851
690 789
690 813
690 784
690 694
690 718
690 816
690 984
690 776
690 981
690 890
690 925
690 770
690 944
690 963
690 882
690 750
690 739
690 775
690 861
690 885
690 780
690 852
690 869
690 788
690 698
690 801
690 825
690 841
690 857
690 901
691 747
691 770
691 774
691 791
691 756
691 777
691 799
691 932
691 832
692 849
692 715
692 892
692 850
692 828
692 734
692 735
692 842
692 851
692 935
693 728
693 994
693 807
693 936
693 937
693 701
693 914
694 844
694 943
694 999
694 718
694 784
694 801
694 813
694 882
694 946
694 782
694 753
695 809
695 997
695 704
695 765
695 933
695 863
695 696
695 790
695 949
695 986
696 842
696 933
696 910
696 704
696 832
696 712
696 699
696 978
696 700
696 702
696 966
696 849
696 790
696 837
696 919
696 949
697 899
697 908
697 920
697 860
697 885
697 871
697 706
697 977
698 801
698 890
698 744
698 750
698 816
698 825
698 770
698 984
698 740
698 847
698 720
698 718
698 946
699 897
699 700
699 706
699 790
699 863
699 919
699 978
699 997
700 832
700 860
700 975
700 863
700 919
700 949
700 997
701 807
701 936
701 824
701 827
701 812
701 937
701 828
701 920
701 939
701 705
702 755
702 792
702 757
702 847
702 885
702 763
702 811
702 815
702 901
702 930
702 942
702 965
703 822
703 724
703 733
703 833
703 708
703 996
703 758
704 960
704 748
704 979
704 706
704 765
704 790
704 863
704 919
705 872
705 906
705 713
705 719
706 953
706 714
706 790
706 863
706 736
706 986
706 832
706 712
706 933
706 928
706 900
706 971
706 949
706 837
706 978
706 709
706 905
706 843
706 919
707 755
707 823
707 745
707 723
707 740
707 762
707 800
707 810
707 862
707 822
707 754
707 751
708 833
708 721
708 967
708 843
708 822
708 966
708 758
708 996
708 883
708 948
708 733
708 759
708 999
708 814
708 772
708 821
708 851
709 789
709 927
710 814
710 715
710 961
710 892
710 958
710 842
710 748
710 979
710 727
710 955
710 935
710 773
710 851
710 975
710 798
710 894
710 735
710 795
710 913
710 849
710 943
710 970
710 831
710 862
710 821
710 929
710 734
710 754
711 823
711 945
711 860
711 800
711 742
711 725
711 880
711 947
711 829
711 723
711 747
711 862
711 740
711 755
711 738
711 934
711 915
711 792
711 762
711 957
711 729
711 719
711 992
711 950
711 887
711 965
711 935
712 818
712 790
712 914
712 919
712 949
712 997
713 790
713 919
713 989
713 872
713 917
713 741
713 877
713 881
713 889
713 983
713 860
713 719
714 716
714 790
714 837
714 753
714 900
714 919
714 997
715 896
715 842
715 958
715 943
715 851
715 798
715 913
715 979
715 975
715 750
715 984
715 816
715 954
715 795
715 892
716 810
716 929
716 983
716 854
716 720
716 835
716 930
716 994
717 845
717 753
717 786
717 821
717 857
717 879
717 992
717 852
718 787
718 918
718 750
718 946
718 775
718 825
718 904
718 944
718 739
718 813
718 776
718 952
718 890
718 844
718 925
718 789
718 784
718 882
718 984
718 981
718 972
718 804
718 992
718 727
718 756
718 815
718 801
719 784
719 920
719 877
719 924
719 741
719 802
719 989
719 881
719 996
719 855
719 720
719 854
720 983
720 901
720 911
720 811
720 730
720 850
720 994
720 835
720 976
720 799
720 930
720 967
720 806
721 833
721 967
721 759
721 884
721 875
721 851
721 892
722 857
722 887
722 914
722 753
722 821
722 847
722 888
722 926
723 862
723 755
723 810
723 915
723 860
723 792
723 800
723 762
723 934
723 994
723 881
723 921
723 740
723 742
723 747
723 823
723 996
723 779
724 742
724 880
724 967
724 733
724 996
724 758
725 932
725 747
725 947
725 870
725 740
725 762
725 810
725 823
725 963
725 766
725 979
726 764
726 959
726 960
726 964
726 839
726 780
726 990
726 855
726 906
726 788
726 881
727 741
727 734
727 795
727 814
727 851
727 892
727 935
727 975
728 762
728 749
728 753
728 857
728 992
729 965
729 733
729 884
729 763
729 835
729 901
729 942
729 994
730 841
730 996
730 857
730 942
730 811
730 815
730 835
730 930
730 994
731 809
731 980
731 767
731 975
731 865
731 735
732 809
732 820
732 980
732 865
732 873
732 745
732 973
732 955
732 949
733 738
733 813
733 822
733 833
733 967
733 759
733 996
733 843
733 966
733 948
733 758
733 853
733 856
733 894
734 814
734 975
734 748
734 773
734 735
734 913
734 754
734 939
734 892
734 798
734 866
734 842
734 979
734 943
734 851
734 894
734 849
734 935
734 888
734 907
734 919
734 838
734 771
735 943
735 975
735 849
735 748
735 814
735 759
735 778
735 959
735 840
735 851
735 892
735 935
735 914
736 774
736 757
736 790
736 863
736 919
736 997
737 823
737 793
737 927
737 886
737 833
737 975
738 915
738 841
738 747
738 755
738 810
738 829
738 945
738 957
738 761
738 809
738 745
738 965
739 816
739 882
739 787
739 915
739 744
739 801
739 946
740 947
740 934
740 862
740 880
740 957
740 915
740 762
740 810
740 932
740 747
740 959
740 956
740 755
740 829
740 995
741 821
741 889
742 945
742 873
742 747
742 755
743 787
743 954
744 890
744 972
744 775
744 893
744 784
744 946
745 980
745 865
745 757
745 954
745 820
745 893
745 767
745 998
745 897
745 842
746 918
746 782
746 873
746 753
747 862
747 915
747 932
747 823
747 945
747 960
747 928
747 762
747 829
747 801
748 861
748 909
748 830
748 870
748 754
748 842
748 851
748 892
748 975
749 805
749 859
749 992
749 938
749 772
749 768
749 786
749 926
749 879
749 941
749 912
749 888
749 853
749 808
749 909
749 997
749 948
749 767
749 753
750 784
750 789
750 809
750 884
750 992
751 882
751 868
751 815
751 803
751 931
751 921
751 838
751 977
751 819
751 786
751 812
752 867
752 897
752 771
752 950
753 884
753 992
753 891
753 879
753 857
753 973
753 772
753 909
753 821
753 808
753 867
753 938
753 794
753 797
753 941
753 926
753 859
753 805
753 903
753 968
753 870
753 768
753 912
753 832
753 940
753 902
753 757
753 847
753 754
753 986
753 785
754 833
754 939
754 979
754 955
754 958
754 773
754 795
754 913
754 935
754 975
754 942
754 879
754 828
754 842
754 851
755 810
755 862
755 829
755 945
755 860
755 792
755 932
755 762
755 915
755 880
755 934
755 947
755 893
755 857
755 974
755 771
756 786
756 785
756 941
757 809
757 820
757 865
757 980
757 873
757 962
757 979
757 821
757 955
758 833
758 967
758 948
758 850
758 810
758 986
759 984
759 948
759 967
759 843
759 996
759 857
760 779
760 782
760 901
760 827
760 890
760 888
761 779
761 782
761 865
762 957
762 860
762 829
762 800
762 781
762 889
762 810
762 823
762 845
763 799
763 965
763 902
763 911
763 930
763 769
763 942
763 835
763 815
763 907
763 985
763 976
763 960
763 975
763 882
763 817
763 994
763 961
764 784
764 959
764 857
764 888
764 926
764 766
765 971
765 863
765 986
765 903
765 790
765 900
766 801
766 879
766 826
766 974
766 982
766 788
766 868
766 818
766 993
766 877
766 995
767 809
767 980
767 942
767 837
767 921
768 916
768 999
768 805
768 884
768 912
768 926
768 992
769 818
769 822
769 835
769 901
769 994
770 866
770 813
770 946
770 981
770 779
770 868
771 825
771 896
771 897
771 950
771 834
771 951
771 781
771 930
771 977
772 898
772 806
772 797
772 847
772 867
772 859
772 903
772 808
772 805
772 802
772 952
772 888
772 992
772 848
772 901
773 858
773 975
774 778
774 785
774 864
774 930
774 854
774 956
775 787
775 841
775 872
775 816
775 825
775 882
775 890
775 946
776 801
776 796
776 872
777 800
777 790
777 949
777 778
778 785
778 956
779 829
779 783
779 782
779 988
780 948
780 959
780 964
780 827
780 783
781 896
781 897
781 905
781 796
781 950
782 783
782 988
782 876
782 875
782 959
782 784
782 826
782 871
782 807
782 798
782 803
783 823
783 992
783 814
784 813
784 944
784 839
784 882
784 842
784 975
784 802
785 824
785 956
785 793
786 973
786 857
786 791
786 833
786 896
786 794
786 805
786 821
786 884
786 888
786 926
787 801
787 882
787 946
788 987
788 826
788 917
788 818
788 974
788 995
788 868
789 904
789 890
789 852
789 801
789 909
790 971
790 837
790 997
790 900
790 919
790 878
790 986
790 949
790 914
790 928
790 863
790 978
790 832
790 807
790 879
790 953
791 901
791 807
791 845
792 823
792 880
792 975
793 927
793 886
793 895
793 842
794 984
794 926
794 904
794 821
794 857
794 831
794 919
795 825
795 952
795 835
795 849
795 892
795 997
795 876
795 842
795 851
795 975
795 919
796 905
796 834
796 861
796 896
796 831
796 897
796 950
797 857
797 888
797 993
798 851
798 894
799 817
799 901
799 975
799 840
800 932
800 888
800 880
800 827
800 949
800 978
801 925
801 904
801 972
801 816
801 984
801 882
801 981
801 944
801 844
801 918
801 870
801 806
801 993
801 901
801 946
802 930
803 888
803 894
803 940
803 840
803 838
803 977
803 845
803 819
803 856
803 827
803 879
804 811
804 817
804 835
804 942
805 821
805 916
805 954
805 857
805 859
805 867
805 888
805 926
805 992
806 870
806 891
806 898
806 969
806 847
806 857
806 888
806 926
806 992
807 970
807 994
807 846
807 827
807 812
807 852
807 869
807 824
807 936
807 828
807 848
808 884
808 926
808 994
808 935
809 957
809 998
809 980
809 865
809 954
809 893
809 873
809 820
809 818
809 952
809 984
810 947
810 823
810 830
810 967
810 862
810 957
810 954
811 882
811 858
811 884
811 907
811 976
811 942
811 929
811 988
811 817
811 835
811 994
812 936
812 846
812 827
813 882
813 952
813 918
813 905
813 826
814 955
814 984
814 920
814 842
814 851
815 995
815 850
815 835
815 976
815 969
815 983
815 994
815 902
815 879
815 863
815 817
815 901
816 904
816 882
816 981
816 955
817 923
817 929
817 902
817 991
817 985
817 994
817 942
817 974
817 835
817 901
817 930
817 965
818 882
818 974
818 987
818 995
818 868
819 838
819 845
819 978
819 977
820 962
820 954
820 980
820 892
821 980
821 909
821 898
821 879
821 968
821 891
821 870
821 853
821 847
821 916
821 857
821 901
821 982
821 836
821 892
821 884
821 888
821 992
821 877
822 967
822 999
822 966
822 833
822 996
822 876
822 866
823 829
823 880
823 957
823 998
823 963
824 987
824 936
824 937
824 827
824 852
824 869
824 871
824 939
824 943
825 981
825 944
825 904
825 925
825 951
825 966
825 882
825 946
825 885
825 863
826 836
826 987
826 995
826 868
827 936
827 937
827 869
827 846
827 828
827 947
828 912
828 936
828 887
828 846
829 947
829 972
829 890
829 880
829 945
829 951
829 835
830 927
830 874
830 886
830 975
831 905
831 950
831 834
831 850
832 914
832 919
832 949
833 996
833 843
833 980
833 942
833 967
834 896
834 950
834 905
834 995
834 930
835 942
835 901
835 907
835 976
835 985
835 969
835 991
835 930
835 994
835 965
835 850
835 923
835 929
835 854
835 902
835 983
835 911
835 925
835 852
835 933
835 857
835 922
836 982
836 987
836 868
837 863
837 919
837 949
838 959
838 863
838 997
838 845
839 884
839 964
839 908
840 899
840 975
840 921
840 977
841 944
841 946
841 972
841 890
841 882
842 862
842 939
842 866
842 975
842 913
842 851
842 979
842 942
842 992
842 980
842 982
842 892
842 935
843 967
844 888
844 871
844 961
844 882
845 977
845 880
845 971
846 936
846 937
846 869
846 852
846 872
847 884
847 973
847 968
847 853
847 949
847 857
847 992
847 987
848 982
848 987
848 995
849 851
849 892
849 894
849 935
850 983
850 965
850 985
850 930
850 929
850 859
850 912
851 866
851 939
851 979
851 935
851 961
851 943
851 975
851 958
851 875
851 985
852 936
852 895
852 863
853 926
853 888
853 869
853 863
853 857
853 961
854 898
854 901
854 930
854 985
854 994
855 959
855 960
855 990
855 859
855 877
856 910
856 921
857 912
857 859
857 973
857 916
857 867
857 888
857 870
857 903
857 926
857 891
857 992
857 898
857 941
857 938
857 879
857 884
857 942
857 953
858 927
858 886
858 895
858 926
859 903
859 898
859 879
859 916
859 912
859 867
859 891
859 960
860 947
860 945
860 926
861 998
861 888
861 896
861 950
861 980
861 901
862 947
862 881
863 950
863 997
863 949
863 978
863 971
863 900
863 933
863 919
863 914
863 910
863 928
863 885
863 954
863 926
864 894
865 874
865 962
865 980
865 873
865 954
865 893
865 965
866 892
866 935
867 916
867 870
867 903
867 938
867 912
867 926
868 987
868 887
868 961
868 923
869 936
870 884
870 888
870 926
870 994
871 990
871 901
871 936
871 986
872 924
872 889
872 975
873 972
873 995
873 990
874 927
874 886
874 943
874 988
875 906
875 920
875 885
877 981
877 999
877 881
878 900
878 919
878 949
878 997
879 973
879 898
879 884
879 888
880 934
880 884
881 889
881 989
881 912
882 946
882 981
882 972
882 952
882 944
882 963
882 918
882 908
882 884
882 899
882 982
883 967
883 996
883 954
884 898
884 891
884 938
884 968
884 926
884 912
884 992
884 917
884 888
885 954
885 899
885 920
885 970
885 908
885 906
886 927
886 955
886 979
888 891
888 941
888 903
888 920
888 948
888 902
889 926
890 930
891 926
891 960
892 987
892 958
892 935
892 943
892 961
892 913
892 894
892 939
892 964
892 930
893 962
893 980
893 994
894 913
894 975
895 927
895 997
896 905
896 956
897 951
897 953
898 912
898 926
898 992
899 908
899 920
899 922
899 906
899 970
900 933
900 919
900 997
901 985
901 923
901 991
901 965
901 907
901 902
901 930
902 930
902 985
903 923
903 926
903 979
905 950
905 951
905 953
906 982
906 925
907 930
907 985
909 967
909 966
910 914
910 919
910 949
910 986
910 997
911 930
912 938
912 968
912 926
912 919
913 967
913 975
914 931
914 919
915 945
915 979
916 995
917 998
918 946
918 981
918 942
919 980
919 978
919 986
919 949
919 997
919 971
919 974
920 981
920 926
920 970
921 945
921 936
923 994
925 946
925 952
926 941
926 938
926 968
926 935
927 979
927 961
929 930
929 994
930 994
930 969
930 991
930 942
930 985
930 976
930 965
930 983
930 959
930 963
931 941
933 997
934 977
934 993
935 939
935 958
935 955
935 975
935 943
935 973
935 994
935 999
936 937
937 982
937 956
937 975
937 949
939 975
941 992
942 994
944 946
944 981
944 986
945 957
945 990
946 972
946 952
946 987
947 986
948 967
948 966
948 996
949 978
949 997
950 951
950 953
953 995
955 995
958 975
959 960
960 995
960 990
962 998
962 980
962 985
964 965
965 994
966 996
967 999
967 974
968 992
969 994
970 978
971 997
974 987
974 995
975 994
975 979
976 987
976 994
978 997
980 998
981 984
981 985
982 995
982 987
983 994
985 994
986 998
986 997
987 993
987 995
993 997
993 995
996 999
