0 773
0 317
0 551
0 965
0 748
0 80
0 727
0 337
0 230
0 238
0 51
0 927
0 448
0 7
0 533
0 543
0 66
0 68
0 420
0 677
0 170
0 981
0 240
0 239
0 831
0 995
0 440
0 989
0 527
1 179
1 725
1 92
1 873
1 987
1 57
1 837
1 415
1 597
1 194
1 786
1 818
1 430
1 825
1 741
1 49
1 593
1 103
1 615
1 116
1 636
1 640
1 783
1 293
1 848
1 599
1 827
1 77
1 487
1 104
1 730
1 481
1 524
1 502
1 111
1 560
1 815
2 492
2 873
2 716
2 57
2 848
2 49
2 336
2 141
2 593
2 242
2 931
2 952
2 755
2 91
2 861
2 643
2 48
2 71
2 597
2 92
2 636
2 648
2 150
2 739
2 253
2 267
2 293
2 809
2 864
2 694
2 599
2 572
2 671
2 385
2 454
2 291
2 439
2 932
3 267
3 388
3 705
3 18
3 212
3 773
3 39
3 952
3 428
3 540
3 856
3 463
3 258
3 494
3 161
3 639
3 757
3 699
3 203
3 775
3 136
3 621
3 34
3 478
3 467
3 127
3 628
3 531
3 766
3 685
3 771
3 142
3 879
3 173
3 777
3 227
3 514
3 691
3 883
3 169
3 235
3 704
3 44
3 891
3 423
3 643
3 892
3 797
3 638
3 209
3 867
3 978
3 955
3 12
3 644
3 803
3 916
3 767
3 646
3 926
3 320
3 559
3 693
3 687
3 662
3 429
3 465
3 40
3 253
3 683
3 547
3 183
3 612
3 27
3 566
3 490
3 424
3 842
3 370
3 135
3 870
3 58
3 33
3 162
3 468
3 347
3 41
3 980
3 226
3 453
3 150
3 285
3 888
3 359
3 686
3 898
3 360
3 680
3 737
3 965
3 726
3 526
3 420
3 98
3 155
3 829
3 839
4 127
4 407
4 112
4 908
4 468
4 902
4 354
4 85
4 658
4 106
4 359
4 901
4 400
4 128
4 802
4 178
4 733
4 527
4 7
4 781
4 227
4 516
4 364
4 54
4 580
4 340
4 852
4 870
5 57
5 715
5 848
5 611
5 726
5 677
5 68
5 66
5 727
5 303
5 473
5 719
5 697
5 75
5 933
5 361
5 626
5 168
5 556
5 959
5 617
5 764
5 121
5 612
5 350
5 661
5 107
5 526
5 546
5 80
5 99
5 980
5 281
5 836
5 176
5 855
5 438
5 54
5 93
5 819
6 40
6 716
6 360
6 669
6 969
6 102
6 138
6 730
6 559
6 582
6 385
6 418
6 263
6 132
6 925
6 438
6 878
6 525
6 598
6 980
6 303
6 485
6 620
6 268
6 270
6 27
6 43
6 56
6 577
6 726
6 748
6 495
6 46
7 192
7 783
7 529
7 41
7 553
7 255
7 104
7 567
7 683
7 53
7 981
7 157
7 182
7 66
7 697
7 647
7 827
7 325
7 871
7 290
7 76
7 268
7 512
7 305
7 736
7 533
7 534
7 67
7 99
7 677
7 684
7 949
7 240
7 239
7 284
7 576
8 777
8 497
8 338
8 884
8 477
8 335
8 360
8 619
8 994
8 869
8 865
8 615
8 342
8 55
8 114
8 642
8 9
8 529
8 73
8 599
8 135
8 146
8 708
8 724
8 243
8 795
8 827
8 406
8 190
8 461
8 569
9 606
9 116
9 897
9 869
9 41
9 406
9 483
9 26
9 345
9 204
9 994
9 767
9 790
9 724
9 976
9 603
9 795
9 215
9 749
9 183
9 570
9 959
9 367
9 931
9 135
9 474
9 301
9 488
9 529
9 599
9 360
9 295
9 536
9 736
9 343
9 197
9 272
9 146
9 771
9 342
9 245
9 209
9 710
9 193
9 722
9 383
9 895
9 327
9 413
9 697
9 34
9 55
9 779
9 403
9 968
9 309
9 550
9 68
9 472
9 734
9 388
9 866
9 712
9 452
9 385
9 109
9 243
9 466
9 177
9 732
9 374
9 246
9 386
9 992
9 205
9 836
9 769
9 315
10 615
10 372
10 415
10 335
10 582
10 354
10 56
10 82
10 199
10 842
10 220
10 252
10 251
10 740
10 823
10 471
10 356
10 340
10 544
10 558
10 931
10 989
10 273
10 955
10 878
10 751
10 81
10 93
10 819
10 957
11 588
11 253
11 821
11 219
11 948
11 532
11 693
11 587
11 574
11 919
11 669
11 434
11 384
11 792
11 38
11 360
11 371
11 639
11 688
11 952
11 518
11 541
11 552
11 561
11 572
11 77
11 95
11 717
11 255
11 813
11 421
11 462
11 824
11 348
11 373
11 386
11 263
11 450
11 544
11 560
11 176
11 398
11 30
11 838
12 341
12 514
12 775
12 44
12 18
12 898
12 639
12 135
12 191
12 330
12 863
12 985
12 621
12 685
12 699
12 705
12 463
12 229
12 230
12 757
12 462
12 517
12 417
12 548
12 719
13 494
13 529
13 159
13 586
13 454
13 992
13 524
13 53
13 240
13 844
13 171
13 533
13 741
13 99
13 949
13 239
13 697
13 170
13 752
13 451
13 456
13 303
13 485
13 543
13 546
13 558
13 684
13 683
13 460
13 751
13 420
13 980
13 241
13 807
13 545
13 32
13 75
13 68
13 945
13 650
13 766
13 550
13 41
13 760
13 496
13 865
13 250
13 296
13 339
13 721
13 789
13 923
13 919
13 903
13 628
13 557
13 59
13 144
13 938
13 216
13 387
13 964
13 646
13 988
13 512
13 49
13 601
13 66
13 642
13 659
13 835
13 913
14 15
14 640
14 372
14 183
14 519
14 552
14 408
14 219
14 908
14 489
14 119
14 211
14 922
14 302
14 437
14 532
14 561
14 55
14 572
14 574
14 623
14 693
14 283
14 686
14 375
14 932
14 444
15 918
15 49
15 92
15 804
15 482
15 179
15 636
15 648
15 784
15 593
15 650
15 597
15 192
15 753
15 168
15 232
15 176
15 437
15 100
15 659
15 91
15 57
15 267
15 293
15 848
15 372
15 494
15 26
15 216
15 616
15 61
15 439
15 581
15 114
15 838
15 852
15 346
15 81
15 740
15 471
16 636
16 644
16 519
16 624
16 670
16 159
16 354
16 373
16 515
16 632
16 748
16 836
16 94
16 946
16 439
16 774
16 649
16 237
16 517
16 17
16 257
16 340
16 443
16 523
17 542
17 552
17 572
17 693
17 969
17 104
17 47
17 632
17 558
17 68
17 522
17 858
17 988
17 82
17 20
17 819
17 310
17 829
17 950
17 957
18 253
18 775
18 883
18 955
18 898
18 161
18 867
18 773
18 173
18 494
18 638
18 797
18 694
18 127
18 478
18 621
18 258
18 879
18 531
18 699
18 39
18 142
18 514
18 403
18 675
18 420
18 837
18 861
18 557
18 590
18 585
18 715
18 164
18 96
18 442
18 925
18 665
18 578
18 151
18 423
18 203
18 463
18 757
18 26
18 480
18 567
18 353
18 28
18 569
18 859
18 443
18 459
18 681
19 354
19 264
19 65
19 90
19 612
19 233
19 495
19 654
19 120
19 105
19 100
19 974
19 128
19 27
19 28
19 43
19 56
19 63
19 577
19 726
19 228
19 535
20 705
20 869
20 188
20 967
20 949
20 697
20 245
20 305
20 937
20 424
20 162
20 403
20 830
20 676
20 733
20 401
20 244
20 689
20 271
20 185
20 711
20 549
20 581
20 974
20 719
20 748
20 561
20 640
20 609
20 81
20 575
20 701
20 40
20 647
20 734
20 428
20 535
20 148
20 155
20 687
20 696
20 220
20 855
20 435
20 440
20 172
20 913
21 532
21 175
21 363
21 369
21 754
21 658
21 977
21 834
21 779
21 489
21 798
21 555
21 677
21 572
21 735
21 622
21 642
21 357
21 544
21 134
21 140
21 817
21 46
21 254
22 621
22 821
22 96
22 82
22 134
22 656
22 682
22 583
22 224
22 315
22 884
22 287
22 627
22 46
22 580
22 254
22 257
22 801
22 340
22 443
22 503
22 564
23 664
23 739
23 319
23 577
23 533
23 170
23 83
23 456
23 782
23 673
23 45
23 125
23 560
23 590
23 743
23 66
23 337
23 240
23 176
23 746
23 823
23 950
24 593
24 112
24 894
24 102
24 125
24 555
24 373
24 417
24 965
24 263
24 264
24 268
24 524
24 470
24 223
24 812
24 413
24 523
24 722
24 917
24 298
24 43
24 56
24 63
24 320
24 577
24 231
24 622
24 221
24 281
24 257
24 168
25 150
25 706
25 894
25 187
25 753
25 857
25 91
25 887
25 110
25 278
25 118
25 872
25 900
25 645
25 551
25 796
25 133
25 899
25 943
25 309
25 469
25 987
25 598
25 611
25 102
25 104
25 151
25 670
25 159
25 722
25 799
25 352
25 369
25 393
25 921
25 534
25 398
25 403
25 852
26 645
26 529
26 295
26 243
26 718
26 360
26 338
26 959
26 931
26 367
26 135
26 50
26 204
26 994
26 603
26 536
26 789
26 570
26 724
26 345
26 504
26 426
26 301
26 477
26 938
26 483
26 869
26 272
26 183
26 474
26 897
26 810
26 790
26 708
26 553
26 72
26 743
26 884
26 950
26 820
26 690
26 36
26 784
26 349
26 621
26 558
26 458
26 878
26 832
26 595
26 316
26 614
26 533
26 865
26 849
26 480
26 39
26 857
26 934
26 826
26 282
26 778
26 695
26 722
26 619
26 795
26 673
26 177
26 908
26 617
26 936
26 386
26 263
26 842
26 975
26 696
26 876
26 957
27 775
27 177
27 151
27 246
27 263
27 264
27 268
27 524
27 130
27 612
27 501
27 764
27 465
27 774
27 65
27 63
27 701
27 28
27 748
27 457
27 970
27 210
27 87
27 726
27 43
27 255
27 622
27 175
27 100
27 138
27 773
27 386
27 720
27 902
27 990
27 209
27 137
27 539
27 975
27 302
27 737
27 733
27 907
27 298
27 577
27 113
27 632
27 495
27 420
27 213
27 812
27 340
28 406
28 616
28 669
28 218
28 841
28 374
28 586
28 386
28 997
28 515
28 264
28 268
28 726
28 458
28 524
28 38
28 205
28 56
28 748
28 90
28 612
28 562
28 62
28 728
28 579
28 138
28 804
28 589
28 596
28 401
28 852
28 556
28 448
28 998
28 106
28 199
28 901
28 667
28 576
28 491
28 298
28 43
28 63
28 320
28 577
28 70
28 210
28 495
28 949
28 834
28 734
28 403
29 74
29 636
29 519
29 275
29 551
29 264
29 222
29 134
29 523
29 71
29 868
29 624
29 293
29 81
29 143
29 237
29 292
29 819
29 310
29 865
30 92
30 639
30 302
30 515
30 677
30 133
30 199
30 835
30 963
30 322
30 503
30 399
30 311
30 105
30 522
30 334
30 878
30 573
30 251
30 889
30 990
30 732
30 833
30 54
30 314
30 838
30 852
30 346
30 355
30 443
30 712
31 57
31 573
31 540
31 423
31 529
31 335
31 118
31 369
31 508
31 144
31 354
31 571
31 418
31 821
31 669
31 666
31 650
31 862
31 245
31 449
31 671
31 656
31 37
31 559
31 58
31 582
31 874
31 373
31 386
31 965
31 546
31 622
31 329
31 876
32 725
32 793
32 536
32 216
32 35
32 717
32 521
32 374
32 323
32 320
32 533
32 534
32 99
32 420
32 240
32 239
32 134
32 329
32 292
33 561
33 104
33 626
33 188
33 413
33 171
33 239
33 689
33 682
33 165
33 696
33 52
33 421
33 661
33 218
33 925
33 464
33 141
33 571
33 485
33 145
33 687
33 208
33 244
33 438
33 998
33 592
34 258
34 775
34 766
34 704
34 883
34 705
34 227
34 952
34 324
34 44
34 685
34 229
34 757
34 532
34 880
34 915
34 614
34 281
34 528
34 641
34 120
34 479
34 643
34 136
34 169
34 463
34 795
34 302
34 861
34 386
34 202
35 92
35 636
35 929
35 519
35 532
35 487
35 112
35 813
35 327
35 589
35 671
35 408
35 973
35 623
35 909
35 709
35 344
35 604
35 905
35 277
35 886
35 986
35 283
35 578
35 833
35 666
35 255
35 908
35 226
35 262
35 634
35 326
35 248
35 624
35 969
35 924
35 387
35 468
35 587
35 446
35 733
35 118
35 124
35 584
35 667
35 811
35 660
35 121
35 303
35 753
35 280
35 745
35 627
35 553
35 740
35 286
35 54
35 336
35 773
35 699
35 809
35 222
35 230
35 975
35 116
35 561
35 55
35 763
35 299
35 159
35 872
35 551
35 524
35 170
35 120
35 443
36 415
36 777
36 619
36 872
36 369
36 90
36 834
36 82
36 975
36 769
36 590
36 290
36 174
36 447
36 695
36 59
36 376
36 888
36 345
36 928
36 50
36 291
36 52
36 148
36 687
36 696
36 714
36 859
37 645
37 899
37 965
37 417
37 792
37 188
37 379
37 786
37 922
37 454
37 678
37 288
37 45
37 323
37 925
37 404
37 996
37 571
37 519
37 158
37 324
37 90
37 789
37 788
37 131
37 880
37 221
37 350
37 419
37 673
37 890
37 550
37 551
37 582
37 630
37 200
37 348
37 954
37 684
37 698
37 719
37 575
37 180
37 742
37 676
38 117
38 604
38 363
38 515
38 264
38 268
38 524
38 465
38 774
38 764
38 484
38 528
38 253
38 954
38 776
38 178
38 449
38 773
38 836
38 640
38 101
38 717
38 684
38 43
38 63
38 577
38 85
38 726
38 495
38 575
38 94
38 435
38 580
39 184
39 848
39 415
39 771
39 775
39 879
39 374
39 147
39 793
39 268
39 808
39 71
39 621
39 628
39 388
39 169
39 767
39 604
39 851
39 51
39 353
39 386
39 633
39 86
39 714
39 641
39 292
39 820
40 588
40 432
40 253
40 650
40 793
40 60
40 715
40 216
40 145
40 301
40 339
40 49
40 97
40 615
40 116
40 636
40 688
40 293
40 809
40 848
40 880
40 372
40 415
40 978
40 702
40 499
40 45
40 571
40 76
40 792
40 528
40 422
40 257
40 443
40 375
40 926
41 92
41 296
41 492
41 856
41 529
41 474
41 43
41 877
41 748
41 581
41 312
41 553
41 599
41 135
41 708
41 335
41 959
41 976
41 77
41 124
41 66
41 178
41 155
41 438
41 284
41 285
41 346
42 593
42 166
42 864
42 705
42 624
42 693
42 546
42 222
42 686
42 201
42 172
42 745
42 713
42 839
42 379
42 177
42 640
42 583
42 792
42 900
42 669
42 182
42 616
42 143
43 166
43 604
43 118
43 159
43 365
43 263
43 524
43 380
43 765
43 726
43 562
43 528
43 612
43 458
43 515
43 69
43 56
43 217
43 70
43 113
43 231
43 465
43 47
43 506
43 132
43 501
43 600
43 875
43 90
43 87
43 632
43 84
43 268
43 548
43 654
43 970
43 764
43 233
43 728
43 85
43 298
43 851
43 643
43 855
43 729
43 783
43 267
43 690
43 430
43 993
43 605
43 675
43 272
43 751
43 160
43 401
43 341
43 776
43 392
43 880
43 236
43 583
43 248
43 186
43 720
43 590
43 965
43 293
43 358
43 667
43 530
43 588
43 302
43 66
43 838
43 63
43 320
43 577
43 210
43 748
43 642
43 653
43 213
43 46
43 581
44 92
44 253
44 848
44 775
44 531
44 540
44 797
44 803
44 952
44 235
44 258
44 704
44 229
44 388
44 892
44 691
44 895
44 495
44 280
44 119
44 508
44 918
44 476
44 424
44 289
44 122
44 439
44 422
44 867
44 639
44 463
44 209
44 757
44 519
44 654
44 988
44 321
45 737
45 962
45 454
45 491
45 333
45 816
45 567
45 418
45 787
45 61
45 547
45 903
45 353
45 899
45 720
45 464
45 649
45 188
45 965
45 559
45 678
45 954
45 660
45 594
45 490
45 88
45 379
45 156
45 923
45 820
45 495
45 883
45 931
45 205
45 506
45 262
45 949
45 724
45 754
45 151
45 945
45 449
45 697
45 248
45 51
45 186
45 786
45 348
45 417
45 84
45 239
46 783
46 356
46 771
46 142
46 717
46 612
46 233
46 269
46 82
46 120
46 322
46 583
46 443
46 259
46 993
46 314
46 331
46 346
46 105
46 513
46 827
46 390
46 240
46 713
46 663
46 115
46 701
46 418
46 136
46 334
46 863
46 254
46 257
46 279
46 284
46 340
46 870
46 503
46 479
47 49
47 536
47 736
47 55
47 574
47 894
47 487
47 188
47 515
47 263
47 264
47 528
47 282
47 163
47 62
47 63
47 90
47 495
47 98
47 416
47 438
47 439
47 257
47 340
47 950
48 608
48 729
48 242
48 150
48 716
48 442
48 783
48 378
48 253
48 871
48 141
48 432
48 57
48 117
48 267
48 166
48 650
48 881
48 189
48 366
48 597
48 864
48 92
48 595
48 356
48 293
48 471
48 737
48 968
48 613
48 398
48 856
48 480
48 711
48 121
48 140
48 850
48 463
48 77
48 395
48 258
48 638
48 764
48 720
48 71
48 636
48 664
48 184
48 739
48 848
48 469
48 354
48 874
48 373
48 742
48 831
48 687
48 59
49 650
49 71
49 150
49 267
49 881
49 802
49 492
49 458
49 429
49 969
49 711
49 600
49 661
49 57
49 593
49 97
49 615
49 116
49 636
49 242
49 848
49 619
49 532
49 670
49 851
49 481
49 524
49 155
49 957
50 648
50 725
50 242
50 426
50 767
50 109
50 488
50 718
50 529
50 204
50 991
50 497
50 959
50 73
50 414
50 827
50 301
50 313
50 485
50 255
50 945
50 62
50 470
50 880
50 697
50 153
50 245
50 278
50 121
50 183
50 215
50 243
50 795
50 810
50 360
50 466
50 477
50 532
50 283
50 611
50 862
50 397
50 250
50 68
50 99
50 171
50 949
50 731
50 140
50 251
51 97
51 478
51 959
51 693
51 547
51 550
51 555
51 491
51 816
51 847
51 96
51 953
51 76
51 874
51 365
51 930
51 992
51 288
51 404
51 582
51 417
51 323
51 532
51 915
51 73
51 906
51 282
51 112
51 508
51 320
51 781
51 366
51 499
51 960
51 677
51 568
51 567
51 188
51 737
51 353
51 354
51 954
51 264
51 577
51 86
51 101
51 838
52 67
52 337
52 949
52 133
52 228
52 64
52 186
52 447
52 266
52 755
52 689
52 714
52 398
52 438
52 355
52 479
53 578
53 275
53 782
53 534
53 337
53 486
53 752
53 727
53 75
53 545
53 936
53 965
53 878
53 65
53 606
53 898
53 750
53 421
53 66
53 99
53 677
53 684
53 949
53 240
53 239
53 201
53 979
53 252
53 581
53 852
54 918
54 709
54 889
54 363
54 287
54 847
54 291
54 544
54 734
54 592
54 928
54 870
54 982
54 993
54 370
54 447
54 394
54 513
54 503
54 495
54 800
54 772
54 500
54 931
54 408
54 321
54 138
54 378
54 345
54 965
54 301
54 874
54 581
54 257
54 284
54 801
54 314
54 322
54 852
54 443
55 648
55 972
55 561
55 666
55 226
55 408
55 671
55 262
55 894
55 496
55 948
55 283
55 813
55 326
55 669
55 344
55 616
55 519
55 794
55 973
55 589
55 893
55 587
55 64
55 940
55 103
55 551
55 171
55 629
55 491
55 625
55 678
55 879
55 822
55 471
55 966
55 609
55 963
55 988
55 330
55 572
55 108
55 702
55 763
55 559
55 186
55 903
55 56
55 281
55 79
55 201
55 934
55 990
55 865
55 957
56 664
56 570
56 100
56 559
56 263
56 264
56 524
56 270
56 63
56 268
56 726
56 69
56 210
56 548
56 62
56 465
56 765
56 205
56 600
56 875
56 728
56 380
56 320
56 65
56 506
56 750
56 457
56 970
56 577
56 217
56 85
56 537
56 61
56 670
56 919
56 521
56 836
56 799
56 204
56 658
56 594
56 178
56 897
56 480
56 189
56 463
56 822
56 213
56 568
56 182
56 312
56 828
56 614
56 800
56 748
56 495
56 337
56 949
56 584
56 119
56 140
56 176
56 842
56 975
56 193
57 871
57 918
57 636
57 881
57 593
57 880
57 442
57 615
57 648
57 987
57 117
57 640
57 492
57 873
57 71
57 366
57 608
57 602
57 469
57 864
57 166
57 415
57 116
57 242
57 588
57 784
57 664
57 372
57 804
57 793
57 585
57 184
57 92
57 802
57 189
57 336
57 482
57 850
57 155
57 406
57 619
57 903
57 497
57 407
57 377
57 898
57 658
57 294
57 190
57 599
57 467
57 907
57 584
57 613
57 541
57 702
57 765
57 978
57 157
57 374
57 387
57 945
57 552
57 97
57 129
57 739
57 293
57 848
57 147
57 841
57 369
57 792
57 847
57 772
57 703
57 290
57 581
58 253
58 802
58 931
58 248
58 480
58 550
58 705
58 887
58 282
58 269
58 267
58 199
58 582
58 188
58 200
58 246
58 348
58 354
58 385
58 954
58 965
58 967
58 726
58 772
58 834
58 895
58 581
58 93
59 757
59 529
59 919
59 446
59 431
59 291
59 228
59 163
59 331
59 993
59 400
59 316
59 371
59 982
59 280
59 580
59 581
59 346
59 80
59 834
59 882
59 479
59 510
59 75
59 750
59 545
59 793
59 948
59 263
59 288
59 908
59 592
59 285
59 314
59 340
59 870
60 442
60 341
60 725
60 74
60 588
60 987
60 103
60 242
60 881
60 972
60 688
60 158
60 645
60 602
60 650
60 837
60 117
60 715
60 626
60 722
60 755
60 565
60 814
60 625
60 226
60 474
60 208
60 190
60 899
60 943
60 630
60 585
60 593
60 92
60 608
60 615
60 129
60 648
60 184
60 809
60 372
60 540
60 604
60 446
60 234
60 799
60 559
60 534
60 68
60 719
60 111
60 806
60 443
60 93
60 865
61 203
61 708
61 299
61 953
61 605
61 287
61 358
61 464
61 555
61 663
61 418
61 999
61 188
61 407
61 583
61 540
61 763
61 285
61 848
61 181
61 755
61 582
61 144
61 186
61 200
61 723
61 737
61 348
61 874
61 373
61 120
62 348
62 515
62 263
62 264
62 270
62 970
62 251
62 545
62 286
62 812
62 309
62 706
62 577
62 632
62 210
62 495
62 834
62 836
62 674
62 963
63 469
63 891
63 197
63 630
63 268
63 69
63 750
63 380
63 506
63 70
63 264
63 774
63 298
63 84
63 728
63 458
63 764
63 701
63 524
63 90
63 612
63 132
63 87
63 875
63 130
63 270
63 548
63 126
63 527
63 733
63 440
63 162
63 311
63 177
63 894
63 310
63 694
63 481
63 857
63 974
63 203
63 781
63 931
63 776
63 246
63 556
63 941
63 906
63 777
63 334
63 710
63 566
63 577
63 210
63 726
63 495
63 534
63 677
63 838
63 876
64 848
64 372
64 498
64 625
64 753
64 845
64 369
64 630
64 188
64 992
64 298
64 748
64 622
64 674
64 163
64 696
64 818
64 855
64 977
64 581
64 254
64 314
64 838
64 340
64 852
64 346
64 870
65 648
65 372
65 775
65 428
65 243
65 234
65 263
65 264
65 268
65 524
65 270
65 215
65 577
65 632
65 205
65 210
65 726
65 748
65 520
65 509
65 101
65 134
65 689
65 946
65 254
65 778
66 789
66 799
66 782
66 303
66 171
66 844
66 543
66 558
66 149
66 451
66 420
66 683
66 456
66 99
66 473
66 533
66 182
66 157
66 949
66 170
66 68
66 445
66 67
66 751
66 75
66 698
66 980
66 546
66 470
66 241
66 502
66 697
66 83
66 460
66 719
66 80
66 239
66 534
66 240
66 968
66 677
66 933
66 614
66 72
66 429
66 324
66 294
66 482
66 498
66 194
66 784
66 307
66 255
66 174
66 286
66 795
66 369
66 141
66 338
66 668
66 113
66 632
66 278
66 935
66 906
66 120
66 491
66 591
66 671
66 570
66 582
66 841
66 952
66 982
66 680
66 838
66 684
66 520
66 269
66 291
66 544
66 768
66 285
66 801
67 664
67 253
67 918
67 775
67 529
67 919
67 100
67 630
67 200
67 723
67 970
67 782
67 502
67 241
67 873
67 368
67 489
67 742
67 405
67 628
67 882
67 853
67 887
67 75
67 99
67 170
67 949
67 980
67 981
67 240
67 239
67 560
67 852
67 355
67 292
67 932
68 884
68 561
68 299
68 921
68 365
68 533
68 470
68 157
68 741
68 502
68 337
68 543
68 182
68 460
68 558
68 241
68 526
68 485
68 171
68 751
68 473
68 557
68 93
68 369
68 475
68 396
68 547
68 608
68 206
68 770
68 651
68 619
68 85
68 179
68 829
68 687
68 353
68 170
68 684
68 949
68 980
68 240
68 544
68 911
68 665
69 187
69 373
69 481
69 264
69 524
69 298
69 484
69 487
69 310
69 351
69 477
69 175
69 122
69 113
69 632
69 726
69 748
69 495
69 805
70 532
70 515
70 263
70 268
70 298
70 320
70 548
70 612
70 728
70 458
70 174
70 134
70 98
70 929
70 95
70 184
70 769
70 995
70 181
70 85
70 632
70 726
70 337
70 734
71 117
71 595
71 871
71 122
71 382
71 192
71 415
71 141
71 650
71 593
71 366
71 881
71 876
71 689
71 530
71 751
71 991
71 305
71 825
71 385
71 691
71 455
71 74
71 92
71 640
71 648
71 739
71 253
71 372
71 771
71 795
71 175
71 317
71 386
71 970
71 981
71 94
71 800
71 435
71 257
72 848
72 856
72 891
72 757
72 529
72 407
72 772
72 669
72 922
72 649
72 302
72 599
72 708
72 215
72 749
72 243
72 827
72 466
72 994
72 862
72 386
72 999
72 264
72 945
72 176
72 322
72 870
72 443
73 615
73 739
73 529
73 994
73 536
73 206
73 749
73 619
73 466
73 743
73 789
73 497
73 295
73 504
73 215
73 414
73 407
73 291
73 112
73 94
73 912
73 447
73 519
73 554
73 787
73 547
73 427
73 390
73 546
73 603
73 708
73 795
73 810
73 869
73 360
73 477
73 598
73 792
73 362
73 683
73 858
73 78
73 247
74 929
74 648
74 382
74 987
74 650
74 341
74 442
74 314
74 450
74 656
74 494
74 670
74 593
74 595
74 92
74 615
74 640
74 688
74 864
74 356
74 372
74 773
74 519
74 578
74 623
74 550
74 660
74 119
74 269
74 101
74 503
75 628
75 532
75 187
75 730
75 967
75 726
75 526
75 533
75 534
75 949
75 546
75 502
75 543
75 782
75 99
75 981
75 547
75 978
75 86
75 357
75 454
75 611
75 436
75 955
75 885
75 506
75 771
75 568
75 707
75 387
75 677
75 240
75 239
75 199
75 989
75 601
75 523
75 479
76 92
76 97
76 636
76 366
76 104
76 559
76 965
76 305
76 431
76 377
76 134
76 246
76 319
76 348
76 354
76 874
76 418
76 481
76 263
76 241
76 240
76 254
76 675
77 879
77 699
77 519
77 532
77 541
77 561
77 574
77 843
77 266
77 889
77 634
77 255
77 616
77 492
77 602
77 192
77 518
77 238
77 788
77 332
77 871
77 177
77 232
77 763
77 299
77 510
77 104
77 577
77 632
77 522
77 633
77 163
77 310
78 283
78 487
78 89
78 411
78 831
78 440
78 371
78 839
78 912
78 228
78 999
78 114
78 257
78 340
78 870
78 876
78 429
78 479
79 253
79 994
79 273
79 348
79 386
79 726
79 651
79 544
79 560
79 637
79 498
79 649
79 720
79 492
79 702
79 456
79 86
79 134
79 176
79 199
79 817
79 329
79 975
79 662
79 398
79 438
79 443
79 576
79 237
79 471
80 232
80 151
80 333
80 930
80 997
80 534
80 545
80 697
80 752
80 157
80 241
80 303
80 485
80 557
80 163
80 472
80 799
80 536
80 552
80 960
80 855
80 388
80 267
80 337
80 99
80 949
80 980
80 239
80 581
80 254
80 314
80 340
81 92
81 109
81 264
81 748
81 622
81 734
81 832
81 527
81 576
81 564
81 315
81 865
81 641
81 311
81 916
81 114
81 117
81 386
81 563
81 558
81 299
81 280
81 159
81 740
81 237
81 957
82 197
82 810
82 108
82 351
82 353
82 365
82 560
82 776
82 961
82 214
82 289
82 835
82 944
82 888
82 700
82 631
82 934
82 917
82 181
82 140
82 659
82 734
82 261
82 958
82 94
82 904
82 191
82 817
82 591
82 863
82 554
82 674
82 568
82 854
82 569
82 106
82 154
82 911
82 410
82 686
82 511
82 610
82 500
82 652
82 890
82 228
82 637
82 974
82 167
82 798
82 931
82 403
82 122
82 340
82 530
82 813
82 543
82 117
82 959
82 639
82 481
82 187
82 350
82 467
82 802
82 565
82 254
82 678
82 898
82 237
82 684
82 750
82 775
82 715
82 133
82 176
82 842
82 244
82 852
82 740
83 388
83 644
83 598
83 609
83 190
83 782
83 534
83 194
83 983
83 191
83 471
83 101
83 99
83 949
83 698
83 240
83 239
83 689
83 438
83 399
84 692
84 813
84 851
84 847
84 264
84 268
84 298
84 320
84 577
84 179
84 708
84 913
84 894
84 88
84 632
84 495
84 314
84 865
84 479
85 169
85 515
85 268
85 270
85 320
85 577
85 600
85 217
85 233
85 728
85 461
85 889
85 842
85 242
85 564
85 148
85 865
85 354
85 641
85 726
85 748
85 560
85 738
85 256
85 331
86 757
86 448
86 730
86 851
86 555
86 170
86 544
86 560
86 181
86 214
86 422
86 289
86 960
86 793
86 658
86 526
86 915
86 421
86 843
86 296
86 623
86 101
86 201
86 734
86 835
86 329
86 975
86 340
87 837
87 699
87 753
87 874
87 418
87 965
87 999
87 264
87 268
87 524
87 270
87 320
87 632
87 210
87 726
87 748
87 495
87 575
87 817
87 443
87 237
88 602
88 609
88 611
88 670
88 550
88 551
88 582
88 333
88 454
88 365
88 408
88 91
88 883
88 93
88 399
88 471
88 455
88 605
88 660
88 200
88 246
88 323
88 847
88 354
88 362
88 385
88 386
88 954
88 992
88 481
88 491
88 502
88 505
88 201
88 769
88 172
88 254
88 285
88 819
89 92
89 615
89 216
89 795
89 283
89 384
89 124
89 234
89 799
89 596
89 287
89 718
89 504
89 698
89 180
89 611
89 102
89 110
89 670
89 730
89 862
89 393
89 930
89 999
89 257
90 206
90 153
90 164
90 936
90 997
90 264
90 268
90 524
90 298
90 320
90 577
90 726
90 480
90 744
90 731
90 808
90 305
90 998
90 352
90 607
90 124
90 821
90 615
90 748
90 438
90 120
90 449
91 531
91 671
91 472
91 419
91 670
91 104
91 849
91 123
91 394
91 657
91 430
91 161
91 502
91 307
91 102
91 647
91 151
91 159
91 187
91 730
91 732
91 753
91 799
91 369
91 431
91 981
91 560
91 932
92 593
92 116
92 432
92 382
92 141
92 492
92 341
92 739
92 293
92 336
92 585
92 158
92 784
92 645
92 972
92 378
92 122
92 129
92 242
92 706
92 783
92 184
92 482
92 837
92 606
92 716
92 392
92 267
92 871
92 778
92 259
92 255
92 865
92 285
92 96
92 760
92 673
92 162
92 99
92 687
92 218
92 248
92 410
92 477
92 854
92 418
92 991
92 664
92 848
92 372
92 644
92 343
92 763
92 187
92 732
92 419
92 246
92 953
92 263
92 686
92 700
92 438
92 870
93 326
93 369
93 393
93 807
93 895
93 244
93 438
93 471
93 655
93 712
93 805
93 315
93 932
93 829
93 675
93 223
93 839
93 762
93 479
93 523
93 926
93 429
93 850
93 102
93 870
93 456
93 469
93 621
93 308
93 737
93 999
93 402
93 266
93 293
93 834
93 455
93 501
93 387
93 819
93 375
93 957
94 879
94 142
94 749
94 519
94 255
94 200
94 560
94 904
94 944
94 568
94 656
94 888
94 569
94 958
94 652
94 700
94 106
94 430
94 422
94 344
94 189
94 760
94 859
94 852
94 735
94 283
94 429
94 474
94 632
94 882
94 101
94 140
94 176
94 835
94 329
94 975
94 435
94 471
95 242
95 694
95 463
95 532
95 821
95 693
95 973
95 624
95 327
95 655
95 403
95 882
95 599
95 211
95 370
95 108
95 266
95 275
95 283
95 299
95 969
95 722
95 816
95 861
95 874
95 386
95 965
95 495
95 657
95 509
95 220
95 346
96 648
96 477
96 160
96 551
96 559
96 520
96 600
96 512
96 515
96 511
96 200
96 874
96 385
96 992
96 268
96 627
96 934
96 855
97 588
97 593
97 802
97 166
97 645
97 158
97 141
97 837
97 122
97 706
97 871
97 573
97 366
97 392
97 192
97 307
97 783
97 253
97 648
97 848
97 873
97 636
97 809
97 664
97 972
97 784
97 840
97 804
97 725
97 715
97 469
97 688
97 575
97 696
97 343
97 663
97 948
97 722
97 124
97 578
97 239
97 401
97 611
97 438
97 531
97 846
97 856
97 380
97 997
97 720
97 705
97 805
97 583
97 609
97 739
97 242
97 267
97 230
97 896
97 234
97 697
97 544
97 148
97 165
97 852
98 784
98 763
98 521
98 559
98 298
98 484
98 748
98 485
98 522
98 618
98 988
98 276
98 779
98 507
98 213
98 657
98 878
98 357
98 658
98 414
98 669
98 819
98 526
98 447
98 209
98 586
98 646
98 192
98 257
98 177
98 180
98 221
98 269
98 281
98 836
98 714
99 795
99 669
99 954
99 303
99 683
99 933
99 543
99 486
99 485
99 460
99 752
99 741
99 157
99 170
99 782
99 761
99 473
99 239
99 182
99 949
99 844
99 526
99 534
99 420
99 981
99 533
99 240
99 727
99 558
99 451
99 677
99 224
99 745
99 462
99 326
99 124
99 641
99 648
99 771
99 455
99 344
99 334
99 904
99 575
99 437
99 919
99 814
99 629
99 162
99 797
99 662
99 822
99 666
99 528
99 872
99 630
99 532
99 560
99 380
99 149
99 684
99 980
99 835
99 237
100 880
100 565
100 882
100 647
100 872
100 493
100 613
100 187
100 596
100 753
100 862
100 369
100 409
100 110
100 302
100 611
100 841
100 236
100 305
100 353
100 170
100 779
100 816
100 396
100 733
100 553
100 372
100 106
100 104
100 151
100 680
100 730
100 799
100 851
100 391
100 605
100 373
100 772
100 560
100 975
101 636
101 623
101 630
101 772
101 629
101 591
101 817
101 960
101 261
101 389
101 631
101 368
101 115
101 738
101 979
101 700
101 656
101 776
101 169
101 208
101 967
101 385
101 724
101 679
101 810
101 957
101 409
101 742
101 844
101 108
101 413
101 637
101 176
101 703
101 201
101 835
102 378
102 609
102 611
102 124
102 273
102 107
102 921
102 626
102 369
102 140
102 206
102 436
102 695
102 797
102 387
102 625
102 118
102 151
102 190
102 732
102 799
102 318
102 851
102 936
102 431
102 690
102 200
102 246
102 965
102 420
102 677
102 712
103 593
103 442
103 636
103 784
103 392
103 840
103 809
103 140
103 187
103 286
103 923
103 426
103 969
103 615
103 640
103 253
103 356
103 463
103 991
103 623
103 914
103 510
103 730
103 799
103 862
103 454
103 524
103 916
103 155
103 237
104 739
104 540
104 709
104 598
104 611
104 851
104 799
104 377
104 236
104 121
104 234
104 411
104 710
104 480
104 824
104 364
104 921
104 138
104 374
104 857
104 151
104 110
104 679
104 722
104 472
104 508
104 369
104 985
104 626
104 317
104 278
104 825
104 845
104 107
104 493
104 872
104 118
104 755
104 391
104 521
104 409
104 625
104 125
104 900
104 153
104 753
104 431
104 862
104 936
104 190
104 618
104 868
104 425
104 244
104 289
104 756
104 805
104 943
104 320
104 180
104 167
104 569
104 695
104 714
104 463
104 281
104 723
104 649
104 557
104 147
104 771
104 707
104 568
104 787
104 123
104 850
104 718
104 226
104 375
104 294
104 656
104 647
104 670
104 680
104 630
104 385
104 534
104 420
104 170
104 213
104 734
104 998
104 120
104 819
105 229
105 299
105 915
105 539
105 954
105 970
105 980
105 509
105 975
105 148
105 687
105 689
105 580
105 581
105 120
105 284
105 322
105 838
105 340
105 852
105 870
105 443
106 648
106 192
106 326
106 198
106 526
106 261
106 843
106 986
106 316
106 413
106 801
106 176
106 842
106 815
106 740
106 237
106 429
107 415
107 147
107 669
107 596
107 609
107 450
107 250
107 257
107 643
107 612
107 118
107 151
107 670
107 159
107 160
107 190
107 730
107 755
107 273
107 862
107 369
107 902
107 393
107 411
107 997
107 533
107 534
107 133
107 265
107 280
108 423
108 494
108 146
108 519
108 532
108 552
108 561
108 565
108 579
108 616
108 914
108 112
108 487
108 969
108 574
108 384
108 326
108 390
108 572
108 669
108 379
108 521
108 460
108 198
108 724
108 723
108 529
108 593
108 887
108 566
108 345
108 862
108 888
108 177
108 194
108 709
108 763
108 255
108 299
108 921
108 186
108 632
108 734
108 557
108 641
108 745
108 819
109 127
109 529
109 553
109 599
109 619
109 869
109 301
109 736
109 295
109 884
109 504
109 976
109 897
109 204
109 215
109 206
109 174
109 647
109 355
109 380
109 325
109 286
109 377
109 219
109 785
109 633
109 700
109 691
109 197
109 790
109 795
109 406
109 994
109 153
109 582
109 792
109 348
109 457
109 698
109 238
109 814
109 381
110 643
110 521
110 611
110 825
110 596
110 730
110 900
110 625
110 153
110 887
110 349
110 971
110 609
110 332
110 317
110 369
110 846
110 956
110 363
110 151
110 539
110 236
110 224
110 234
110 634
110 916
110 139
110 980
110 321
110 438
110 817
110 416
110 573
110 305
110 815
110 682
110 918
110 743
110 355
110 765
110 558
110 266
110 519
110 670
110 159
110 187
110 799
110 851
110 397
110 188
110 353
110 637
110 564
110 143
111 597
111 117
111 729
111 840
111 790
111 561
111 124
111 137
111 273
111 264
111 575
111 622
111 274
111 834
111 304
111 977
111 910
111 657
111 334
111 742
111 123
111 522
111 357
111 456
111 685
111 346
111 625
111 385
111 309
111 861
111 621
111 944
111 646
111 964
111 935
111 867
111 938
111 222
111 878
111 988
111 505
111 911
111 257
112 809
112 519
112 561
112 572
112 384
112 843
112 589
112 973
112 283
112 468
112 512
112 532
112 574
112 909
112 702
112 421
112 499
112 634
112 813
112 893
112 604
112 275
112 969
112 673
112 299
112 743
112 974
112 545
112 699
112 852
112 701
112 360
112 383
112 392
112 419
112 635
112 720
112 442
112 138
112 540
112 608
112 669
112 177
112 219
112 763
112 255
112 266
112 908
112 487
112 841
112 186
112 149
112 988
112 440
112 993
112 310
113 275
113 515
113 263
113 264
113 577
113 132
113 654
113 495
113 130
113 701
113 728
113 645
113 147
113 557
113 507
113 902
113 920
113 202
113 843
113 678
113 316
113 632
113 380
113 205
113 210
113 231
113 214
113 398
113 257
113 838
113 870
113 819
114 267
114 230
114 295
114 487
114 670
114 851
114 348
114 298
114 170
114 651
114 988
114 859
114 314
114 592
114 785
114 834
114 693
114 273
114 855
114 148
114 568
114 189
114 143
114 998
114 731
114 138
114 254
114 322
114 838
114 870
115 372
115 694
115 146
115 255
115 125
115 374
115 200
115 358
115 907
115 988
115 560
115 569
115 591
115 201
115 842
115 148
115 211
116 593
116 615
116 664
116 392
116 585
116 382
116 880
116 918
116 640
116 469
116 848
116 648
116 972
116 150
116 793
116 366
116 802
116 853
116 422
116 638
116 856
116 516
116 134
116 502
116 405
116 574
116 257
116 262
116 816
116 456
116 636
116 739
116 372
116 954
116 997
116 618
116 700
116 284
117 588
117 595
117 602
117 608
117 615
117 597
117 871
117 469
117 442
117 876
117 836
117 457
117 761
117 143
117 233
117 640
117 648
117 739
117 848
117 372
117 463
117 553
117 532
117 617
117 741
117 145
118 892
118 766
118 789
118 283
118 862
118 517
118 670
118 121
118 956
118 278
118 151
118 159
118 971
118 393
118 472
118 753
118 613
118 273
118 409
118 841
118 374
118 760
118 799
118 431
118 332
118 480
118 680
118 849
118 647
118 936
118 611
118 598
118 872
118 190
118 364
118 845
118 160
118 887
118 661
118 369
118 224
118 985
118 395
118 319
118 798
118 486
118 150
118 306
118 314
118 856
118 246
118 149
118 817
118 130
118 509
118 636
118 534
118 812
118 379
118 919
118 260
118 295
118 320
118 281
118 217
118 803
118 386
118 922
118 532
118 951
118 685
118 794
118 558
118 722
118 317
118 363
118 726
118 569
118 842
118 155
118 322
118 564
119 561
119 747
119 992
119 524
119 530
119 221
119 433
119 286
119 831
119 213
119 853
119 772
119 178
119 633
119 977
119 505
119 916
119 274
119 900
119 697
119 846
119 796
119 399
119 198
119 122
119 244
119 938
119 904
119 929
119 963
119 281
119 836
119 878
119 988
119 438
119 322
119 503
120 585
120 608
120 219
120 190
120 851
120 701
120 544
120 145
120 220
120 744
120 601
120 901
120 346
120 314
120 832
120 695
120 247
120 306
120 359
120 966
120 801
120 592
120 459
120 538
120 785
120 128
120 284
120 438
120 682
120 514
120 846
120 542
120 951
120 428
120 570
120 350
120 530
120 415
120 373
120 468
120 627
120 362
120 673
120 800
120 323
120 280
120 322
120 340
120 852
120 870
120 443
120 249
121 129
121 341
121 643
121 272
121 611
121 264
121 666
121 670
121 187
121 218
121 755
121 799
121 841
121 369
121 737
121 524
121 968
121 522
121 381
121 998
121 870
122 615
122 871
122 809
122 158
122 382
122 539
122 231
122 787
122 578
122 379
122 706
122 267
122 848
122 372
122 469
122 209
122 507
122 340
122 503
122 471
123 724
123 232
123 582
123 481
123 473
123 575
123 254
123 197
123 224
123 456
123 640
123 131
123 651
123 213
123 269
123 281
123 812
123 836
123 858
123 895
123 817
123 733
123 361
124 802
124 864
124 469
124 639
124 708
124 255
124 319
124 269
124 828
124 452
124 730
124 799
124 841
124 872
124 936
124 348
124 485
124 131
124 292
125 797
125 708
125 609
125 611
125 626
125 397
125 936
125 318
125 363
125 841
125 680
125 374
125 273
125 411
125 788
125 598
125 130
125 886
125 458
125 422
125 443
125 720
125 385
125 311
125 634
125 306
125 151
125 187
125 730
125 872
125 246
125 170
125 505
125 290
125 819
126 561
126 616
126 498
126 726
126 520
126 152
126 811
126 937
126 809
126 215
126 871
126 986
126 393
126 281
126 834
126 425
126 682
126 427
126 346
126 292
126 819
127 615
127 797
127 621
127 891
127 892
127 203
127 777
127 142
127 711
127 543
127 405
127 387
127 639
127 643
127 644
127 161
127 757
127 295
127 426
127 408
127 294
127 334
127 238
127 322
127 805
128 189
128 739
128 893
128 397
128 188
128 524
128 286
128 814
128 434
128 345
128 772
128 337
128 804
128 254
128 778
128 322
128 838
128 340
129 593
129 595
129 615
129 469
129 880
129 293
129 179
129 597
129 366
129 650
129 361
129 810
129 440
129 850
129 501
129 955
129 523
129 648
129 739
129 253
129 267
129 864
129 356
129 372
129 639
129 169
129 736
129 938
129 986
129 465
129 558
129 949
129 460
129 878
129 220
129 815
130 529
130 226
130 385
130 515
130 264
130 268
130 298
130 726
130 495
130 684
130 949
130 239
130 213
130 714
130 220
130 635
130 819
131 837
131 848
131 797
131 790
131 722
131 132
131 782
131 622
131 906
131 584
131 178
131 779
131 276
131 834
131 877
131 339
131 972
131 783
131 486
131 875
131 803
131 501
131 665
131 781
131 183
131 451
131 840
131 657
131 221
131 286
131 836
131 858
131 878
131 988
131 744
131 346
131 713
132 519
132 755
132 264
132 524
132 320
132 231
132 962
132 574
132 216
132 300
132 341
132 195
132 210
132 748
132 495
132 240
132 180
132 806
132 340
132 870
133 848
133 777
133 147
133 219
133 862
133 264
133 213
133 505
133 560
133 853
133 206
133 485
133 209
133 134
133 176
133 201
133 842
133 422
133 975
133 439
133 838
133 913
134 757
134 147
134 763
134 661
134 333
134 748
134 698
134 505
134 556
134 329
134 591
134 140
134 176
134 734
134 890
134 979
134 944
134 191
134 656
134 261
134 817
134 917
134 659
134 808
134 228
134 516
134 776
134 544
134 911
134 674
134 500
134 637
134 652
134 842
134 430
134 347
134 368
134 703
134 566
134 835
134 560
134 888
134 958
134 201
134 353
134 370
134 402
134 218
134 873
134 792
134 957
134 622
134 753
134 166
134 673
134 388
134 571
134 997
134 250
134 724
134 682
134 811
134 887
134 567
134 278
134 954
134 645
134 932
134 695
134 376
134 826
134 495
134 576
135 619
135 743
135 343
135 793
135 284
135 514
135 934
135 898
135 733
135 708
135 216
135 243
135 789
135 795
135 810
135 827
135 335
135 869
135 406
135 477
135 532
135 138
135 273
135 851
135 872
135 342
135 239
135 817
135 975
135 778
136 809
136 867
136 621
136 898
136 531
136 883
136 978
136 184
136 474
136 961
136 137
136 835
136 989
136 169
136 705
136 463
136 209
136 230
136 494
136 851
136 786
136 861
136 954
136 465
136 741
136 610
137 478
137 351
137 151
137 862
137 364
137 857
137 160
137 431
137 236
137 521
137 841
137 722
137 730
137 970
137 720
137 955
137 681
137 485
137 510
137 558
137 424
137 465
137 187
137 710
137 732
137 273
137 363
137 369
137 393
137 686
137 682
138 608
138 296
138 599
138 474
138 908
138 377
138 319
138 547
138 510
138 982
138 151
138 159
138 160
138 722
138 730
138 273
138 799
138 317
138 369
138 333
138 953
138 534
138 148
138 769
138 592
138 819
139 640
139 797
139 348
139 941
139 949
139 975
139 865
139 932
139 668
139 745
139 926
139 564
139 211
139 850
139 429
139 471
139 840
139 787
139 411
139 794
139 682
139 165
139 723
139 516
139 263
139 559
139 586
139 281
139 373
139 712
139 237
139 950
140 519
140 277
140 794
140 753
140 351
140 369
140 954
140 949
140 727
140 772
140 988
140 569
140 917
140 422
140 228
140 960
140 888
140 368
140 975
140 560
140 544
140 201
140 329
140 734
140 214
140 631
140 979
140 703
140 961
140 556
140 321
140 566
140 629
140 700
140 181
140 835
140 191
140 738
140 219
140 428
140 320
140 316
140 639
140 844
140 732
140 802
140 200
140 572
140 948
140 567
140 654
140 756
140 524
140 849
140 379
140 345
140 195
140 951
140 209
140 850
140 986
140 947
140 185
140 416
140 994
140 176
140 817
140 842
140 911
140 963
140 946
140 838
141 615
141 192
141 784
141 729
141 929
141 963
141 516
141 833
141 965
141 900
141 699
141 354
141 688
141 739
141 253
141 372
141 415
141 541
141 624
141 672
141 683
141 221
141 989
142 585
142 258
142 771
142 775
142 797
142 621
142 643
142 388
142 828
142 715
142 700
142 903
142 699
142 463
142 757
142 288
142 501
142 533
143 184
143 793
143 704
143 795
143 616
143 730
143 876
143 249
143 745
143 932
143 707
143 315
143 635
143 168
143 805
143 950
143 211
143 865
143 712
143 348
143 840
143 997
143 443
143 808
143 889
143 677
143 341
143 280
143 321
143 581
143 956
143 388
143 473
143 655
143 668
143 156
143 237
143 292
143 819
143 375
144 529
144 669
144 567
144 630
144 997
144 413
144 386
144 903
144 720
144 250
144 586
144 376
144 182
144 617
144 289
144 932
144 457
144 264
144 785
144 348
144 373
144 954
144 967
144 992
144 241
144 817
144 814
144 583
144 993
145 593
145 716
145 372
145 994
145 187
145 755
145 239
145 835
145 940
145 396
145 935
145 401
145 951
145 759
145 873
145 441
145 860
145 923
145 799
145 877
145 772
145 795
145 740
145 687
145 220
145 523
145 675
145 429
146 615
146 382
146 643
146 529
146 603
146 991
146 426
146 931
146 215
146 301
146 767
146 261
146 467
146 184
146 177
146 617
146 263
146 844
146 708
146 243
146 795
146 869
146 360
146 414
146 833
146 225
146 264
146 612
146 980
146 403
146 801
146 346
147 519
147 561
147 574
147 908
147 262
147 709
147 819
147 669
147 219
147 299
147 843
147 365
147 270
147 748
147 289
147 687
147 928
148 487
148 317
148 348
148 885
148 481
148 210
148 546
148 622
148 830
148 951
148 238
148 590
148 290
148 769
148 167
148 381
148 518
148 758
148 927
148 721
148 305
148 416
148 815
148 943
148 676
148 256
148 989
148 814
148 220
148 174
148 946
148 387
148 996
148 841
148 272
148 790
148 166
148 528
148 385
148 578
148 527
148 669
148 177
148 471
148 463
148 492
148 887
148 675
148 609
148 155
148 682
148 689
148 696
148 435
148 601
148 926
149 230
149 598
149 722
149 358
149 782
149 533
149 534
149 807
149 968
149 502
149 684
149 170
149 761
149 303
149 945
149 445
149 844
149 473
149 751
149 558
149 697
149 486
149 240
149 840
149 771
149 584
149 794
149 865
149 850
149 734
149 778
149 625
149 469
149 474
149 932
149 613
149 309
149 550
149 316
149 677
149 719
149 239
149 329
149 911
149 254
149 805
150 585
150 593
150 615
150 640
150 648
150 873
150 595
150 837
150 267
150 192
150 706
150 804
150 300
150 728
150 490
150 445
150 347
150 368
150 496
150 465
150 917
150 664
150 715
150 739
150 307
150 848
150 864
150 372
150 345
150 693
150 255
150 670
150 317
150 393
150 723
150 348
150 677
150 240
150 291
150 155
150 576
150 932
151 843
151 986
151 539
151 611
151 788
151 613
151 625
151 332
151 626
151 409
151 900
151 164
151 971
151 753
151 352
151 921
151 596
151 862
151 224
151 351
151 872
151 508
151 190
151 391
151 647
151 760
151 273
151 419
151 851
151 393
151 985
151 377
151 218
151 317
151 236
151 857
151 679
151 799
151 493
151 357
151 663
151 414
151 313
151 510
151 866
151 399
151 305
151 477
151 833
151 931
151 576
151 619
151 199
151 220
151 389
151 774
151 838
151 448
151 751
151 193
151 972
151 775
151 916
151 455
151 607
151 481
151 819
151 432
151 500
151 314
151 624
151 565
151 670
151 187
151 451
151 659
151 961
151 975
151 265
151 762
152 573
152 209
152 206
152 275
152 843
152 660
152 949
152 698
152 530
152 575
152 657
152 505
152 184
152 716
152 544
152 946
152 163
152 423
152 611
152 857
152 825
152 221
152 269
152 281
152 834
152 988
152 509
152 314
152 310
153 477
153 541
153 579
153 919
153 611
153 679
153 377
153 902
153 814
153 962
153 466
153 897
153 230
153 984
153 187
153 851
153 369
153 393
153 431
153 683
153 560
153 265
153 435
153 601
153 564
154 810
154 909
154 205
154 199
154 904
154 979
154 181
154 492
154 647
154 517
154 613
154 761
154 322
154 176
154 911
154 963
154 163
154 832
155 519
155 550
155 342
155 965
155 240
155 502
155 830
155 489
155 195
155 439
155 396
155 265
155 440
155 711
155 984
155 518
155 174
155 416
155 859
155 721
155 822
155 696
155 935
155 682
155 733
155 940
155 855
155 744
155 305
155 758
155 687
155 244
155 252
155 937
155 290
155 989
155 435
155 798
155 381
155 402
155 829
155 446
155 766
155 606
155 692
155 666
155 647
155 212
155 985
155 213
155 955
155 639
155 799
155 997
155 301
155 232
155 934
155 723
155 361
155 432
155 310
155 809
155 165
155 714
155 438
156 593
156 602
156 952
156 539
156 748
156 575
156 257
156 340
156 668
156 635
156 723
156 937
156 878
156 235
156 383
156 540
156 669
156 368
156 713
156 211
156 740
156 819
156 829
156 860
156 375
156 932
156 957
157 366
157 673
157 680
157 317
157 862
157 393
157 533
157 534
157 543
157 420
157 677
157 949
157 980
157 727
157 240
157 239
157 520
157 178
157 221
157 895
157 509
157 176
157 682
157 689
157 249
158 593
158 602
158 636
158 640
158 664
158 438
158 649
158 882
158 883
158 293
158 848
158 341
158 372
158 730
158 874
158 506
158 968
158 239
158 507
158 199
158 814
158 538
158 870
159 864
159 283
159 948
159 539
159 611
159 788
159 377
159 493
159 857
159 985
159 971
159 480
159 900
159 626
159 218
159 224
159 374
159 349
159 872
159 364
159 160
159 799
159 732
159 317
159 187
159 730
159 508
159 517
159 175
159 680
159 234
159 887
159 846
159 482
159 207
159 747
159 188
159 182
159 612
159 238
159 834
159 676
159 826
159 336
159 898
159 940
159 701
159 474
159 186
159 945
159 184
159 590
159 589
159 933
159 523
159 806
159 302
159 841
159 369
159 874
159 268
159 584
159 339
159 191
159 876
160 915
160 730
160 902
160 546
160 810
160 898
160 928
160 788
160 862
160 363
160 369
160 920
160 314
160 735
161 775
161 540
161 643
161 691
161 694
161 227
161 867
161 388
161 902
161 652
161 283
161 934
161 662
161 511
161 304
161 169
161 699
161 203
161 209
161 757
161 730
161 755
161 674
161 199
161 381
162 593
162 708
162 994
162 552
162 813
162 200
162 286
162 339
162 646
162 975
162 435
162 322
162 712
162 211
162 957
163 242
163 809
163 341
163 532
163 266
163 487
163 481
163 534
163 240
163 817
163 798
163 662
163 935
163 946
163 815
163 557
163 811
163 560
163 978
163 605
163 269
163 970
163 463
163 544
163 185
163 220
163 244
163 855
163 438
163 172
163 292
163 932
164 406
164 521
164 670
164 395
164 351
164 380
164 631
164 954
164 842
164 190
164 722
164 730
164 851
164 393
164 473
164 878
164 829
165 644
165 173
165 426
165 512
165 532
165 299
165 630
165 188
165 263
165 185
165 940
165 714
165 946
165 245
165 557
165 639
165 369
165 986
165 762
165 530
165 213
165 524
165 834
165 606
165 347
165 682
165 696
165 220
165 855
165 435
165 440
166 615
166 640
166 664
166 881
166 851
166 596
166 480
166 192
166 739
166 848
166 372
166 611
166 672
166 420
166 329
166 689
166 471
167 929
167 777
167 978
167 536
167 232
167 187
167 921
167 663
167 385
167 954
167 281
167 498
167 279
167 389
167 369
167 687
167 696
167 220
167 252
167 855
167 381
167 438
167 254
168 258
168 603
168 578
168 354
168 210
168 443
168 525
168 641
168 300
168 527
168 237
168 675
168 740
168 665
168 819
168 292
168 471
168 746
168 850
168 251
168 712
168 816
168 643
168 944
168 376
168 481
168 705
168 669
168 698
168 232
168 845
168 835
168 550
168 661
168 308
168 666
168 233
168 278
168 681
168 829
168 865
168 957
169 593
169 615
169 650
169 775
169 324
169 639
169 423
169 230
169 892
169 621
169 258
169 209
169 803
169 978
169 644
169 428
169 227
169 883
169 777
169 362
169 301
169 629
169 493
169 740
169 351
169 509
169 828
169 277
169 414
169 908
169 624
169 406
169 658
169 694
169 705
169 463
169 611
169 874
169 515
169 651
170 621
170 879
170 463
170 596
170 753
170 551
170 365
170 515
170 210
170 782
170 534
170 240
170 470
170 451
170 677
170 945
170 473
170 456
170 303
170 171
170 304
170 314
170 678
170 941
170 576
170 290
170 691
170 610
170 922
170 839
170 361
170 412
170 939
170 369
170 873
170 949
170 980
170 727
170 220
170 440
170 989
170 852
170 346
170 805
171 593
171 869
171 579
171 268
171 533
171 534
171 337
171 649
171 881
171 493
171 967
171 785
171 570
171 980
171 240
171 239
171 214
171 852
172 573
172 215
172 417
172 967
172 997
172 210
172 622
172 281
172 513
172 346
172 581
172 947
172 250
172 775
172 689
172 477
172 870
172 829
173 540
173 891
173 644
173 423
173 388
173 531
173 494
173 515
173 487
173 578
173 584
173 837
173 691
173 699
173 757
173 959
173 794
173 936
173 953
173 632
173 642
173 975
173 714
173 443
174 345
174 899
174 726
174 560
174 835
174 329
174 535
174 682
174 514
174 735
174 882
174 656
174 896
174 211
174 696
174 398
174 439
174 740
175 773
175 388
175 749
175 598
175 617
175 670
175 369
175 825
175 900
175 284
175 523
175 993
175 233
175 722
175 753
175 317
175 352
175 393
175 411
175 936
175 431
175 551
175 780
175 858
175 544
176 593
176 595
176 775
176 426
176 262
176 510
176 661
176 690
176 200
176 264
176 268
176 632
176 339
176 560
176 566
176 368
176 652
176 569
176 629
176 960
176 201
176 958
176 646
176 516
176 556
176 674
176 261
176 863
176 686
176 734
176 808
176 890
176 191
176 228
176 817
176 738
176 329
176 214
176 511
176 975
176 410
176 544
176 554
176 568
176 562
176 719
176 204
176 209
176 461
176 683
176 907
176 833
176 246
176 933
176 490
176 555
176 850
176 778
176 991
176 219
176 350
176 651
176 407
176 229
176 654
176 919
176 283
176 590
176 287
176 707
176 259
176 446
176 372
176 722
176 932
176 842
176 422
176 759
176 601
176 340
177 372
177 406
177 512
177 519
177 532
177 541
177 552
177 572
177 587
177 623
177 973
177 893
177 282
177 866
177 634
177 277
177 864
177 899
177 197
177 695
177 856
177 672
177 966
177 341
177 938
177 595
177 746
177 717
177 299
177 326
177 487
177 319
177 289
177 769
177 870
178 267
178 243
178 624
178 232
178 670
178 753
178 520
178 251
178 793
178 690
178 349
178 291
178 334
178 878
178 988
178 911
178 696
178 859
178 581
179 615
179 636
179 640
179 648
179 918
179 755
179 854
179 966
179 744
179 197
179 715
179 739
179 253
179 372
179 415
179 749
179 348
179 533
179 274
179 759
180 948
180 468
180 454
180 231
180 651
180 642
180 276
180 742
180 575
180 281
180 730
180 643
180 572
180 447
180 247
180 242
180 221
180 269
180 831
180 858
180 357
180 505
181 483
181 866
181 332
181 845
181 349
181 786
181 348
181 354
181 684
181 291
181 808
181 979
181 554
181 643
181 711
181 383
181 491
181 469
181 498
181 752
181 397
181 742
181 194
181 704
181 660
181 199
181 329
181 842
181 422
181 525
182 645
182 706
182 790
182 519
182 552
182 669
182 670
182 902
182 559
182 264
182 533
182 420
182 684
182 949
182 240
182 560
182 244
182 314
182 740
183 423
183 426
183 197
183 335
183 790
183 923
183 884
183 474
183 216
183 406
183 570
183 708
183 504
183 434
183 252
183 376
183 371
183 955
183 207
183 605
183 250
183 709
183 891
183 403
183 219
183 780
183 786
183 922
183 967
183 949
183 878
183 557
183 245
183 865
184 573
184 615
184 636
184 648
184 382
184 366
184 606
184 784
184 848
184 809
184 482
184 664
184 793
184 929
184 585
184 367
184 770
184 942
184 604
184 288
184 947
184 600
184 844
184 496
184 692
184 260
184 715
184 739
184 267
184 783
184 864
184 972
184 529
184 234
184 953
184 240
184 357
184 988
184 700
184 340
184 865
185 255
185 559
185 772
185 286
185 682
185 297
185 290
185 689
185 851
185 311
185 915
185 400
185 817
185 921
185 532
185 898
185 714
185 398
185 435
185 438
185 791
185 279
185 681
185 865
186 551
186 559
186 582
186 386
186 404
186 965
186 491
186 663
186 547
186 594
186 323
186 660
186 319
186 362
186 198
186 954
186 250
186 789
186 512
186 844
186 346
186 326
186 339
186 738
186 251
186 763
186 505
186 188
186 348
186 454
186 727
186 443
186 237
186 292
187 848
187 955
187 757
187 521
187 611
187 617
187 661
187 670
187 845
187 351
187 419
187 391
187 983
187 539
187 956
187 369
187 921
187 508
187 472
187 760
187 278
187 857
187 753
187 775
187 221
187 721
187 821
187 899
187 961
187 274
187 319
187 509
187 795
187 583
187 973
187 779
187 223
187 866
187 541
187 991
187 427
187 710
187 851
187 363
187 374
187 397
187 822
188 378
188 803
188 512
188 896
188 670
188 551
188 559
188 660
188 678
188 903
188 874
188 780
188 404
188 630
188 418
188 464
188 358
188 348
188 663
188 453
188 992
188 787
188 225
188 386
188 309
188 996
188 365
188 614
188 709
188 521
188 462
188 770
188 877
188 960
188 237
188 269
188 286
188 407
188 796
188 397
188 579
188 665
188 200
188 287
188 954
188 481
188 726
188 534
188 451
188 637
188 389
188 523
188 865
188 950
189 593
189 640
189 648
189 664
189 615
189 729
189 379
189 740
189 785
189 565
189 605
189 253
189 267
189 784
189 864
189 625
189 515
189 270
189 988
189 817
189 911
190 664
190 540
190 621
190 883
190 343
190 517
190 539
190 670
190 679
190 431
190 598
190 397
190 364
190 862
190 351
190 204
190 231
190 754
190 691
190 715
190 741
190 790
190 822
190 757
190 955
190 276
190 867
190 730
190 753
190 369
190 374
190 391
190 723
190 386
190 454
190 878
190 696
190 957
191 619
191 717
191 710
191 885
191 954
191 560
191 950
191 935
191 697
191 529
191 726
191 745
191 900
191 329
191 842
191 911
191 682
191 257
191 778
192 615
192 640
192 648
192 378
192 392
192 307
192 874
192 984
192 323
192 504
192 533
192 611
192 729
192 739
192 253
192 848
192 864
192 356
192 372
192 415
192 406
192 669
192 582
192 949
192 530
192 592
192 254
192 322
192 394
192 993
192 668
193 976
193 541
193 317
193 551
193 660
193 287
193 502
193 286
193 801
193 410
193 211
193 829
193 375
193 932
193 957
194 643
194 795
194 532
194 578
194 693
194 702
194 574
194 886
194 412
194 999
194 286
194 526
194 413
194 227
194 717
194 763
194 255
194 446
194 369
194 365
194 577
194 878
194 988
194 398
194 322
194 838
194 459
195 739
195 730
195 851
195 363
195 411
195 422
195 682
195 689
195 223
195 341
195 606
195 220
195 244
195 381
195 435
195 438
196 743
196 611
196 520
196 522
196 651
196 461
196 455
196 579
196 512
196 838
196 855
196 707
196 731
196 221
196 836
196 988
196 509
196 220
196 865
197 529
197 708
197 884
197 767
197 301
197 790
197 931
197 477
197 789
197 795
197 869
197 603
197 724
197 483
197 505
197 650
197 349
197 403
197 323
197 906
197 829
197 818
197 891
197 871
197 718
197 243
197 360
197 414
197 994
197 623
197 219
197 275
197 695
197 932
198 864
198 531
198 360
198 255
198 948
198 369
198 374
198 551
198 567
198 582
198 586
198 362
198 956
198 257
198 561
198 984
198 518
198 272
198 878
198 684
198 919
198 200
198 246
198 353
198 941
198 761
198 286
198 870
199 478
199 969
199 544
199 560
199 738
199 890
199 631
199 979
199 700
199 961
199 848
199 420
199 933
199 543
199 209
199 668
199 817
199 842
199 911
199 435
199 449
199 641
200 699
200 869
200 349
200 490
200 967
200 997
200 780
200 453
200 962
200 454
200 563
200 323
200 348
200 308
200 412
200 941
200 582
200 354
200 953
200 907
200 678
200 786
200 319
200 737
200 954
200 405
200 912
200 547
200 379
200 690
200 885
200 667
200 630
200 559
200 999
200 287
200 847
200 358
200 250
200 373
200 925
200 567
200 672
200 687
200 878
200 536
200 281
200 696
200 936
200 495
200 949
200 635
200 445
200 838
200 421
200 639
200 305
200 629
200 671
200 462
200 754
200 209
200 606
200 927
200 961
200 676
200 480
200 531
200 585
200 203
200 246
200 365
200 418
200 481
200 560
201 393
201 491
201 632
201 560
201 944
201 734
201 554
201 700
201 511
201 214
201 703
201 659
201 566
201 652
201 888
201 817
201 854
201 627
201 610
201 631
201 961
201 544
201 468
201 736
201 542
201 346
201 331
201 964
201 256
201 226
201 625
201 950
201 978
201 986
201 997
201 897
201 644
201 386
201 842
201 911
201 934
202 795
202 572
202 266
202 487
202 670
202 224
202 882
202 582
202 988
202 828
202 778
202 314
202 475
202 434
202 262
202 395
202 535
202 967
202 919
202 519
202 618
202 254
202 279
202 838
202 340
202 346
202 870
203 258
203 775
203 388
203 856
203 644
203 230
203 803
203 588
203 968
203 539
203 708
203 484
203 692
203 463
203 209
203 757
203 477
203 299
203 517
203 431
203 992
203 600
203 632
203 509
203 876
204 253
204 784
204 694
204 207
204 629
204 649
204 224
204 999
204 789
204 406
204 414
204 799
204 719
204 852
205 804
205 880
205 333
205 264
205 268
205 298
205 320
205 577
205 970
205 319
205 362
205 286
205 729
205 473
205 366
205 741
205 456
205 210
205 495
205 949
205 653
206 492
206 621
206 553
206 599
206 477
206 367
206 804
206 875
206 780
206 694
206 243
206 795
206 335
206 869
206 360
206 994
206 363
206 288
206 954
206 774
206 977
206 988
206 863
207 598
207 788
207 320
207 495
207 916
207 560
207 998
207 713
207 336
207 411
207 536
207 599
207 292
207 819
207 932
207 957
208 299
208 487
208 851
208 956
208 320
208 748
208 274
208 286
208 696
208 714
208 245
208 396
208 711
208 265
208 733
208 416
208 770
208 417
208 501
208 341
208 893
208 349
208 877
208 651
208 262
208 736
208 296
208 503
208 606
208 887
208 761
208 220
208 435
208 438
209 739
209 372
209 771
209 540
209 643
209 644
209 685
209 638
209 258
209 324
209 621
209 892
209 856
209 514
209 467
209 227
209 757
209 766
209 803
209 428
209 797
209 898
209 978
209 230
209 494
209 691
209 229
209 595
209 370
209 910
209 523
209 277
209 300
209 213
209 604
209 847
209 974
209 590
209 311
209 984
209 532
209 998
209 869
209 619
209 931
209 689
209 809
209 462
209 318
209 920
209 682
209 306
210 848
210 749
210 732
210 363
210 418
210 264
210 524
210 562
210 484
210 457
210 875
210 774
210 748
210 458
210 465
210 231
210 726
210 600
210 268
210 320
210 701
210 728
210 577
210 942
210 469
210 682
210 398
210 676
210 660
210 417
210 274
210 517
210 772
210 671
210 651
210 479
210 357
210 624
210 752
210 428
210 476
210 878
210 221
210 269
210 990
210 876
211 448
211 730
211 753
211 550
211 323
211 533
211 576
211 641
211 525
211 310
211 785
211 943
211 603
211 467
211 869
211 716
211 309
211 272
211 433
211 292
211 819
211 865
211 375
211 932
212 775
212 639
212 643
212 423
212 691
212 705
212 978
212 322
212 284
212 341
212 505
212 844
212 494
212 529
212 335
212 393
212 980
212 240
212 228
212 340
212 876
212 957
213 608
213 639
213 718
213 421
213 234
213 849
213 263
213 264
213 268
213 726
213 653
213 633
213 858
213 772
213 851
213 238
213 796
213 331
213 325
213 869
213 272
213 731
213 269
213 834
213 878
213 988
213 505
213 509
213 835
213 581
213 778
213 665
214 648
214 706
214 783
214 793
214 589
214 277
214 919
214 369
214 547
214 874
214 386
214 418
214 651
214 560
214 619
214 733
214 313
214 495
214 761
214 923
214 871
214 974
214 576
214 734
214 329
214 842
214 682
214 438
214 580
214 838
215 664
215 341
215 356
215 372
215 599
215 603
215 724
215 345
215 414
215 508
215 562
215 894
215 720
215 537
215 410
215 722
215 306
215 709
215 795
215 693
215 799
215 582
215 319
215 417
215 657
215 878
215 911
216 636
216 258
216 529
216 708
216 497
216 406
216 743
216 367
216 488
216 553
216 414
216 243
216 430
216 324
216 641
216 219
216 436
216 974
216 694
216 559
216 795
216 407
216 477
216 994
216 532
216 578
216 889
216 774
216 289
216 823
217 691
217 572
217 849
217 354
217 413
217 515
217 264
217 268
217 298
217 320
217 726
217 231
217 495
217 980
217 291
217 988
217 306
217 838
217 375
218 542
218 611
218 722
218 857
218 374
218 369
218 508
218 411
218 609
218 710
218 236
218 517
218 539
218 596
218 630
218 242
218 443
218 259
218 550
218 881
218 454
218 553
218 683
218 737
218 311
218 234
218 872
218 431
218 723
218 780
218 949
218 222
218 817
218 859
218 839
219 492
219 797
219 542
219 561
219 578
219 579
219 587
219 624
219 669
219 673
219 604
219 248
219 499
219 434
219 623
219 327
219 702
219 589
219 634
219 794
219 914
219 384
219 496
219 341
219 521
219 334
219 515
219 347
219 453
219 253
219 511
219 786
219 553
219 372
219 353
219 651
219 974
219 846
219 644
219 921
219 747
219 255
219 909
219 915
219 487
219 571
219 269
219 682
219 714
219 822
219 346
220 477
220 781
220 246
220 569
220 687
220 403
220 758
220 401
220 989
220 946
220 256
220 822
220 814
220 313
220 305
220 721
220 943
220 682
220 798
220 759
220 927
220 396
220 535
220 714
220 770
220 676
220 756
220 937
220 998
220 796
220 537
220 857
220 828
220 411
220 576
220 782
220 472
220 423
220 619
220 914
220 379
220 745
220 752
220 793
220 861
220 286
220 229
220 282
220 446
220 920
220 733
220 244
220 815
220 855
220 438
220 768
220 870
221 775
221 574
221 670
221 419
221 651
221 657
221 731
221 811
221 461
221 350
221 274
221 575
221 276
221 222
221 294
221 910
221 281
221 320
221 361
221 364
221 900
221 968
221 624
221 445
221 738
221 979
221 678
221 266
221 636
221 434
221 609
221 269
221 831
221 858
221 878
221 988
221 507
221 744
221 398
221 740
222 648
222 336
222 623
222 634
222 609
222 680
222 273
222 240
222 575
222 653
222 304
222 858
222 831
222 771
222 851
222 329
222 803
222 921
222 313
222 965
222 281
222 836
222 920
222 988
222 505
222 566
222 979
222 439
222 314
222 292
223 955
223 338
223 799
223 349
223 323
223 418
223 481
223 286
223 769
223 525
223 712
223 428
223 314
223 906
223 421
223 973
223 582
223 442
223 292
223 823
223 932
224 529
224 647
224 670
224 730
224 613
224 862
224 722
224 409
224 755
224 517
224 391
224 710
224 985
224 869
224 239
224 350
224 706
224 578
224 699
224 360
224 488
224 496
224 281
224 959
224 534
224 913
224 317
224 318
224 851
224 363
224 374
224 411
224 348
224 495
224 610
224 328
224 801
225 415
225 991
225 611
225 670
225 551
225 559
225 582
225 630
225 663
225 904
225 452
225 792
225 348
225 874
225 385
225 417
225 954
225 949
225 836
225 878
225 939
225 740
225 957
226 771
226 512
226 574
226 579
226 693
226 974
226 766
226 426
226 590
226 255
226 986
226 487
226 510
226 963
227 514
227 258
227 531
227 644
227 423
227 694
227 699
227 463
227 344
227 448
227 230
227 301
227 680
227 663
227 240
227 554
227 265
227 576
227 655
227 713
227 865
228 521
228 539
228 647
228 555
228 417
228 263
228 534
228 734
228 659
228 261
228 622
228 895
228 732
228 794
228 789
228 329
228 842
228 911
228 830
228 870
229 771
229 777
229 643
229 388
229 705
229 879
229 258
229 419
229 616
229 666
229 415
229 549
229 924
229 708
229 414
229 369
229 508
229 550
229 333
229 558
229 811
229 438
230 773
230 540
230 621
230 892
230 639
230 478
230 644
230 694
230 705
230 879
230 775
230 235
230 428
230 638
230 766
230 388
230 891
230 797
230 894
230 930
230 312
230 373
230 548
230 962
230 763
230 396
230 989
230 434
230 715
230 820
230 786
230 749
230 757
230 709
230 358
230 524
230 460
230 622
230 817
230 676
230 435
230 839
231 299
231 369
231 319
231 515
231 774
231 264
231 524
231 577
231 632
231 726
231 465
231 612
231 528
231 495
231 548
231 701
231 270
231 728
231 260
231 581
231 954
231 261
231 731
231 621
231 541
231 599
231 340
231 826
231 312
231 758
231 430
231 538
231 511
231 812
231 561
231 748
231 622
231 842
231 975
231 778
231 346
232 415
232 519
232 532
232 572
232 616
232 666
232 669
232 702
232 498
232 448
232 821
232 589
232 305
232 613
232 910
232 995
232 629
232 449
232 747
232 255
232 909
232 487
232 348
232 373
232 524
232 544
232 435
233 356
233 578
233 747
233 921
233 417
233 263
233 264
233 524
233 270
233 298
233 577
233 319
233 748
233 665
234 621
234 517
234 670
234 730
234 236
234 351
234 753
234 508
234 788
234 882
234 419
234 278
234 596
234 939
234 471
234 877
234 901
234 394
234 787
234 554
234 799
234 431
234 547
234 999
235 588
235 771
235 621
235 643
235 694
235 699
235 463
235 584
235 905
235 494
235 483
235 519
235 788
235 872
235 560
235 682
235 815
235 855
235 346
236 795
236 565
236 589
236 709
236 598
236 730
236 732
236 446
236 600
236 319
236 788
236 799
236 369
236 393
236 397
236 858
236 560
236 842
236 438
236 913
236 707
237 415
237 621
237 478
237 462
237 841
237 902
237 419
237 605
237 385
237 954
237 329
237 842
237 361
237 675
237 839
237 819
237 707
237 249
237 860
237 932
237 735
237 527
237 576
237 479
237 745
237 926
237 366
237 756
237 376
237 509
237 878
237 543
237 990
237 581
237 501
237 688
237 465
237 572
237 817
237 777
237 657
237 377
237 829
238 537
238 943
238 689
238 798
238 687
238 662
238 297
238 770
238 976
238 483
238 762
238 324
238 293
238 806
238 855
238 435
238 438
238 440
238 998
238 655
238 865
239 611
239 534
239 546
239 684
239 949
239 240
239 485
239 782
239 683
239 526
239 761
239 698
239 543
239 502
239 456
239 752
239 545
239 933
239 460
239 470
239 929
239 600
239 560
239 359
239 328
239 419
239 421
239 392
239 829
239 518
239 381
239 311
239 676
239 345
239 524
239 285
239 300
239 446
239 926
239 517
239 601
239 870
239 641
240 547
240 246
240 524
240 577
240 526
240 534
240 543
240 684
240 949
240 980
240 727
240 420
240 473
240 470
240 807
240 614
240 968
240 981
240 445
240 933
240 460
240 502
240 752
240 337
240 741
240 451
240 719
240 761
240 546
240 486
240 698
240 945
240 303
240 751
240 564
240 721
240 643
240 690
240 961
240 492
240 504
240 571
240 886
240 620
240 940
240 587
240 726
240 520
240 311
240 465
240 853
240 294
240 374
240 976
240 778
240 343
240 626
240 518
240 885
240 453
240 835
240 878
240 744
240 435
240 440
240 870
241 253
241 837
241 341
241 643
241 250
241 726
241 949
241 981
241 531
241 482
241 670
241 350
241 398
241 819
242 615
242 640
242 739
242 597
242 573
242 664
242 725
242 716
242 871
242 336
242 253
242 972
242 307
242 954
242 365
242 494
242 350
242 460
242 652
242 281
242 531
242 622
242 564
242 441
242 267
242 783
242 864
242 737
242 748
242 814
242 822
242 681
242 251
243 809
243 864
243 529
243 736
243 959
243 789
243 414
243 504
243 619
243 897
243 708
243 272
243 360
243 827
243 767
243 931
243 406
243 790
243 367
243 345
243 338
243 976
243 426
243 810
243 553
243 295
243 938
243 343
243 884
243 545
243 623
243 686
243 263
243 292
243 401
243 741
243 315
243 620
243 837
243 293
243 549
243 569
243 979
243 328
243 431
243 887
243 253
243 269
243 886
243 958
243 333
243 818
243 947
243 429
243 795
243 994
243 781
243 598
243 670
243 411
243 726
243 733
243 435
243 361
243 503
243 950
244 739
244 669
244 693
244 702
244 577
244 658
244 682
244 696
244 796
244 535
244 711
244 759
244 859
244 439
244 489
244 590
244 769
244 313
244 733
244 290
244 855
244 435
244 557
244 438
244 616
244 503
244 928
244 347
244 930
244 631
244 316
244 422
244 546
244 864
244 587
244 476
244 959
244 799
244 564
244 660
244 371
244 871
244 381
245 603
245 255
245 611
245 678
245 348
245 380
245 779
245 811
245 443
245 303
245 381
245 791
245 576
246 639
246 551
246 559
246 582
246 630
246 737
246 309
246 997
246 861
246 353
246 649
246 780
246 413
246 942
246 348
246 385
246 663
246 476
246 962
246 563
246 792
246 454
246 453
246 941
246 288
246 667
246 999
246 319
246 668
246 875
246 473
246 936
246 609
246 695
246 882
246 674
246 839
246 469
246 565
246 783
246 483
246 275
246 943
246 354
246 373
246 320
246 633
246 334
246 507
246 581
246 576
246 740
246 762
247 789
247 434
247 487
247 799
247 792
247 287
247 965
247 727
247 438
247 440
247 983
247 301
247 319
247 531
247 257
247 314
247 322
247 340
247 876
247 443
248 987
248 892
248 532
248 572
248 616
248 623
248 624
248 717
248 277
248 864
248 871
248 296
248 316
248 983
248 389
248 731
248 255
248 266
248 299
248 326
248 986
248 510
248 851
248 491
248 980
248 761
248 658
248 554
248 329
248 805
249 664
249 848
249 487
249 670
249 956
249 792
249 373
249 298
249 461
249 505
249 713
249 575
249 914
249 997
249 310
249 865
249 932
249 957
250 615
250 636
250 809
250 469
250 722
250 582
250 630
250 942
250 325
250 892
250 364
250 902
250 828
250 285
250 874
250 385
250 386
250 954
250 733
250 254
251 615
251 532
251 624
251 702
251 670
251 522
251 443
251 740
251 968
251 848
251 827
251 957
252 869
252 722
252 431
252 780
252 682
252 313
252 290
252 990
252 696
252 769
252 822
252 679
252 803
252 614
252 671
252 514
252 559
252 739
252 855
252 859
252 438
253 593
253 615
253 636
253 648
253 585
253 392
253 804
253 729
253 597
253 783
253 372
253 725
253 307
253 442
253 415
253 784
253 293
253 640
253 739
253 958
253 788
253 694
253 360
253 612
253 949
253 390
253 680
253 379
253 575
253 328
253 980
253 962
253 267
253 802
253 864
253 469
253 651
253 733
253 778
253 713
254 894
254 354
254 677
254 544
254 734
254 538
254 312
254 279
254 826
254 982
254 583
254 311
254 361
254 939
254 581
254 870
254 399
254 322
254 828
254 394
254 876
254 928
254 791
254 778
254 852
254 280
254 974
254 436
254 695
254 447
254 383
254 449
254 437
254 457
254 582
254 526
254 911
254 380
254 713
254 535
254 651
254 656
254 879
254 701
254 741
254 627
254 616
254 368
254 302
254 274
254 262
254 460
254 257
254 314
254 340
254 443
255 541
255 579
255 623
255 634
255 919
255 833
255 262
255 666
255 969
255 589
255 574
255 986
255 448
255 709
255 813
255 344
255 446
255 843
255 717
255 671
255 512
255 487
255 387
255 747
255 924
255 973
255 624
255 561
255 496
255 889
255 572
255 275
255 692
255 498
255 893
255 604
255 421
255 542
255 327
255 384
255 587
255 390
255 763
255 896
255 872
255 950
255 871
255 399
255 689
255 362
255 706
255 987
255 555
255 628
255 466
255 726
255 301
255 586
255 839
255 783
255 977
255 556
255 500
255 664
255 321
255 931
255 775
255 599
255 558
255 318
255 528
255 533
255 464
255 419
255 992
255 524
255 658
255 544
255 665
255 260
256 432
256 384
256 924
256 670
256 548
256 836
256 988
256 696
256 714
256 738
256 342
256 289
256 819
256 859
256 381
256 438
257 356
257 360
257 737
257 992
257 727
257 835
257 297
257 581
257 285
257 695
257 322
257 371
257 901
257 538
257 870
257 314
257 331
257 791
257 876
257 475
257 513
257 306
257 402
257 601
257 330
257 449
257 826
257 592
257 838
257 801
257 394
257 383
257 868
257 768
257 280
257 785
257 284
257 583
257 947
257 928
257 805
257 914
257 354
257 430
257 954
257 497
257 765
257 299
257 509
257 338
257 275
257 281
257 492
257 844
257 622
257 551
257 372
257 541
257 529
257 830
257 407
257 629
257 518
257 896
257 532
257 340
257 852
257 913
257 503
258 615
258 428
258 644
258 879
258 891
258 694
258 467
258 804
258 406
258 285
258 582
258 727
258 942
258 967
258 416
258 771
258 797
258 621
258 388
258 978
258 494
258 286
258 265
259 648
259 692
259 866
259 670
259 314
259 316
259 454
259 944
259 906
259 472
259 621
259 893
259 634
259 340
259 870
259 443
259 620
259 712
260 494
260 558
260 836
260 509
260 818
260 576
260 322
260 280
260 497
260 806
260 292
260 829
260 865
260 957
261 685
261 699
261 757
261 717
261 273
261 369
261 391
261 582
261 811
261 988
261 516
261 554
261 560
261 686
261 835
261 842
261 911
261 687
261 381
261 438
261 713
262 615
262 848
262 519
262 552
262 565
262 616
262 987
262 335
262 299
262 948
262 332
262 395
262 941
262 528
262 420
262 831
262 289
262 870
263 341
263 492
263 553
263 431
263 748
263 701
263 380
263 298
263 728
263 765
263 632
263 320
263 654
263 281
263 614
263 462
263 406
263 366
263 971
263 578
263 607
263 917
263 679
263 723
263 264
263 268
263 524
263 577
263 422
263 740
264 783
264 691
264 411
264 663
264 992
264 774
264 524
264 612
264 750
264 765
264 970
264 632
264 495
264 748
264 600
264 548
264 320
264 465
264 528
264 268
264 577
264 380
264 458
264 875
264 764
264 726
264 484
264 515
264 448
264 697
264 383
264 299
264 538
264 621
264 932
264 738
264 478
264 467
264 710
264 459
264 906
264 680
264 887
264 735
264 578
264 855
264 688
264 913
264 716
264 534
264 718
264 556
264 782
264 928
264 270
264 298
264 858
264 398
265 519
265 693
265 344
265 730
265 386
265 268
265 270
265 577
265 632
265 575
265 682
265 689
265 696
265 769
265 977
265 791
265 865
265 449
265 852
265 456
265 855
265 435
266 757
266 360
266 519
266 541
266 669
266 781
266 572
266 565
266 924
266 578
266 487
266 799
266 511
266 994
266 706
266 601
266 300
266 493
266 832
266 683
266 425
266 686
266 738
266 381
267 593
267 615
267 636
267 648
267 729
267 307
267 840
267 595
267 783
267 873
267 341
267 715
267 415
267 881
267 482
267 793
267 739
267 597
267 809
267 929
267 555
267 803
267 371
267 436
267 397
267 290
267 424
267 513
267 270
267 394
267 530
267 586
267 868
267 301
267 638
267 995
267 289
267 671
267 941
267 576
267 563
267 864
267 356
267 372
267 694
267 991
267 565
267 611
267 268
267 533
268 593
268 699
268 969
268 611
268 559
268 495
268 528
268 298
268 875
268 728
268 458
268 764
268 484
268 270
268 750
268 765
268 612
268 774
268 748
268 320
268 465
268 342
268 866
268 492
268 886
268 811
268 390
268 870
268 852
268 547
268 820
268 916
268 989
268 908
268 410
268 289
268 394
268 477
268 503
268 514
268 823
268 749
268 524
268 577
268 726
268 990
268 832
269 463
269 377
269 780
269 642
269 658
269 441
269 339
269 977
269 878
269 509
269 831
269 853
269 286
269 450
269 772
269 653
269 920
269 895
269 433
269 505
269 910
269 522
269 834
269 618
269 916
269 276
269 575
269 651
269 858
269 731
269 633
269 754
269 707
269 757
269 395
269 994
269 875
269 759
269 948
269 384
269 966
269 313
269 307
269 388
269 800
269 619
269 904
269 671
269 347
269 915
269 730
269 794
269 567
269 825
269 381
269 285
269 281
269 988
269 328
269 932
270 915
270 774
270 457
270 970
270 320
270 764
270 458
270 484
270 515
270 612
270 647
270 659
270 893
270 892
270 704
270 943
270 959
270 496
270 851
270 613
270 841
270 298
270 632
270 726
270 748
270 495
270 684
270 836
271 864
271 360
271 477
271 299
271 843
271 953
271 682
271 687
271 809
271 570
271 311
271 612
271 459
271 435
271 876
271 620
272 378
272 388
272 529
272 367
272 553
272 472
272 903
272 300
272 811
272 418
272 795
272 295
272 335
272 360
272 406
272 385
272 658
272 291
272 329
272 279
273 561
273 275
273 908
273 611
273 617
273 670
273 710
273 679
273 352
273 493
273 377
273 600
273 652
273 894
273 914
273 592
273 404
273 885
273 799
273 369
273 348
273 413
273 949
273 520
273 310
273 957
274 299
274 872
274 431
274 782
274 522
274 584
274 622
274 642
274 464
274 447
274 984
274 640
274 930
274 466
274 282
274 836
274 878
274 895
274 988
274 509
274 838
275 335
275 512
275 519
275 541
275 702
275 763
275 561
275 579
275 833
275 894
275 574
275 485
275 912
275 785
275 857
275 299
275 369
275 956
275 559
275 992
275 484
275 836
275 430
275 770
275 435
275 284
275 745
276 636
276 372
276 821
276 710
276 358
276 945
276 522
276 575
276 836
276 878
276 441
276 509
276 329
277 532
277 572
277 624
277 673
277 693
277 948
277 283
277 905
277 780
277 859
277 524
277 954
277 739
277 617
277 324
277 894
277 915
277 510
277 792
277 847
277 418
277 451
277 812
277 425
277 441
277 913
278 593
278 517
278 611
278 647
278 670
278 471
278 830
278 392
278 799
278 841
278 851
278 374
278 393
278 502
278 505
279 593
279 530
279 838
279 801
279 684
279 950
279 872
279 322
279 340
279 852
279 346
279 443
279 932
280 572
280 526
280 687
280 316
280 870
280 432
280 845
280 701
280 717
280 761
280 719
280 498
280 789
280 314
280 832
280 322
280 838
280 346
280 355
280 860
281 599
281 358
281 658
281 433
281 772
281 575
281 779
281 754
281 977
281 505
281 584
281 853
281 522
281 507
281 831
281 895
281 834
281 657
281 622
281 509
281 651
281 808
281 356
281 617
281 845
281 519
281 295
281 380
281 856
281 348
281 385
281 981
281 326
281 714
281 634
281 574
281 689
281 282
281 492
281 327
281 878
281 441
281 450
281 438
282 636
282 514
282 795
282 519
282 532
282 552
282 327
282 468
282 574
282 372
282 424
282 953
282 987
282 895
282 556
282 511
282 614
282 299
282 647
282 630
282 481
282 726
282 684
282 642
282 422
282 865
283 931
283 561
283 623
283 693
283 702
283 763
283 541
283 510
283 390
283 608
283 939
283 997
283 667
283 697
283 657
283 833
283 909
283 792
283 342
283 731
283 560
284 918
284 708
284 561
284 909
284 723
284 734
284 580
284 330
284 901
284 359
284 966
284 370
284 828
284 447
284 437
284 583
284 425
284 680
284 796
284 697
284 420
284 745
284 696
284 738
284 739
284 715
284 667
284 286
284 776
284 322
284 838
284 852
284 876
284 443
284 735
285 625
285 533
285 752
285 687
285 592
285 768
285 532
285 951
285 659
285 894
285 509
285 301
285 989
285 322
285 852
285 876
285 443
285 950
286 664
286 955
286 360
286 426
286 477
286 794
286 550
286 642
286 633
286 425
286 433
286 895
286 878
286 658
286 507
286 457
286 762
286 595
286 857
286 972
286 941
286 741
286 930
286 934
286 524
286 988
286 505
286 509
286 835
286 675
287 494
287 466
287 833
287 421
287 550
287 551
287 630
287 723
287 787
287 773
287 821
287 427
287 599
287 943
287 323
287 874
287 418
287 954
287 992
287 481
287 689
287 707
288 378
288 551
288 559
288 582
288 630
288 782
288 853
288 611
288 763
288 348
288 874
288 965
288 967
288 481
288 748
288 761
288 507
288 568
288 300
289 593
289 793
289 892
289 923
289 994
289 813
289 799
289 369
289 677
289 509
289 560
289 610
289 383
289 660
289 768
289 565
289 619
289 989
289 503
289 404
289 817
289 842
289 911
289 422
289 745
290 795
290 541
290 896
290 441
290 988
290 682
290 409
290 496
290 623
290 565
290 938
290 438
290 665
291 599
291 743
291 923
291 541
291 365
291 575
291 622
291 772
291 507
291 520
291 653
291 920
291 731
291 530
291 651
291 642
291 910
291 658
291 425
291 777
291 628
291 518
291 563
291 529
291 466
291 961
291 836
291 441
291 988
291 566
291 870
292 715
292 343
292 299
292 320
292 684
292 523
292 745
292 957
292 740
292 315
292 665
292 527
292 819
292 310
292 964
292 525
292 707
292 479
292 681
292 576
292 375
292 860
292 629
292 698
292 729
292 334
292 671
292 484
292 335
292 946
292 644
292 496
292 303
292 565
292 936
292 600
292 865
293 585
293 588
293 593
293 636
293 739
293 645
293 356
293 415
293 871
293 597
293 784
293 802
293 648
293 918
293 432
293 688
293 964
293 611
293 831
293 468
293 445
293 620
293 988
293 457
293 590
293 561
293 779
293 563
293 791
293 308
293 755
293 973
293 424
293 848
293 864
293 532
293 896
293 411
293 526
293 545
293 687
294 616
294 678
294 530
294 575
294 622
294 657
294 658
294 590
294 308
294 831
294 858
294 895
294 450
294 988
294 505
294 934
294 322
295 529
295 708
295 795
295 474
295 931
295 367
295 426
295 497
295 406
295 536
295 642
295 711
295 885
295 389
295 373
295 953
295 798
295 985
295 335
295 833
295 357
295 895
295 713
296 606
296 640
296 664
296 739
296 492
296 871
296 573
296 602
296 585
296 361
296 500
296 817
296 992
296 864
296 372
296 360
296 572
296 882
296 844
296 878
296 422
296 806
297 795
297 574
297 323
297 386
297 682
297 334
297 299
297 486
297 353
297 855
297 381
297 435
297 829
298 640
298 463
298 663
298 515
298 875
298 726
298 528
298 548
298 457
298 765
298 970
298 600
298 484
298 764
298 506
298 524
298 701
298 458
298 465
298 421
298 442
298 996
298 871
298 865
298 406
298 381
298 526
298 462
298 759
298 510
298 423
298 847
298 938
298 588
298 700
298 736
298 373
298 522
298 320
298 577
298 632
298 748
298 495
298 503
299 645
299 699
299 519
299 542
299 616
299 866
299 499
299 893
299 532
299 462
299 326
299 894
299 673
299 325
299 468
299 604
299 579
299 541
299 692
299 948
299 919
299 908
299 487
299 572
299 821
299 561
299 781
299 924
299 820
299 835
299 895
299 427
299 559
299 964
299 300
299 716
299 549
299 339
299 379
299 362
299 619
299 725
299 902
299 838
299 880
299 799
299 369
299 887
299 526
299 836
299 858
299 513
299 340
300 783
300 345
300 799
300 373
300 654
300 742
300 304
300 934
300 531
300 865
301 307
301 536
301 360
301 477
301 813
301 755
301 318
301 454
301 977
301 568
301 591
301 806
301 443
301 829
302 739
302 784
302 848
302 693
302 611
302 670
302 732
302 799
302 363
302 374
302 419
302 352
302 647
302 539
302 548
302 871
302 559
302 408
302 537
302 644
302 530
302 640
302 646
302 976
302 872
302 369
302 342
302 995
302 712
303 640
303 423
303 866
303 909
303 323
303 481
303 526
303 533
303 831
303 949
303 329
303 581
303 443
304 542
304 446
304 353
304 677
304 520
304 530
304 642
304 651
304 658
304 812
304 953
304 695
304 449
304 836
304 858
304 988
305 595
305 909
305 611
305 317
305 842
305 911
305 855
305 859
305 398
305 438
305 998
305 712
306 851
306 320
306 726
306 988
306 769
306 438
306 581
306 892
306 340
306 852
306 870
306 443
307 593
307 636
307 664
307 715
307 692
307 440
307 767
307 348
307 603
307 434
307 848
307 864
307 372
307 469
307 414
307 889
307 386
307 970
307 533
307 310
307 865
307 957
308 978
308 757
308 559
308 792
308 481
308 377
308 492
308 378
308 686
308 791
308 847
308 348
308 373
308 920
309 664
309 372
309 428
309 893
309 539
309 551
309 567
309 630
309 723
309 348
309 373
309 491
309 981
309 657
309 920
309 329
309 842
309 389
309 989
309 839
310 648
310 570
310 959
310 730
310 559
310 586
310 495
310 651
310 554
310 934
310 641
310 665
310 964
310 820
310 576
310 957
310 839
310 523
310 926
310 398
310 363
310 692
310 566
310 922
310 484
310 545
310 983
310 858
310 671
310 737
310 383
310 590
310 932
311 589
311 909
311 577
311 676
311 592
311 768
311 838
311 852
311 870
311 876
311 913
311 675
312 918
312 813
312 730
312 495
312 981
312 817
312 806
312 756
312 746
312 340
312 876
313 588
313 661
313 722
313 369
313 385
313 320
313 584
313 321
313 672
313 398
313 435
313 438
313 383
313 527
313 932
314 918
314 463
314 708
314 841
314 737
314 524
314 450
314 505
314 689
314 581
314 601
314 791
314 447
314 876
314 443
314 355
314 400
314 449
314 459
314 399
314 336
314 718
314 563
314 490
314 414
314 638
314 573
314 757
314 629
314 457
314 900
314 851
314 971
314 977
314 667
314 350
314 656
314 722
314 523
314 340
314 740
315 593
315 864
315 572
315 611
315 722
315 992
315 450
315 689
315 712
315 713
315 882
315 904
315 375
315 932
315 957
316 784
316 666
316 669
316 896
316 710
316 508
316 726
316 441
316 714
316 435
316 838
316 852
316 346
316 471
317 611
317 753
317 845
317 411
317 626
317 409
317 851
317 480
317 493
317 730
317 849
317 726
317 428
317 816
317 405
317 466
317 716
317 374
317 921
317 362
317 481
317 977
317 817
317 832
317 383
318 666
318 611
318 670
318 680
318 730
318 521
318 851
318 882
318 900
318 700
318 905
318 907
318 427
318 793
318 624
318 794
318 369
318 373
318 520
318 995
318 560
318 689
318 361
318 402
318 829
319 561
319 833
319 753
319 332
319 550
319 551
319 559
319 630
319 723
319 567
319 348
319 356
319 665
319 435
319 785
319 806
319 769
319 438
319 855
319 945
319 874
319 417
319 965
320 623
320 717
320 582
320 780
320 899
320 764
320 875
320 465
320 750
320 765
320 548
320 585
320 727
320 618
320 894
320 796
320 630
320 987
320 461
320 804
320 513
320 955
320 692
320 735
320 839
320 509
320 632
320 726
320 748
320 495
320 687
320 830
320 870
320 865
321 414
321 344
321 393
321 551
321 417
321 684
321 560
321 817
321 568
321 591
321 465
321 781
321 571
321 394
321 606
321 456
321 760
321 842
321 911
321 682
321 852
321 876
322 414
322 557
322 814
322 998
322 928
322 340
322 581
322 346
322 452
322 513
322 993
322 475
322 868
322 768
322 778
322 330
322 947
322 383
322 870
322 359
322 966
322 371
322 926
322 731
322 714
322 961
322 908
322 898
322 550
322 747
322 461
322 632
322 817
322 430
322 554
322 390
322 393
322 918
322 951
322 559
322 838
322 913
323 710
323 377
323 550
323 582
323 373
323 663
323 555
323 365
323 405
323 496
323 763
323 621
323 713
323 943
323 631
323 682
323 954
323 965
323 526
323 913
324 606
324 640
324 771
324 773
324 797
324 639
324 743
324 442
324 482
324 714
324 464
324 643
324 644
324 463
324 692
324 812
325 423
325 619
325 896
325 434
325 326
325 973
325 683
325 618
325 804
325 660
325 347
325 915
325 487
325 509
325 911
325 422
325 975
325 416
325 870
326 636
326 423
326 494
326 619
326 519
326 542
326 623
326 919
326 448
326 886
326 914
326 462
326 803
326 798
326 950
326 514
326 922
326 549
326 420
326 584
326 777
326 708
326 755
326 788
326 374
326 424
327 739
327 757
327 529
327 561
327 574
327 639
327 476
327 421
327 753
327 921
327 545
327 537
328 532
328 702
328 833
328 487
328 625
328 433
328 560
328 700
328 703
328 734
328 577
328 949
328 851
328 706
328 354
328 402
328 900
328 329
328 934
329 708
329 406
329 994
329 551
329 348
329 967
329 422
329 656
329 863
329 389
329 627
329 911
329 659
329 500
329 890
329 566
329 904
329 738
329 934
329 556
329 842
329 591
329 511
329 568
329 958
329 347
329 700
329 631
329 963
329 801
329 468
329 845
329 731
329 878
329 762
329 343
329 683
329 408
329 667
329 996
329 937
329 795
329 530
329 970
329 709
329 755
330 593
330 640
330 417
330 524
330 834
330 768
330 801
330 838
330 876
330 913
330 828
330 557
330 520
330 500
330 377
330 419
330 704
330 393
330 465
330 616
330 562
330 852
330 346
330 355
330 443
331 542
331 799
331 411
331 630
331 690
331 792
331 874
331 954
331 450
331 770
331 438
331 456
331 779
331 340
331 876
331 443
332 406
332 414
332 616
332 539
332 609
332 730
332 753
332 799
332 841
332 343
332 605
332 851
332 936
332 481
332 380
332 947
333 883
333 448
333 845
333 551
333 555
333 792
333 421
333 348
333 362
333 373
333 967
333 566
334 763
334 965
334 522
334 653
334 487
334 971
334 665
334 392
334 988
334 509
334 340
335 529
335 736
335 795
335 976
335 426
335 488
335 959
335 504
335 466
335 810
335 938
335 345
335 931
335 367
335 619
335 789
335 869
335 393
335 532
335 880
335 392
335 665
335 883
335 577
335 949
335 481
335 678
335 964
335 747
335 972
335 360
335 589
335 647
335 799
335 920
336 606
336 706
336 715
336 848
336 880
336 595
336 508
336 395
336 805
336 756
336 543
336 864
336 414
336 794
336 465
336 782
336 858
336 507
336 770
336 822
337 694
337 669
337 936
337 660
337 970
337 533
337 534
337 933
337 751
337 968
337 713
337 876
337 979
337 383
337 496
337 465
337 535
337 778
337 684
337 949
337 580
337 581
337 806
337 399
337 444
338 739
338 529
338 536
338 599
338 708
338 795
338 754
338 596
338 406
338 923
338 994
338 559
338 575
338 505
338 509
338 855
338 443
339 664
339 729
339 864
339 630
339 622
339 642
339 651
339 657
339 850
339 582
339 509
339 422
339 435
339 402
340 640
340 775
340 343
340 351
340 393
340 660
340 509
340 770
340 435
340 580
340 581
340 601
340 400
340 376
340 870
340 513
340 443
340 785
340 592
340 832
340 436
340 852
340 982
340 371
340 901
340 361
340 806
340 868
340 394
340 867
340 771
340 427
340 675
340 960
340 875
340 744
340 924
340 362
340 934
340 478
340 999
340 679
340 756
340 794
340 855
340 425
340 918
340 448
340 451
340 810
340 460
340 877
340 373
340 355
341 573
341 597
341 615
341 636
341 688
341 729
341 482
341 706
341 366
341 873
341 972
341 415
341 871
341 593
341 442
341 698
341 767
341 785
341 896
341 417
341 539
341 755
341 408
341 864
341 469
341 643
341 428
341 810
341 821
341 924
341 851
341 431
341 992
341 782
341 684
341 768
341 876
342 644
342 463
342 407
342 624
342 671
342 673
342 550
342 582
342 630
342 660
342 737
342 792
342 723
342 899
342 373
342 410
342 951
342 572
342 474
342 579
342 483
342 542
342 348
342 954
342 965
342 524
343 372
343 529
343 708
343 795
343 827
343 864
343 647
343 414
343 477
343 512
343 730
343 349
343 397
343 874
343 524
343 748
343 424
344 705
344 532
344 541
344 561
344 579
344 671
344 693
344 394
344 872
344 487
344 582
345 529
345 553
345 619
345 708
345 795
345 599
345 772
345 774
345 766
345 918
345 532
345 730
345 551
345 852
345 443
346 608
346 864
346 529
346 851
346 393
346 534
346 633
346 878
346 659
346 581
346 852
346 355
346 801
346 400
346 966
346 913
346 399
346 826
346 868
346 778
346 580
346 583
346 791
346 455
346 803
346 859
346 543
346 906
346 873
346 598
346 354
346 909
346 600
346 972
346 602
346 703
346 563
346 872
346 870
347 638
347 406
347 561
347 363
347 379
347 451
347 554
347 560
347 656
347 817
347 842
347 779
347 934
347 975
348 615
348 708
348 790
348 994
348 702
348 550
348 551
348 630
348 663
348 737
348 912
348 967
348 362
348 922
348 586
348 997
348 992
348 667
348 723
348 481
348 690
348 999
348 962
348 547
348 780
348 358
348 404
348 605
348 555
348 373
348 386
348 787
348 418
348 954
348 930
348 412
348 571
348 354
348 559
348 490
348 861
348 917
348 691
348 517
348 914
348 536
348 648
348 506
348 712
348 865
348 489
348 409
348 815
348 711
348 890
348 424
348 893
348 696
348 496
348 759
348 765
348 673
348 360
348 849
348 882
348 353
348 385
348 965
348 637
348 438
349 372
349 771
349 699
349 529
349 596
349 598
349 670
349 710
349 730
349 799
349 583
349 819
349 648
349 817
349 862
349 872
349 431
349 834
349 828
349 839
350 595
350 510
350 582
350 678
350 520
350 575
350 878
350 425
350 988
350 505
350 507
350 932
351 670
351 722
351 730
351 851
351 824
351 642
351 558
351 923
351 552
351 564
351 374
351 393
351 411
351 431
351 672
351 727
351 817
351 537
351 733
351 800
352 757
352 702
352 384
352 730
352 862
352 609
352 985
352 364
352 882
352 878
352 529
352 489
352 823
352 992
352 640
352 641
352 959
352 543
352 481
352 393
352 530
352 433
352 601
352 525
353 559
353 563
353 582
353 792
353 723
353 907
353 464
353 476
353 997
353 816
353 365
353 992
353 373
353 885
353 386
353 840
353 378
353 873
353 624
353 721
353 839
353 957
353 932
353 977
353 752
353 385
353 417
353 954
353 967
353 380
353 731
353 714
353 381
353 361
353 865
354 884
354 559
354 571
354 586
354 630
354 660
354 792
354 816
354 667
354 861
354 412
354 965
354 954
354 453
354 922
354 491
354 605
354 454
354 999
354 967
354 780
354 490
354 885
354 418
354 563
354 720
354 386
354 373
354 663
354 464
354 985
354 484
354 537
354 465
354 947
354 986
354 425
354 697
354 500
354 937
354 949
354 451
354 845
354 580
354 595
354 619
354 910
354 481
354 911
354 957
355 366
355 757
355 732
355 788
355 577
355 460
355 584
355 878
355 934
355 998
355 838
355 452
355 580
355 695
355 370
355 538
355 592
355 928
355 983
355 597
355 533
355 973
355 881
355 773
355 952
355 839
355 418
355 467
355 797
355 667
355 718
355 751
355 715
355 536
355 870
355 443
356 593
356 608
356 615
356 648
356 739
356 837
356 972
356 783
356 585
356 929
356 573
356 729
356 893
356 524
356 571
356 607
356 443
356 637
356 545
356 365
356 372
356 997
356 543
356 520
357 688
357 693
357 617
357 522
357 622
357 455
357 409
357 757
357 783
357 573
357 486
357 382
357 878
357 441
357 988
357 505
357 509
357 713
358 915
358 480
358 874
358 559
358 481
358 899
358 547
358 365
358 719
358 916
358 867
358 362
358 418
358 992
358 895
358 525
358 957
359 783
359 923
359 781
359 431
359 614
359 658
359 580
359 838
359 852
359 443
359 641
360 529
360 570
360 708
360 724
360 790
360 884
360 474
360 743
360 736
360 869
360 938
360 810
360 923
360 497
360 767
360 976
360 827
360 633
360 774
360 542
360 937
360 802
360 379
360 837
360 859
360 666
360 438
360 874
360 605
360 580
360 991
360 994
360 616
360 965
360 726
360 506
360 509
360 738
360 668
361 615
361 372
361 849
361 559
361 874
361 738
361 581
361 832
361 852
361 746
361 498
361 790
361 606
361 373
361 638
362 573
362 705
362 931
362 737
362 874
362 490
362 413
362 404
362 965
362 563
362 649
362 774
362 865
362 568
362 802
362 366
362 959
362 419
362 697
362 427
362 369
362 395
362 443
362 953
362 954
362 454
362 992
362 622
362 858
362 733
363 797
363 414
363 994
363 611
363 730
363 799
363 872
363 377
363 882
363 626
363 661
363 393
363 680
363 985
363 517
363 824
363 411
363 397
363 900
363 921
363 760
363 679
363 617
363 554
363 794
363 390
363 746
363 662
363 705
363 500
363 693
363 482
363 951
363 405
363 714
363 443
363 523
363 890
363 374
363 902
363 847
363 941
363 852
363 870
363 449
364 706
364 952
364 539
364 611
364 670
364 722
364 730
364 862
364 902
364 921
364 480
364 920
364 403
364 998
364 580
364 801
364 950
365 414
365 680
365 559
365 996
365 385
365 737
365 678
365 874
365 672
365 925
365 849
365 429
365 541
365 858
365 527
365 998
365 373
365 386
365 954
365 949
365 934
365 852
365 876
366 573
366 706
366 809
366 836
366 767
366 702
366 491
366 505
366 372
366 643
366 680
366 862
366 374
366 393
366 782
366 734
366 854
366 855
366 832
366 375
367 608
367 529
367 708
367 718
367 736
367 795
367 869
367 449
367 721
367 944
367 911
367 414
367 994
367 693
367 732
367 753
367 874
367 965
367 495
367 945
367 920
367 591
367 842
368 809
368 643
368 599
368 790
368 578
368 393
368 921
368 980
368 502
368 560
368 566
368 842
368 855
368 838
369 415
369 671
369 670
369 732
369 799
369 755
369 849
369 377
369 493
369 862
369 753
369 508
369 956
369 609
369 661
369 824
369 395
369 679
369 374
369 760
369 539
369 613
369 419
369 902
369 617
369 611
369 845
369 722
369 872
369 431
369 857
369 936
369 472
369 393
369 471
369 883
369 746
369 446
369 986
369 602
369 574
369 712
369 379
369 979
369 485
369 633
369 375
369 416
369 674
369 635
369 439
369 898
369 742
369 657
369 622
369 769
369 939
370 648
370 685
370 669
370 969
370 753
370 391
370 874
370 965
370 526
370 855
370 838
370 870
370 876
371 965
371 748
371 546
371 817
371 435
371 581
371 852
371 870
371 876
371 443
371 681
372 606
372 615
372 640
372 648
372 664
372 716
372 739
372 783
372 809
372 848
372 608
372 918
372 880
372 442
372 602
372 929
372 873
372 415
372 382
372 492
372 725
372 650
372 392
372 573
372 636
372 972
372 729
372 793
372 864
372 469
372 595
372 804
372 445
372 409
372 473
372 383
372 786
372 632
372 897
372 869
372 805
372 506
372 672
372 726
372 889
372 885
372 988
372 617
372 740
372 373
372 741
372 559
372 641
372 612
372 572
372 914
372 669
372 609
372 799
372 385
372 967
372 534
372 451
372 818
373 883
373 406
373 833
373 567
373 586
373 630
373 967
373 723
373 405
373 786
373 594
373 571
373 720
373 547
373 453
373 582
373 550
373 386
373 847
373 899
373 490
373 999
373 997
373 417
373 792
373 787
373 660
373 769
373 840
373 451
373 693
373 713
373 897
373 499
373 384
373 956
373 478
373 750
373 807
373 987
373 705
373 951
373 856
373 640
373 466
373 929
373 914
373 436
373 385
373 953
373 954
373 481
373 515
373 957
374 918
374 423
374 991
374 833
374 517
374 598
374 609
374 611
374 670
374 799
374 845
374 985
374 722
374 472
374 730
374 788
374 846
374 647
374 743
374 477
374 664
374 850
374 476
374 826
374 756
374 446
374 807
374 932
374 809
374 594
374 942
374 415
374 740
374 674
374 665
374 393
374 411
374 431
374 700
374 696
374 855
374 438
374 440
375 640
375 415
375 788
375 887
375 391
375 491
375 744
375 838
375 641
375 839
375 932
375 479
375 620
375 950
375 926
375 377
375 938
375 555
375 691
375 781
375 422
375 587
375 904
375 928
375 519
375 544
375 795
376 423
376 599
376 869
376 921
376 861
376 581
376 778
376 852
376 876
376 443
377 685
377 986
377 539
377 722
377 732
377 799
377 851
377 881
377 930
377 483
377 896
377 660
377 949
377 430
377 538
377 860
378 636
378 648
378 783
378 848
378 804
378 510
378 440
378 699
378 708
378 894
378 660
378 792
378 726
378 495
378 860
379 617
379 551
379 582
379 792
379 729
379 864
379 611
379 973
379 941
379 965
379 967
379 997
379 878
379 700
379 399
380 739
380 978
380 567
380 515
380 524
380 632
380 750
380 864
380 802
380 394
380 602
380 950
380 760
380 647
380 495
380 653
380 815
380 479
381 889
381 861
381 418
381 711
381 438
381 557
381 714
381 440
381 535
381 989
381 435
381 818
381 398
381 800
381 489
381 830
381 439
381 401
381 984
381 756
381 696
381 480
381 669
381 928
381 558
381 746
381 387
381 906
381 526
381 973
381 646
381 423
381 884
381 821
381 589
381 653
382 593
382 615
382 640
382 648
382 739
382 837
382 848
382 731
382 819
382 861
382 867
382 872
383 749
383 539
383 670
383 799
383 438
383 580
383 581
383 852
383 870
383 876
383 860
383 930
383 490
383 503
384 664
384 519
384 532
384 561
384 572
384 693
384 788
384 437
384 831
384 556
384 446
384 555
384 622
384 440
385 848
385 532
385 799
385 792
385 874
385 582
385 930
385 954
385 861
385 942
385 481
385 786
385 605
385 690
385 992
385 907
385 720
385 922
385 847
385 667
385 912
385 563
385 962
385 965
385 816
385 660
385 623
385 732
385 502
385 934
385 607
385 955
385 746
385 688
385 840
385 836
385 858
385 875
385 783
385 526
385 776
385 631
385 871
385 392
385 900
385 456
385 998
386 640
386 708
386 542
386 710
386 872
386 391
386 571
386 582
386 630
386 874
386 404
386 996
386 942
386 690
386 965
386 649
386 418
386 464
386 861
386 490
386 405
386 847
386 660
386 454
386 663
386 413
386 922
386 586
386 925
386 903
386 448
386 766
386 760
386 670
386 883
386 748
386 593
386 729
386 416
386 763
386 510
386 472
386 433
386 953
386 460
386 622
386 734
387 593
387 606
387 739
387 519
387 532
387 552
387 623
387 671
387 813
387 843
387 421
387 491
387 748
387 461
387 505
387 815
387 839
388 773
388 867
388 704
388 797
388 598
388 393
388 529
388 726
388 427
388 683
388 644
388 463
388 478
388 922
389 595
389 606
389 797
389 582
389 560
389 734
389 817
389 842
389 454
389 414
389 588
389 827
389 728
389 422
389 778
389 865
390 708
390 767
390 483
390 532
390 616
390 623
390 669
390 671
390 717
390 948
390 508
390 545
390 422
390 581
390 762
391 725
391 708
391 790
391 753
391 799
391 851
391 862
391 872
391 419
391 921
391 679
391 737
391 908
391 566
391 786
391 873
391 594
391 552
391 495
391 949
391 878
391 838
392 593
392 615
392 640
392 664
392 739
392 848
392 639
392 561
392 655
393 595
393 797
393 643
393 603
393 789
393 519
393 598
393 661
393 670
393 710
393 730
393 732
393 851
393 611
393 971
393 609
393 539
393 902
393 472
393 985
393 517
393 887
393 900
393 419
393 849
393 872
393 882
393 852
393 452
393 807
393 831
393 967
393 721
393 736
393 883
393 907
393 784
393 832
393 953
393 767
393 975
393 988
393 559
393 428
393 994
393 742
393 553
393 921
393 431
393 630
393 412
393 776
393 842
394 821
394 896
394 824
394 687
394 870
394 443
394 957
395 715
395 837
395 891
395 661
395 730
395 732
395 753
395 674
395 870
396 606
396 792
396 836
396 858
396 682
396 696
396 804
396 438
396 402
397 883
397 685
397 463
397 616
397 611
397 647
397 670
397 862
397 625
397 888
397 826
397 856
397 589
397 796
397 877
397 998
397 811
397 852
397 503
397 564
397 950
398 514
398 426
398 956
398 992
398 533
398 696
398 818
398 518
398 946
398 800
398 682
398 401
398 927
398 721
398 689
398 796
398 859
398 977
398 945
398 462
398 683
398 785
398 716
398 581
398 925
398 949
398 435
398 438
398 998
399 803
399 532
399 555
399 533
399 425
399 581
399 806
399 852
399 870
399 541
399 976
399 572
399 867
399 443
400 929
400 978
400 757
400 670
400 949
400 980
400 686
400 842
400 424
400 581
400 832
400 852
400 443
400 620
401 615
401 978
401 587
401 575
401 653
401 687
401 714
401 815
401 855
401 869
401 566
401 503
402 504
402 491
402 543
402 949
402 719
402 658
402 812
402 505
402 422
402 696
402 581
402 838
402 852
402 870
403 880
403 704
403 623
403 446
403 965
403 575
403 855
403 435
403 430
403 766
403 878
403 941
403 882
403 765
403 438
403 641
404 704
404 624
404 851
404 551
404 555
404 874
404 831
404 944
404 632
404 535
404 988
404 984
404 793
404 703
404 479
404 965
404 726
404 526
404 658
404 714
405 648
405 789
405 519
405 532
405 572
405 671
405 617
405 921
405 551
405 582
405 954
405 524
405 562
405 748
405 988
406 739
406 840
406 867
406 570
406 795
406 426
406 749
406 599
406 553
406 897
406 718
406 497
406 444
406 746
406 738
406 674
406 552
406 954
406 627
406 520
406 689
406 687
406 691
406 414
406 818
406 665
407 848
407 619
407 708
407 795
407 474
407 825
407 858
407 936
407 522
407 477
407 994
407 862
407 630
407 726
407 441
407 855
407 601
407 564
408 585
408 757
408 474
408 532
408 561
408 624
408 669
408 709
408 487
408 539
408 672
408 726
408 675
409 757
409 909
409 487
409 539
409 670
409 680
409 722
409 730
409 753
409 799
409 824
409 851
409 977
409 806
409 932
410 603
410 724
410 795
410 574
410 872
410 418
410 997
410 835
410 842
410 934
410 963
410 713
411 587
411 799
411 862
411 480
411 472
411 825
411 845
411 872
411 680
411 760
411 457
411 911
411 699
411 474
411 720
411 562
411 491
411 898
411 992
411 726
411 727
411 422
411 932
412 585
412 771
412 644
412 705
412 708
412 512
412 647
412 954
412 481
412 748
412 622
413 783
413 929
413 810
413 905
413 909
413 559
413 660
413 792
413 674
413 945
413 473
413 877
413 417
413 941
413 577
413 632
413 858
414 706
414 529
414 553
414 795
414 810
414 923
414 477
414 504
414 736
414 708
414 603
414 991
414 756
414 937
414 851
414 419
414 871
414 713
414 501
414 450
414 625
414 480
414 922
414 575
414 838
415 595
415 597
415 606
415 640
415 648
415 848
415 972
415 729
415 840
415 715
415 987
415 875
415 679
415 690
415 488
415 667
415 436
415 431
415 865
416 782
416 734
416 689
416 714
416 429
416 435
417 976
417 487
417 547
417 559
417 563
417 567
417 476
417 586
417 454
417 965
417 555
417 481
417 453
417 418
417 999
417 786
417 962
417 842
417 819
417 461
417 851
417 561
417 721
417 610
417 662
417 482
417 741
417 992
417 726
417 878
418 783
418 864
418 514
418 529
418 477
418 723
418 942
418 551
418 660
418 453
418 454
418 941
418 907
418 594
418 582
418 672
418 787
418 969
418 471
418 877
418 466
418 634
418 507
418 795
418 761
418 943
418 714
418 789
418 575
418 450
418 965
418 967
419 864
419 886
419 611
419 670
419 730
419 753
419 851
419 871
419 988
419 554
419 511
420 599
420 534
420 677
420 545
420 741
420 470
420 533
420 698
420 486
420 945
420 473
420 526
420 451
420 667
420 910
420 693
420 694
420 849
420 995
420 551
420 920
420 784
420 949
420 502
420 842
421 595
421 532
421 579
421 693
421 747
421 763
421 448
421 889
421 616
421 905
421 814
421 599
421 474
421 714
421 718
421 713
421 551
421 676
421 969
421 487
421 902
421 495
421 560
421 700
421 770
422 699
422 532
422 919
422 731
422 560
422 700
422 842
422 569
422 686
422 944
422 516
422 646
422 961
422 835
422 863
422 674
422 828
422 702
422 529
422 447
422 743
422 761
422 476
422 504
422 997
422 930
422 696
423 595
423 492
423 773
423 775
423 879
423 644
423 771
423 463
423 478
423 757
423 628
423 691
423 704
423 531
423 867
423 883
423 428
423 891
423 514
423 952
423 523
423 974
423 962
423 536
423 776
423 679
423 608
423 861
423 738
423 788
423 667
423 694
423 814
424 677
424 646
424 835
424 682
424 855
424 695
424 589
424 467
425 561
425 902
425 524
425 575
425 836
425 433
425 877
425 821
425 746
425 464
425 917
425 756
425 583
425 988
425 505
425 509
425 979
426 664
426 929
426 529
426 536
426 599
426 708
426 736
426 795
426 810
426 450
426 777
426 942
426 905
426 629
426 466
426 579
426 709
426 726
426 776
427 615
427 978
427 931
427 563
427 481
427 772
427 682
427 696
427 714
427 855
427 439
427 998
427 829
428 775
428 643
428 771
428 669
428 482
428 566
428 705
428 757
428 660
428 537
428 838
428 839
429 628
429 922
429 997
429 562
429 949
429 544
429 511
429 713
429 819
429 829
429 865
429 932
429 572
429 722
429 540
429 957
429 479
430 864
430 922
430 817
430 842
430 709
430 592
431 466
431 693
431 611
431 661
431 670
431 732
431 841
431 849
431 851
431 872
431 887
431 824
431 799
431 882
431 472
431 493
431 846
431 983
431 508
431 692
431 766
431 977
431 578
431 554
431 813
431 892
431 801
431 822
431 894
431 784
431 930
431 975
431 912
431 593
431 881
431 642
431 834
432 573
432 608
432 615
432 640
432 739
432 793
432 547
432 694
432 616
432 671
432 690
432 451
432 560
432 714
433 936
433 657
433 658
433 834
433 858
433 878
433 866
433 441
433 507
433 865
433 479
434 757
434 572
434 624
434 693
434 702
434 747
434 794
434 908
434 909
434 609
434 863
434 510
434 491
434 507
434 443
434 745
434 819
435 561
435 578
435 792
435 653
435 714
435 859
435 989
435 689
435 951
435 662
435 537
435 796
435 769
435 927
435 518
435 535
435 759
435 937
435 695
435 651
435 591
435 824
435 599
435 577
435 819
435 743
435 813
435 768
435 555
436 540
436 639
436 578
436 763
436 894
436 611
436 480
436 534
436 778
436 870
436 876
437 623
437 539
437 851
437 698
437 581
437 518
437 503
437 865
438 643
438 976
438 624
438 481
438 831
438 682
438 689
438 696
438 714
438 676
438 815
438 989
438 814
438 984
438 557
438 943
438 859
438 946
438 855
438 756
438 818
438 759
438 537
438 769
438 758
438 439
438 770
438 935
438 687
438 535
438 440
438 563
438 544
438 660
438 919
438 797
438 599
438 558
438 921
438 663
438 819
438 889
438 725
438 916
438 601
438 753
438 802
438 788
438 484
439 542
439 841
439 882
439 550
439 748
439 703
439 687
439 855
439 859
439 682
439 756
439 957
439 451
439 658
439 772
439 782
439 740
440 908
440 487
440 678
440 968
440 980
440 812
440 566
440 537
440 687
440 800
440 682
440 676
440 733
440 779
440 582
440 596
440 722
440 836
440 454
440 502
440 870
440 865
441 588
441 648
441 921
441 575
441 651
441 831
441 836
441 450
441 853
441 834
441 622
441 507
441 658
441 742
441 906
441 971
441 665
441 880
441 582
441 682
441 944
441 815
441 809
441 829
441 513
441 509
441 876
442 593
442 615
442 636
442 715
442 739
442 809
442 837
442 864
442 773
442 795
442 938
442 914
442 670
442 577
442 911
442 511
442 778
443 561
443 586
443 486
443 772
443 581
443 832
443 852
443 870
443 876
443 695
443 452
443 601
443 791
443 982
443 475
443 503
443 580
443 826
443 928
443 868
443 828
443 785
443 449
443 778
443 939
443 447
443 976
443 810
443 636
443 877
443 738
443 896
443 763
443 667
443 847
443 989
443 918
443 837
443 818
443 941
443 752
443 746
443 849
443 646
443 908
443 835
443 589
443 945
443 737
443 480
444 469
444 955
444 463
444 734
444 655
444 932
444 641
444 586
444 634
444 845
445 864
445 972
445 775
445 559
445 874
445 899
445 481
445 534
445 543
445 545
445 949
445 968
445 980
445 981
445 580
445 852
446 972
446 463
446 532
446 579
446 693
446 763
446 794
446 833
446 747
446 624
446 886
446 914
446 781
446 468
446 843
446 739
446 621
446 676
446 646
446 737
446 698
446 665
446 985
446 510
446 878
446 505
446 734
446 876
446 713
447 809
447 519
447 702
447 969
447 921
447 936
447 567
447 582
447 495
447 581
447 601
447 870
447 740
447 819
448 615
448 869
448 519
448 579
448 666
448 673
448 693
448 702
448 747
448 934
448 938
448 450
448 461
448 749
448 585
448 731
448 510
448 509
448 815
448 513
449 969
449 513
449 838
449 634
450 541
450 862
450 844
450 752
450 600
450 974
450 988
451 638
451 994
451 534
451 677
451 949
451 698
451 614
451 782
451 470
451 980
451 651
451 794
451 800
451 469
451 579
452 851
452 495
452 677
452 581
452 852
452 876
452 873
453 729
453 824
453 567
453 678
453 792
453 874
453 965
453 937
453 911
454 715
454 561
454 813
454 872
454 630
454 678
454 737
454 792
454 954
454 786
454 550
454 912
454 780
454 483
454 845
454 768
454 852
454 878
454 658
454 584
454 730
454 525
454 932
454 481
454 575
454 836
454 988
454 957
455 648
455 619
455 693
455 647
455 753
455 956
455 524
455 575
455 653
455 858
455 878
455 859
455 503
455 932
456 722
456 567
456 782
456 533
456 534
456 684
456 746
456 980
456 852
457 615
457 561
457 577
457 632
457 680
457 936
457 495
457 697
457 835
457 740
457 745
458 529
458 519
458 498
458 510
458 551
458 524
458 577
458 545
458 921
458 748
458 495
458 738
458 712
459 987
459 580
459 581
459 838
459 852
459 495
459 618
460 623
460 462
460 582
460 534
460 677
460 684
460 949
460 945
460 544
460 870
460 840
460 557
460 753
460 535
460 580
461 702
461 833
461 547
461 836
461 858
461 905
461 827
461 496
461 835
461 988
461 505
461 503
461 865
462 867
462 884
462 532
462 541
462 542
462 578
462 623
462 693
462 763
462 909
462 896
462 552
462 886
462 973
462 989
462 806
462 772
462 491
462 716
462 718
462 902
462 753
462 713
463 640
463 648
463 972
463 771
463 775
463 797
463 879
463 628
463 643
463 898
463 766
463 704
463 478
463 639
463 867
463 892
463 691
463 803
463 638
463 467
463 978
463 685
463 955
463 513
463 832
463 855
463 877
463 607
463 670
463 744
463 526
463 496
463 872
463 824
463 958
463 779
463 518
463 728
463 757
463 642
463 657
463 713
464 531
464 704
464 666
464 969
464 730
464 550
464 551
464 559
464 792
464 920
464 627
464 674
464 675
465 515
465 524
465 632
465 466
465 737
465 744
465 826
465 942
465 956
465 925
465 726
465 495
465 509
465 814
465 740
466 529
466 795
466 749
466 743
466 489
466 492
466 719
466 520
466 596
466 799
466 508
466 635
467 771
467 775
467 777
467 867
467 879
467 643
467 694
467 699
467 757
467 474
467 673
467 954
467 980
467 502
467 530
467 601
467 471
468 532
468 541
468 561
468 669
468 492
468 882
468 487
468 663
469 588
469 593
469 615
469 636
469 640
469 688
469 837
469 848
469 725
469 784
469 585
469 745
469 600
469 500
469 741
469 815
469 674
469 503
469 514
469 800
469 512
469 924
469 680
469 660
469 911
470 739
470 736
470 869
470 732
470 515
470 970
470 533
470 534
470 949
470 769
470 707
471 593
471 976
471 965
471 509
471 703
471 842
471 564
471 932
471 950
471 957
471 753
471 885
471 651
471 705
471 984
471 617
471 873
471 730
472 898
472 978
472 702
472 598
472 611
472 626
472 921
472 543
472 622
472 934
472 979
473 872
473 481
473 782
473 534
473 543
473 677
473 698
473 483
473 988
473 932
474 529
474 708
474 579
474 487
474 710
474 851
474 668
475 585
475 636
475 704
475 666
475 887
475 567
475 605
475 560
475 592
475 838
475 852
475 876
476 664
476 639
476 708
476 936
476 660
476 941
476 965
476 967
476 481
476 656
476 817
476 957
477 529
477 795
477 869
477 708
477 897
477 743
477 488
477 570
477 931
477 497
477 736
477 632
477 622
477 714
477 585
477 894
477 549
477 868
477 956
477 712
478 643
478 644
478 883
478 773
478 659
478 877
478 670
478 551
478 726
478 581
478 839
479 611
479 493
479 530
479 812
479 895
479 656
479 665
479 713
479 819
479 829
479 932
479 957
479 675
479 595
479 703
479 884
479 516
479 565
479 915
479 640
480 882
480 900
480 517
480 737
480 994
480 695
480 632
480 495
480 975
480 714
481 864
481 673
481 909
481 582
481 678
481 874
481 954
481 965
481 550
481 672
481 787
481 930
481 667
481 663
481 992
481 997
481 907
481 605
481 737
481 630
481 547
481 839
481 524
481 827
481 659
481 929
481 482
481 512
481 897
481 534
481 913
481 597
481 518
482 602
482 606
482 608
482 615
482 636
482 725
482 848
482 623
482 954
482 748
482 858
482 855
483 691
483 529
483 570
483 599
483 708
483 795
483 994
483 497
483 794
483 783
483 777
483 636
483 613
483 487
484 694
484 978
484 512
484 671
484 524
484 632
484 734
484 748
484 946
484 928
485 739
485 532
485 915
485 526
485 534
485 949
485 764
485 632
485 878
485 550
485 502
485 509
485 641
486 891
486 559
486 999
486 677
486 949
486 968
486 656
486 839
487 519
487 532
487 572
487 813
487 589
487 709
487 894
487 579
487 604
487 915
487 986
487 673
487 924
487 499
487 498
487 794
487 702
487 512
487 542
487 973
487 692
487 634
487 747
487 821
487 896
487 704
487 538
487 836
487 718
487 943
487 658
487 691
487 817
487 576
487 640
487 723
487 656
487 940
487 670
487 533
487 682
488 640
488 972
488 529
488 599
488 619
488 795
488 976
488 669
488 948
488 722
488 851
488 792
488 687
489 540
489 643
489 529
489 679
489 649
489 507
489 815
489 855
489 746
490 802
490 559
490 660
490 792
490 941
490 965
490 988
490 801
490 839
491 720
491 786
491 999
491 816
491 930
491 813
491 742
491 812
491 945
491 545
491 947
491 932
492 593
492 595
492 615
492 636
492 640
492 664
492 706
492 783
492 848
492 751
492 863
492 553
492 623
492 813
492 670
492 737
492 495
492 764
492 858
492 627
492 815
493 539
493 617
493 799
493 921
493 823
493 781
493 603
493 622
493 852
494 606
494 775
494 621
494 694
494 699
494 766
494 932
494 853
494 627
494 518
494 858
494 938
494 510
494 520
494 637
495 648
495 669
495 732
495 824
495 524
495 577
495 632
495 748
495 506
495 562
495 654
495 728
495 750
495 701
495 765
495 515
495 600
495 642
495 672
495 866
495 769
495 518
495 834
495 790
495 555
495 559
495 868
495 742
495 787
495 719
495 558
495 706
495 553
495 520
495 667
495 815
495 844
495 681
495 762
496 529
496 519
496 532
496 579
496 623
496 702
496 717
496 747
496 915
496 559
497 636
497 797
497 529
497 603
497 795
497 532
497 517
497 534
497 684
497 911
498 797
498 553
498 561
498 572
498 669
498 693
498 763
498 833
498 783
498 676
498 855
498 581
498 862
498 936
498 842
498 696
498 957
499 867
499 519
499 532
499 542
499 552
499 561
499 623
499 666
499 669
499 717
499 843
499 580
499 510
500 684
500 842
500 911
500 518
500 770
501 643
501 577
501 726
501 748
501 704
501 731
501 650
501 950
502 896
502 533
502 949
502 719
502 790
502 889
502 549
502 918
502 932
503 774
503 697
503 995
503 863
503 818
503 581
503 601
503 901
503 778
503 838
503 611
503 677
503 557
503 551
503 673
503 735
503 542
504 529
504 553
504 708
504 635
504 909
504 911
504 998
505 532
505 552
505 919
505 722
505 575
505 622
505 658
505 878
505 988
505 509
505 812
505 633
505 910
505 522
505 831
505 618
505 836
505 975
505 610
505 798
505 681
505 852
505 672
505 803
505 669
505 550
505 938
505 715
505 668
505 818
505 581
506 732
506 515
506 524
506 577
506 726
506 748
506 618
506 535
506 822
506 580
506 818
506 685
506 533
506 545
506 832
506 865
506 932
507 621
507 561
507 575
507 622
507 651
507 658
507 731
507 836
507 878
507 895
507 920
507 988
507 831
507 995
507 633
507 910
507 714
507 793
507 961
507 795
507 863
507 524
507 823
507 613
507 620
507 774
507 627
508 539
508 680
508 732
508 851
508 699
508 696
508 562
508 658
508 593
508 965
508 876
508 665
509 596
509 611
509 547
509 533
509 575
509 584
509 622
509 895
509 988
509 731
509 910
509 877
509 916
509 858
509 653
509 530
509 853
509 618
509 920
509 570
509 777
509 907
509 713
509 960
509 735
509 648
509 691
509 865
509 931
510 532
510 896
510 969
510 542
510 561
510 893
510 908
510 572
510 574
510 924
510 905
510 919
510 747
510 760
510 887
510 524
510 754
510 590
510 788
510 830
510 648
510 540
510 800
510 902
510 563
510 530
510 817
510 876
511 725
511 879
511 884
511 836
511 703
511 817
511 911
511 975
511 870
511 851
511 830
511 512
511 742
511 865
512 640
512 775
512 795
512 666
512 692
512 717
512 973
512 677
512 513
512 532
512 542
512 574
512 693
512 702
512 919
512 632
512 895
512 734
512 711
512 855
513 987
513 631
513 982
513 929
513 933
513 710
513 639
513 651
513 838
513 870
513 957
514 638
514 883
514 898
514 639
514 681
514 565
514 775
514 732
514 760
514 682
514 581
515 827
515 551
515 548
515 562
515 726
515 654
515 728
515 750
515 600
515 524
515 577
515 783
515 938
515 934
515 931
515 621
515 924
515 643
515 961
515 550
515 942
515 571
515 525
515 880
515 632
515 748
516 588
516 529
516 534
516 961
516 824
516 541
516 533
516 940
516 599
516 569
516 817
517 956
517 887
517 921
517 590
517 593
517 611
517 625
517 647
517 670
517 722
517 730
517 732
517 799
517 841
517 965
517 980
518 574
518 559
518 970
518 968
518 752
518 674
518 523
519 615
519 757
519 869
519 976
519 574
519 709
519 634
519 866
519 666
519 702
519 565
519 914
519 763
519 669
519 919
519 561
519 623
519 889
519 886
519 542
519 781
519 673
519 660
519 968
519 836
519 730
519 981
519 912
519 576
519 926
519 620
519 636
519 988
519 743
519 925
519 699
519 944
519 532
519 541
519 717
519 936
519 874
519 577
520 559
520 727
520 772
520 653
520 779
520 877
520 658
520 651
520 831
520 702
520 982
520 692
520 705
520 568
520 575
520 633
520 657
520 834
520 858
520 878
520 975
520 876
521 691
521 763
521 983
521 755
521 846
521 620
521 818
521 933
521 617
521 799
521 954
521 748
521 988
521 700
521 822
522 880
522 747
522 841
522 563
522 967
522 632
522 949
522 530
522 575
522 790
522 553
522 552
522 744
522 982
522 852
522 554
522 651
522 878
522 895
522 988
522 842
522 745
523 876
523 635
523 860
523 564
523 734
523 780
523 905
523 947
523 865
523 932
524 739
524 529
524 862
524 737
524 997
524 774
524 728
524 654
524 701
524 632
524 750
524 600
524 764
524 748
524 726
524 612
524 970
524 765
524 875
524 548
524 740
524 874
524 626
524 845
524 767
524 806
524 956
524 949
524 911
524 921
524 754
524 935
524 678
524 577
524 575
524 689
525 579
525 693
525 932
525 620
525 665
525 961
525 633
525 594
525 564
525 681
525 713
525 829
525 865
526 619
526 616
526 841
526 954
526 632
526 697
526 533
526 981
526 807
526 534
526 751
526 933
526 684
526 562
526 758
526 740
526 567
526 836
526 804
526 649
526 719
526 855
527 873
527 669
527 673
527 730
527 560
527 860
527 712
527 620
527 623
527 537
527 566
527 939
527 697
527 929
527 895
527 819
527 932
528 729
528 775
528 912
528 594
528 670
528 577
528 632
528 726
528 748
528 533
528 988
528 817
529 636
529 640
529 639
529 718
529 736
529 795
529 897
529 619
529 767
529 931
529 789
529 976
529 743
529 869
529 810
529 749
529 570
529 724
529 553
529 599
529 884
529 991
529 708
529 938
529 536
529 959
529 827
529 923
529 533
529 822
529 580
529 750
529 646
529 916
529 752
529 717
529 782
529 914
529 679
529 770
529 831
529 787
529 689
529 985
529 559
529 626
529 818
529 715
529 648
529 661
529 550
529 829
529 932
530 732
530 920
530 988
530 910
530 772
530 858
530 906
530 651
530 754
530 608
530 716
530 568
530 718
530 840
530 826
530 575
530 834
530 878
530 817
530 819
531 540
531 891
531 809
531 658
531 772
531 803
531 621
531 657
531 768
531 932
532 694
532 574
532 673
532 541
532 813
532 781
532 693
532 666
532 908
532 909
532 843
532 924
532 634
532 894
532 604
532 671
532 579
532 866
532 669
532 948
532 624
532 702
532 589
532 594
532 651
532 882
532 539
532 990
532 597
532 814
532 847
532 650
532 997
532 629
532 880
532 681
532 661
532 662
532 623
532 697
532 676
532 855
532 852
532 913
533 639
533 643
533 900
533 697
533 968
533 719
533 546
533 844
533 727
533 761
533 677
533 751
533 782
533 684
533 933
533 641
533 864
533 776
533 742
533 826
533 689
533 967
533 976
533 964
533 630
533 721
533 685
533 534
533 949
533 754
533 835
534 739
534 924
534 698
534 807
534 546
534 545
534 949
534 697
534 933
534 558
534 980
534 719
534 945
534 684
534 751
534 741
534 752
534 761
534 614
534 727
534 708
534 838
534 771
534 712
534 892
534 612
534 979
534 836
534 990
534 670
534 730
534 628
534 845
534 937
534 805
534 573
534 577
534 832
535 817
535 904
535 696
535 622
535 716
535 536
535 682
535 538
536 615
536 749
536 570
536 788
536 932
536 555
536 599
536 603
536 708
536 795
536 827
536 616
536 677
536 696
536 852
537 827
537 617
537 851
537 577
537 684
537 696
537 859
538 615
538 795
538 666
538 727
538 734
538 769
538 601
538 738
538 722
538 792
538 838
538 870
538 876
538 740
539 617
539 679
539 902
539 799
539 755
539 611
539 647
539 971
539 824
539 608
539 884
539 969
539 860
539 978
539 705
539 605
539 730
539 753
539 950
540 898
540 621
540 777
540 797
540 691
540 656
540 641
540 867
540 643
540 978
540 757
540 895
540 805
541 593
541 640
541 587
541 986
541 886
541 616
541 666
541 889
541 608
541 783
541 632
541 622
541 771
541 805
541 650
541 552
541 561
541 623
541 671
541 680
541 605
542 837
542 867
542 708
542 693
542 604
542 833
542 651
542 761
542 990
542 796
542 873
542 552
542 813
542 866
542 969
542 670
542 630
542 941
542 911
543 688
543 972
543 968
543 980
543 677
543 716
543 700
543 857
543 952
543 550
543 612
543 949
544 729
544 775
544 638
544 563
544 630
544 737
544 999
544 968
544 981
544 920
544 854
544 700
544 835
544 888
544 808
544 738
544 656
544 963
544 837
544 844
544 724
544 842
544 911
545 848
545 638
545 799
545 782
545 751
545 622
545 838
545 711
545 689
545 661
545 949
545 878
545 820
545 823
546 640
546 795
546 632
546 619
546 744
546 834
546 858
547 976
547 902
547 737
547 630
547 999
547 553
547 593
547 550
547 559
547 847
547 874
547 954
547 858
547 696
548 775
548 705
548 611
548 984
548 976
548 726
548 748
548 682
548 819
549 639
549 747
549 632
549 731
549 836
549 842
549 717
549 954
549 606
549 933
549 712
549 714
549 769
549 823
550 706
550 736
550 743
550 925
550 605
550 678
550 667
550 601
550 635
550 881
550 794
550 718
550 901
550 647
550 559
550 652
550 852
550 860
551 809
551 710
551 954
551 953
551 563
551 663
551 660
551 907
551 847
551 922
551 667
551 903
551 780
551 594
551 792
551 874
551 649
551 962
551 965
551 586
551 997
551 690
551 608
551 679
551 609
551 621
551 976
551 937
551 757
551 601
551 988
551 564
551 959
551 767
551 811
551 625
551 815
551 969
551 947
551 559
551 672
551 957
552 909
552 587
552 616
552 820
552 613
552 727
552 912
552 929
552 835
552 561
552 565
552 574
552 673
552 915
552 986
552 563
552 847
552 778
553 923
553 724
553 749
553 931
553 603
553 897
553 691
553 643
553 822
553 650
553 586
553 996
553 708
553 866
554 699
554 567
554 944
554 974
554 956
554 696
554 591
554 703
554 817
554 842
554 911
554 662
554 823
555 775
555 594
555 582
555 925
555 602
555 873
555 559
555 630
555 678
555 792
555 874
555 992
555 963
555 592
555 993
556 799
556 912
556 684
556 878
556 920
556 842
556 911
556 975
556 665
557 702
557 799
557 630
557 656
557 842
557 779
557 835
557 687
558 783
558 794
558 768
558 871
558 803
558 684
558 949
558 995
558 682
559 706
559 954
559 672
559 912
559 941
559 847
559 690
559 787
559 874
559 630
559 567
559 997
559 996
559 780
559 992
559 903
559 816
559 605
559 786
559 614
559 837
559 760
559 917
559 852
559 966
559 982
559 775
559 855
559 943
559 881
559 588
559 651
559 980
559 875
559 814
559 792
559 965
559 726
559 949
560 757
560 813
560 566
560 854
560 591
560 904
560 842
560 637
560 776
560 652
560 700
560 888
560 629
560 808
560 934
560 627
560 890
560 975
560 703
560 863
560 911
560 958
560 569
560 656
560 738
560 664
560 762
560 742
560 677
560 623
560 838
560 969
560 933
560 723
560 658
560 688
560 775
560 576
561 775
561 757
561 827
561 948
561 914
561 813
561 915
561 896
561 587
561 919
561 894
561 781
561 909
561 579
561 833
561 634
561 604
561 692
561 669
561 570
561 606
561 865
561 599
561 898
561 931
561 996
561 776
561 739
561 965
561 578
561 702
561 763
561 670
561 730
562 692
562 894
562 723
562 758
562 748
562 949
562 651
562 819
563 987
563 757
563 730
563 663
563 881
563 567
563 582
564 615
564 739
564 579
564 899
564 934
564 735
564 742
564 854
564 878
564 750
564 576
564 713
564 829
564 865
564 957
565 729
565 891
565 821
565 888
565 650
565 962
565 572
565 623
565 753
565 968
565 581
565 932
566 739
566 579
566 890
566 712
566 892
566 763
566 569
566 591
566 659
566 734
566 817
566 842
566 696
566 620
566 957
567 718
567 604
567 594
567 941
567 667
567 925
567 816
567 942
567 953
567 967
567 956
567 891
567 595
567 692
567 913
567 866
567 928
567 582
567 741
567 575
567 759
568 887
568 660
568 858
568 873
568 842
568 852
568 713
569 700
569 646
569 911
569 631
569 854
569 917
569 665
569 730
569 889
569 684
569 734
569 713
570 789
570 696
570 902
570 653
570 708
570 795
570 684
571 643
571 893
571 737
571 899
571 996
571 912
571 897
571 684
571 969
571 961
571 638
571 582
571 874
572 715
572 810
572 666
572 616
572 702
572 986
572 908
572 587
572 623
572 896
572 833
572 969
572 866
572 893
572 914
572 574
572 973
572 589
572 983
572 721
572 716
572 726
572 707
572 993
572 611
572 872
572 851
572 610
572 583
572 613
572 597
572 669
572 843
572 622
573 848
573 725
573 615
573 769
573 593
573 640
573 645
573 987
573 730
573 872
573 954
573 575
573 865
574 604
574 847
574 575
574 579
574 616
574 624
574 702
574 908
574 670
574 954
574 677
575 766
575 965
575 651
575 657
575 811
575 642
575 622
575 754
575 916
575 633
575 836
575 858
575 831
575 731
575 618
575 638
575 733
575 711
575 718
575 966
575 861
575 773
575 619
575 698
575 810
575 961
575 813
575 589
575 658
575 772
575 988
576 795
576 670
576 841
576 965
576 632
576 834
576 740
576 950
576 599
576 778
576 792
576 775
576 910
576 747
576 681
576 819
576 865
576 957
577 856
577 630
577 748
577 750
577 632
577 654
577 764
577 970
577 875
577 626
577 745
577 731
577 894
577 948
577 611
577 847
577 693
577 675
577 711
577 717
577 604
577 653
577 726
578 664
578 923
578 616
578 671
578 924
578 926
578 618
578 589
578 624
578 666
578 673
578 915
578 845
578 660
578 954
578 920
578 835
578 581
578 957
579 795
579 908
579 624
579 973
579 986
579 616
579 747
579 886
579 853
579 739
579 691
579 960
579 594
579 839
579 693
579 843
579 732
579 988
579 738
579 829
580 664
580 716
580 736
580 869
580 948
580 970
580 939
580 887
580 837
580 703
580 818
580 798
580 941
580 620
580 743
580 581
580 778
581 722
581 737
581 782
581 658
581 855
581 838
581 592
581 695
581 993
581 601
581 791
581 913
581 986
581 946
581 903
581 810
581 692
581 839
581 665
581 880
581 651
581 861
581 870
582 615
582 872
582 997
582 678
582 861
582 780
582 667
582 792
582 660
582 594
582 996
582 992
582 586
582 649
582 907
582 723
582 630
582 962
582 930
582 720
582 766
582 585
582 629
582 625
582 607
582 908
582 879
582 980
582 734
582 974
582 828
582 797
582 796
582 950
582 632
582 881
582 842
582 859
582 681
583 669
583 717
583 908
583 730
583 632
583 768
583 876
584 848
584 867
584 920
584 853
584 726
584 605
584 613
584 798
584 744
584 834
584 988
584 855
585 881
585 804
585 716
585 595
585 640
585 664
585 688
585 837
585 848
585 763
585 668
586 897
586 833
586 997
586 656
586 695
586 851
586 660
586 672
586 954
586 965
587 615
587 636
587 634
587 894
587 904
587 956
587 936
587 840
587 958
587 950
587 669
587 702
587 813
587 909
587 670
587 610
588 793
588 602
588 837
588 941
588 637
588 593
588 595
588 597
588 615
588 636
588 645
588 648
588 739
588 848
588 708
588 760
588 953
588 682
588 957
589 725
589 739
589 908
589 750
589 760
589 693
589 909
589 965
589 610
589 852
590 615
590 781
590 622
590 676
590 682
590 687
590 689
591 848
591 869
591 919
591 700
591 738
591 728
591 711
591 598
591 994
591 817
591 911
592 828
592 901
592 810
592 778
592 801
592 870
593 729
593 645
593 650
593 840
593 640
593 595
593 793
593 802
593 606
593 929
593 784
593 864
593 648
593 848
593 881
593 918
593 725
593 837
593 602
593 631
593 867
593 596
593 917
593 877
593 841
593 897
593 859
593 713
593 869
593 896
593 858
593 961
593 927
593 664
593 715
593 611
593 726
593 740
593 823
594 621
594 639
594 699
594 924
594 874
594 988
594 682
594 829
595 648
595 650
595 793
595 972
595 918
595 881
595 655
595 966
595 794
595 604
595 615
595 636
595 664
595 706
595 739
595 809
595 848
595 789
595 994
595 702
595 611
595 874
595 980
595 836
595 798
595 740
595 829
596 597
596 843
596 691
596 622
596 598
596 617
596 670
596 730
596 732
596 862
596 719
596 642
596 818
596 852
597 815
597 641
597 781
597 615
597 636
597 640
597 706
597 739
597 864
597 621
597 639
597 611
597 730
597 770
598 621
598 671
598 617
598 830
598 915
598 949
598 707
598 722
598 851
598 858
598 682
598 860
599 848
599 795
599 931
599 976
599 743
599 959
599 767
599 923
599 749
599 827
599 810
599 648
599 804
599 909
599 635
599 752
599 785
599 853
599 842
599 706
599 603
599 708
599 736
600 809
600 810
600 660
600 973
600 911
600 726
600 748
600 807
600 659
600 696
600 733
601 794
601 889
601 858
601 939
601 829
601 799
601 687
601 832
601 870
601 876
601 805
601 865
602 880
602 971
602 795
602 652
602 615
602 636
602 645
602 648
602 706
602 848
602 991
602 774
602 731
602 668
602 713
603 724
603 749
603 897
603 741
603 675
603 875
603 805
603 674
603 708
603 789
603 795
603 994
603 842
604 985
604 669
604 702
604 813
604 954
604 656
604 800
605 816
605 951
605 647
605 663
605 672
605 988
605 738
605 696
606 809
606 636
606 688
606 881
606 613
606 664
606 739
606 714
607 688
607 864
607 803
607 898
607 644
607 862
607 665
607 713
607 865
608 809
608 648
608 784
608 918
608 990
608 773
608 615
608 636
608 664
608 706
608 739
608 848
608 811
608 714
609 624
609 669
609 971
609 991
609 803
609 699
609 670
609 710
609 730
609 851
609 992
609 782
609 642
610 623
610 702
610 808
610 738
610 794
610 726
610 686
610 817
610 842
610 934
610 855
610 745
610 823
611 636
611 983
611 617
611 857
611 760
611 647
611 985
611 902
611 971
611 625
611 825
611 851
611 613
611 680
611 849
611 722
611 821
611 627
611 931
611 850
611 739
611 999
611 994
611 681
611 960
611 892
611 661
611 670
611 730
611 799
611 772
611 687
612 705
612 872
612 632
612 726
612 748
612 911
613 879
613 795
613 669
613 647
613 851
613 936
613 945
614 664
614 782
614 677
614 949
614 975
614 860
615 848
615 729
615 645
615 650
615 802
615 864
615 804
615 783
615 706
615 881
615 640
615 715
615 793
615 880
615 837
615 873
615 929
615 636
615 854
615 855
615 780
615 679
615 635
615 883
615 626
615 823
615 779
615 623
615 955
615 668
615 920
615 739
615 784
615 757
615 911
615 707
616 803
616 905
616 763
616 893
616 821
616 987
616 751
616 623
616 669
616 693
616 833
616 852
617 636
617 851
617 732
617 846
617 900
617 882
617 722
617 807
617 757
617 893
617 958
617 997
617 711
617 670
617 841
617 921
617 660
617 684
617 742
617 646
617 911
617 913
618 848
618 851
618 733
618 907
618 683
618 837
618 812
618 836
618 988
618 646
618 932
619 848
619 976
619 749
619 789
619 853
619 726
619 953
619 708
619 718
619 795
619 869
619 624
619 714
619 823
620 941
620 816
620 794
620 713
620 819
620 829
620 865
620 957
621 636
621 716
621 848
621 777
621 639
621 955
621 694
621 704
621 892
621 699
621 863
621 954
621 686
621 894
621 924
621 985
621 879
621 891
621 644
621 691
621 825
621 814
622 789
622 887
622 811
622 995
622 877
622 906
622 779
622 853
622 910
622 858
622 959
622 677
622 652
622 641
622 714
622 829
622 860
623 873
623 708
623 821
623 709
623 781
623 794
623 671
623 914
623 666
623 889
623 973
623 705
623 668
623 887
623 808
623 724
623 872
623 720
623 990
623 669
623 625
623 851
623 954
623 963
623 759
624 766
624 669
624 671
624 893
624 692
624 702
624 781
624 973
624 791
624 744
624 652
624 666
624 678
624 782
625 918
625 639
625 661
625 680
625 825
625 862
625 882
625 872
625 670
625 732
625 730
625 846
625 749
625 634
625 935
625 927
625 633
625 886
625 753
625 851
625 792
625 829
626 994
626 680
626 690
626 649
626 863
626 982
626 730
626 799
626 851
626 872
626 967
626 911
627 802
627 873
627 917
627 796
627 662
627 734
627 842
627 911
627 819
628 771
628 775
628 777
628 757
628 879
628 978
628 940
628 882
628 664
628 668
628 705
628 909
628 658
628 759
629 636
629 999
629 726
629 831
629 700
629 842
629 963
629 870
630 648
630 931
630 899
630 999
630 965
630 861
630 930
630 792
630 653
630 805
630 655
630 821
630 856
630 660
630 737
630 954
630 967
630 703
630 689
630 696
631 923
631 654
631 748
631 746
631 842
632 881
632 931
632 702
632 765
632 728
632 875
632 750
632 824
632 815
632 794
632 696
632 954
632 786
632 679
632 726
632 748
632 838
632 865
633 802
633 922
633 741
633 915
633 843
633 879
633 642
633 878
633 920
633 838
633 913
634 976
634 796
634 846
634 713
634 673
634 702
634 833
634 878
634 855
635 879
635 952
635 743
635 827
635 649
635 696
635 946
635 962
635 740
635 829
635 932
635 957
636 880
636 706
636 804
636 725
636 864
636 784
636 881
636 783
636 716
636 972
636 664
636 688
636 802
636 888
636 922
636 681
636 996
636 690
636 764
636 985
636 670
636 965
636 665
636 837
636 848
636 705
636 702
636 862
636 878
637 799
637 979
637 934
637 738
637 692
637 815
637 688
637 911
637 975
638 797
638 891
638 724
638 814
638 639
638 702
638 672
639 777
639 797
639 643
639 766
639 691
639 704
639 892
639 773
639 867
639 879
639 644
639 883
639 757
639 955
639 865
639 736
639 763
639 980
639 852
639 870
639 993
640 645
640 706
640 972
640 918
640 729
640 809
640 840
640 664
640 882
640 993
640 832
640 962
640 958
640 790
640 861
640 921
640 650
640 739
640 673
640 678
640 847
640 899
640 954
641 809
641 795
641 931
641 726
641 698
641 731
641 831
641 988
641 842
641 675
641 865
641 972
641 958
641 870
641 757
641 708
641 742
641 775
641 877
641 925
641 740
641 932
642 708
642 717
642 851
642 684
642 742
642 916
642 877
642 731
642 812
642 653
642 872
642 727
642 981
642 945
642 757
642 678
642 745
642 831
642 920
642 988
642 819
642 926
643 775
643 797
643 955
643 766
643 699
643 803
643 704
643 978
643 777
643 644
643 791
643 684
643 961
643 667
643 685
643 694
643 757
643 755
643 748
643 734
643 876
644 777
644 952
644 879
644 898
644 803
644 891
644 940
644 655
644 945
644 761
644 778
644 999
644 685
644 694
644 851
644 659
644 958
645 987
645 879
645 796
645 928
645 783
645 691
645 705
645 953
645 684
645 819
646 891
646 834
646 723
646 700
646 738
646 842
646 911
646 934
646 696
646 855
647 693
647 983
647 846
647 730
647 861
647 754
647 994
647 920
647 666
647 998
647 799
647 851
647 842
648 715
648 802
648 809
648 729
648 784
648 871
648 873
648 664
648 660
648 757
648 904
648 684
648 846
648 697
648 738
648 739
648 891
648 694
648 905
648 689
649 896
649 982
649 660
649 847
649 965
649 997
649 681
649 805
650 799
650 944
650 667
650 945
650 860
650 861
650 698
650 848
650 897
650 902
650 734
650 806
651 995
651 742
651 812
651 754
651 779
651 653
651 877
651 863
651 709
651 788
651 702
651 666
651 804
651 726
651 911
651 816
651 800
651 802
651 792
651 858
651 878
651 689
651 713
652 965
652 781
652 842
652 865
653 832
653 820
653 812
653 836
653 878
654 792
654 885
654 726
654 748
655 795
655 662
655 888
655 675
655 713
655 860
655 865
655 957
656 936
656 941
656 858
656 700
656 778
656 811
656 680
656 805
656 842
656 934
656 963
656 928
657 987
657 693
657 988
657 895
657 742
657 706
657 674
657 698
657 982
657 952
657 672
657 884
657 917
657 920
657 778
658 824
658 667
658 836
658 812
658 910
658 687
658 761
658 890
658 862
658 943
658 834
659 795
659 734
659 911
659 975
660 670
660 962
660 941
660 999
660 996
660 672
660 899
660 965
660 847
660 794
660 694
660 901
660 838
660 861
660 954
660 988
660 818
660 829
661 824
661 755
661 700
661 733
661 961
661 730
661 841
661 847
662 788
662 862
662 752
662 682
662 733
662 855
663 716
663 885
663 925
663 899
663 861
663 920
663 744
663 758
663 792
663 992
663 697
663 817
664 716
664 972
664 840
664 881
664 873
664 739
664 814
664 669
664 829
664 877
664 894
664 689
664 745
665 708
665 923
665 924
665 730
665 870
665 675
665 867
665 757
665 837
665 912
665 705
665 751
665 740
665 829
665 932
665 957
666 886
666 738
666 903
666 788
666 857
666 979
666 673
666 992
666 980
666 731
667 783
667 894
667 702
667 723
667 792
667 874
667 954
667 822
668 763
668 750
668 883
668 712
668 829
668 932
668 950
668 957
669 691
669 886
669 692
669 914
669 709
669 969
669 723
669 964
669 976
669 673
669 702
669 946
670 837
670 936
670 857
670 825
670 730
670 971
670 679
670 753
670 722
670 760
670 985
670 949
670 886
670 802
670 759
670 729
670 701
670 732
670 862
670 742
670 989
670 745
670 839
671 797
671 692
671 969
671 794
671 908
671 886
671 833
671 685
671 732
671 906
671 953
671 702
671 717
671 965
671 684
671 714
671 712
672 690
672 694
672 792
672 874
673 784
673 833
673 920
673 844
673 780
673 831
673 674
673 832
674 931
674 849
674 958
674 809
674 964
674 734
674 835
674 842
674 934
674 689
675 802
675 749
675 762
675 926
675 839
675 833
675 942
675 747
675 678
675 872
675 713
675 865
675 932
676 848
676 825
676 977
676 708
676 952
676 696
676 860
677 699
677 922
677 698
677 761
677 818
677 946
677 694
677 896
677 893
677 684
677 859
677 957
678 705
678 903
678 962
678 937
678 819
678 969
678 833
678 874
678 941
678 965
678 817
678 714
678 932
679 706
679 738
679 968
679 722
679 753
679 690
680 755
680 983
680 936
680 971
680 766
680 966
680 753
680 799
680 878
681 795
681 780
681 816
681 822
681 860
681 785
681 729
681 748
681 957
682 739
682 842
682 769
682 943
682 855
682 818
682 927
682 696
682 940
682 815
682 998
682 800
682 814
682 822
682 689
682 836
682 731
682 889
682 781
682 708
682 930
682 856
682 686
682 864
682 964
682 912
682 860
683 848
683 816
683 998
683 893
683 684
683 980
683 947
683 712
684 967
684 782
684 727
684 968
684 751
684 761
684 741
684 844
684 920
684 990
684 811
684 867
684 949
684 980
684 932
685 773
685 775
685 879
685 691
685 797
685 752
685 896
685 694
685 757
685 862
685 861
685 954
685 859
686 956
686 863
686 944
686 979
686 837
686 708
686 703
686 734
686 817
686 842
686 911
686 975
687 803
687 757
687 851
687 980
687 904
687 711
687 744
687 943
687 758
687 796
687 770
687 696
687 730
687 806
687 752
687 837
687 688
687 878
687 832
687 706
687 994
687 689
687 714
687 998
687 957
688 716
688 779
688 754
688 776
688 757
688 739
688 848
688 965
688 734
688 842
689 741
689 756
689 758
689 927
689 818
689 943
689 721
689 937
689 817
689 965
689 708
689 814
689 855
690 991
690 737
690 942
690 835
690 849
690 723
690 786
690 792
690 967
690 975
690 733
690 829
690 957
691 771
691 757
691 699
691 955
691 890
691 990
691 727
691 705
691 965
691 719
691 806
691 712
692 946
692 750
692 709
692 909
692 730
692 835
693 908
693 924
693 794
693 893
693 781
693 853
693 831
693 953
693 909
693 968
693 740
694 867
694 892
694 952
694 705
694 797
694 725
694 938
694 732
694 870
695 972
695 723
695 852
695 876
696 744
696 770
696 943
696 984
696 796
696 814
696 935
696 758
696 998
696 756
696 937
696 721
696 951
696 850
696 977
696 897
696 899
696 947
696 949
696 922
696 978
696 817
696 752
696 739
696 970
696 824
696 714
697 949
697 956
697 867
697 802
697 698
697 778
698 945
698 704
698 965
698 858
698 878
698 957
699 797
699 883
699 891
699 757
699 898
699 704
699 758
699 718
699 842
699 712
700 887
700 847
700 888
700 958
700 961
700 803
700 941
700 954
700 838
700 764
700 913
700 744
700 778
700 826
700 842
700 932
701 729
701 873
701 851
701 861
701 954
701 713
701 726
701 703
702 848
702 763
702 889
702 843
702 969
702 973
702 915
702 922
702 940
702 845
702 855
702 771
702 738
702 732
702 872
702 998
703 896
703 968
703 979
703 975
703 739
703 802
703 915
703 941
703 734
703 835
703 934
703 951
703 876
704 848
704 775
704 891
704 892
704 846
704 727
705 848
705 775
705 867
705 879
705 892
705 891
705 955
705 757
705 897
705 912
705 905
705 843
705 889
705 999
705 878
705 950
706 727
706 940
706 848
706 952
706 849
706 956
706 786
706 847
706 954
707 965
707 934
707 761
707 713
707 740
707 932
707 957
708 739
708 749
708 884
708 897
708 827
708 976
708 991
708 869
708 743
708 931
708 938
708 789
708 795
708 804
708 819
708 904
708 894
708 906
708 808
708 992
708 800
708 738
708 740
708 790
708 961
709 724
709 867
709 965
709 746
709 919
709 988
709 860
710 971
710 983
710 732
710 851
710 872
710 988
711 929
711 753
711 900
711 813
711 866
711 814
711 855
711 998
712 736
712 740
712 805
712 727
712 829
712 932
712 957
713 763
713 902
713 815
713 855
713 870
713 740
713 964
713 745
713 762
713 820
713 860
713 755
713 885
713 720
713 769
713 896
713 727
713 759
713 737
713 986
713 908
713 819
713 957
714 972
714 842
714 815
714 935
714 756
714 796
714 800
714 940
714 759
714 792
714 971
714 999
714 813
714 985
714 998
714 870
715 787
715 764
715 803
715 848
715 795
715 878
716 930
716 725
716 864
716 771
716 879
717 969
717 914
717 955
717 940
717 763
717 833
717 896
717 909
717 851
717 878
717 998
718 790
718 901
718 731
718 795
718 869
718 994
718 799
718 933
719 965
719 949
719 782
719 741
719 944
719 731
719 855
719 839
720 775
720 732
720 792
720 992
721 898
721 895
721 859
722 983
722 985
722 900
722 845
722 788
722 956
722 887
722 824
722 858
722 931
722 811
722 751
722 770
722 905
722 965
722 726
722 774
722 993
722 903
722 936
723 787
723 792
723 997
723 922
723 933
723 863
723 978
723 874
723 734
723 852
724 810
724 736
724 801
724 859
724 962
724 819
724 749
724 795
724 842
725 729
725 987
725 975
725 841
725 864
725 867
725 949
726 891
726 757
726 970
726 875
726 765
726 728
726 733
726 958
726 883
726 964
726 919
726 892
726 738
727 873
727 953
727 954
727 838
727 823
727 832
728 869
728 874
728 954
728 949
728 800
728 829
729 947
729 739
729 848
729 864
729 831
729 734
730 887
730 882
730 760
730 971
730 902
730 851
730 799
730 985
730 983
730 788
730 845
730 846
730 872
730 841
730 857
730 956
730 755
730 939
730 766
730 865
730 843
730 869
730 778
730 992
730 764
730 896
730 962
730 836
730 972
730 824
730 911
731 834
731 769
731 878
731 911
731 855
732 956
732 803
732 817
732 801
733 788
733 980
733 830
733 804
733 833
733 742
733 739
733 855
733 998
734 799
734 960
734 817
734 934
734 835
734 979
734 808
734 842
734 854
734 738
734 917
734 961
734 944
734 902
734 764
734 908
734 815
735 793
735 777
735 905
735 838
735 761
735 920
735 984
735 893
735 825
735 829
735 865
736 789
736 779
736 772
736 795
737 962
737 868
737 939
737 937
737 792
737 861
737 953
737 967
737 855
737 852
738 846
738 743
738 999
738 995
738 756
738 865
738 817
738 842
738 758
739 802
739 864
739 929
739 880
739 871
739 848
739 840
739 809
739 881
739 837
739 987
739 974
739 952
739 990
739 939
739 904
739 779
739 758
739 984
739 777
739 759
739 771
739 865
740 999
740 998
740 852
740 957
740 820
740 756
740 819
740 865
741 867
741 894
741 924
741 980
741 962
741 770
741 932
742 783
742 793
742 836
742 988
742 934
742 778
743 789
743 795
744 761
744 855
744 859
745 967
745 911
745 832
745 957
745 750
745 865
746 811
746 810
746 819
746 865
746 957
747 844
747 909
747 911
748 799
748 921
748 765
748 970
748 764
748 864
748 972
748 926
748 901
748 843
748 772
748 912
749 767
749 964
749 780
749 845
749 795
749 994
749 934
750 757
750 874
750 990
751 949
751 834
752 949
753 985
753 824
753 902
753 851
753 788
753 983
753 900
753 846
753 760
753 773
753 767
753 805
753 914
753 897
753 942
753 821
753 872
753 819
754 976
754 994
754 833
754 903
754 836
754 858
754 878
754 920
754 839
755 856
755 948
755 985
755 759
755 830
755 895
755 953
755 779
755 799
755 851
755 921
755 874
755 852
756 869
756 763
756 786
756 914
757 773
757 797
757 879
757 771
757 891
757 955
757 892
757 766
757 903
757 908
757 814
757 932
758 978
758 766
758 795
758 816
758 855
760 932
760 982
760 799
760 922
760 836
760 957
761 799
761 954
761 782
761 949
761 881
761 831
761 852
762 959
762 981
762 819
762 932
762 950
763 795
763 794
763 894
763 833
763 949
763 797
763 965
763 812
765 967
765 949
765 836
765 934
766 771
766 978
766 789
766 968
767 795
767 954
767 895
768 826
768 944
768 831
768 852
769 954
769 774
769 873
769 855
769 838
769 819
770 874
770 934
770 828
770 958
770 814
771 898
771 856
771 883
771 936
771 976
771 938
771 775
771 891
771 978
771 795
771 817
771 842
772 994
772 799
772 861
772 920
772 906
772 858
772 781
772 808
772 806
772 973
772 836
772 988
772 835
773 856
773 966
773 926
773 797
774 874
774 885
774 988
774 791
775 978
775 879
775 797
775 883
775 898
775 955
775 896
775 854
775 843
775 924
775 932
776 817
776 911
776 975
777 964
777 797
777 867
777 892
777 956
778 954
778 831
778 817
778 876
778 784
778 917
778 838
778 852
778 913
779 784
779 893
779 895
779 988
779 865
780 874
780 954
781 989
781 830
781 953
781 878
781 832
782 844
782 980
782 807
782 883
782 955
782 966
782 825
782 962
782 895
783 837
783 848
783 809
783 887
783 876
784 986
784 905
784 900
784 988
785 864
785 825
785 958
785 838
785 852
785 870
786 942
786 852
786 797
786 822
786 792
786 874
786 965
786 967
786 806
787 797
787 843
787 792
787 965
788 936
788 839
788 947
788 838
788 879
788 851
789 972
789 795
789 825
789 920
790 809
790 816
790 792
790 963
791 895
791 988
791 815
791 876
792 987
792 992
792 999
792 912
792 885
792 874
792 863
792 796
792 843
792 853
792 871
792 868
792 833
792 847
793 941
793 848
793 874
793 998
794 856
794 984
794 862
794 896
795 848
795 897
795 827
795 810
795 994
795 931
795 976
795 884
795 869
795 815
795 932
795 926
795 948
795 863
795 905
795 898
795 806
795 946
795 872
795 855
796 855
797 883
797 978
797 952
797 867
797 803
797 988
797 950
797 970
797 848
797 891
798 814
798 855
799 969
799 902
799 956
799 824
799 862
799 936
799 985
799 841
799 939
799 813
799 863
799 943
799 806
799 847
799 871
799 921
799 941
799 954
799 949
800 810
800 826
800 855
800 870
801 905
801 817
801 893
801 852
801 932
802 809
802 881
802 804
802 811
802 839
803 873
803 856
803 898
803 997
803 835
803 855
803 838
804 995
804 818
804 826
804 918
804 843
804 915
804 992
804 834
805 939
805 931
805 829
805 865
805 957
806 832
806 826
806 993
806 863
806 852
806 876
807 940
807 942
807 878
807 912
807 949
808 981
808 842
809 840
809 882
809 824
809 988
809 963
810 962
810 817
810 908
810 855
810 950
811 869
811 878
811 988
812 898
812 910
812 900
812 917
812 895
812 988
812 842
813 821
813 847
813 919
813 997
813 949
814 837
814 946
814 927
814 947
814 832
814 912
814 838
814 818
815 837
815 975
815 974
815 842
816 892
816 934
816 860
816 965
816 992
816 842
816 838
816 865
817 979
817 863
817 835
817 904
817 934
817 944
817 888
817 854
817 963
817 886
817 847
817 932
818 965
818 928
818 855
819 879
819 850
819 860
819 964
819 823
819 943
819 864
819 929
819 866
819 957
820 862
820 839
820 865
820 932
821 900
821 872
821 836
822 855
823 878
823 855
823 865
823 932
823 957
824 882
824 886
824 966
824 841
824 862
824 953
824 911
825 841
825 872
825 852
826 959
826 909
826 954
826 832
826 870
827 848
827 880
827 923
827 937
827 968
827 892
827 858
827 979
828 841
828 907
828 855
828 852
829 932
829 929
829 875
829 957
830 918
830 879
830 874
830 855
831 910
831 853
831 893
831 840
831 846
831 878
832 836
832 876
832 838
832 928
832 982
832 845
832 917
832 863
832 852
832 870
833 919
833 896
833 954
833 867
833 999
833 839
834 988
834 877
834 843
834 858
834 878
834 920
835 909
835 988
835 975
835 961
835 862
835 842
835 934
836 908
836 902
836 920
836 981
836 897
836 892
836 878
836 988
837 848
837 889
837 913
837 947
837 967
837 918
837 884
837 994
837 896
837 842
838 868
838 990
838 840
838 927
838 890
838 935
838 843
838 943
838 889
839 988
839 865
839 932
840 928
840 935
840 843
841 955
841 971
841 846
841 935
841 891
841 930
841 893
841 868
841 902
841 988
842 958
842 904
842 911
842 917
842 863
842 934
842 975
842 891
842 924
842 914
842 910
842 978
842 905
842 948
842 871
843 973
843 924
843 886
843 976
843 965
843 876
844 949
845 918
845 936
845 852
846 879
846 969
846 851
846 941
847 848
847 903
847 866
847 953
848 880
848 987
848 918
848 864
848 929
848 943
848 923
848 899
848 933
848 878
848 957
849 972
849 869
849 862
850 872
850 876
850 932
850 957
851 894
851 985
851 971
851 887
851 902
851 882
851 872
851 936
851 965
851 918
851 920
851 949
851 878
852 876
852 868
852 993
852 870
852 966
852 947
852 901
852 982
852 865
852 859
852 967
852 886
852 862
852 922
852 887
853 892
853 878
853 979
854 885
854 911
854 934
855 998
855 940
855 984
855 990
855 908
855 868
855 996
855 870
855 957
856 867
856 879
856 978
857 994
858 878
858 988
858 971
858 870
859 897
859 891
860 964
860 957
861 986
861 907
861 952
861 978
861 928
862 886
862 971
862 970
862 920
862 961
863 993
863 934
863 975
864 871
864 873
864 918
864 957
864 996
864 979
864 883
864 930
865 967
865 932
865 926
865 957
865 919
865 882
865 991
865 866
866 896
866 872
866 969
866 949
866 957
867 883
867 983
867 944
867 978
868 988
868 934
868 876
869 959
869 938
869 897
869 903
869 932
870 947
870 974
870 993
870 939
870 928
870 913
870 985
870 925
870 948
870 957
870 998
870 898
871 965
872 887
872 999
872 979
874 885
874 899
874 915
874 884
874 965
875 980
875 988
876 913
876 982
876 988
877 878
878 895
878 977
878 988
878 916
878 906
878 917
878 982
878 924
878 949
878 969
878 936
878 934
879 898
879 902
880 961
880 920
880 979
882 978
883 891
883 955
883 919
884 967
885 954
885 977
885 913
886 918
887 921
888 909
888 957
889 987
890 967
890 920
890 988
890 911
891 978
892 961
892 978
892 992
893 909
893 915
893 907
894 919
895 952
895 920
895 912
895 988
896 969
896 909
897 955
897 984
897 969
897 932
898 988
898 985
898 949
898 986
898 968
899 923
899 909
899 927
899 992
899 949
900 972
900 906
901 987
902 910
902 992
902 934
903 951
903 954
903 965
904 972
904 911
904 934
904 989
905 939
905 906
907 923
907 954
907 965
908 980
908 934
909 915
909 956
909 963
910 989
911 934
911 958
911 963
911 976
912 954
912 992
912 913
913 978
914 957
915 957
915 980
916 986
917 949
917 932
920 996
920 988
921 936
921 986
921 943
925 969
925 933
925 965
925 957
926 998
926 932
926 957
927 936
927 941
928 954
931 934
931 989
932 938
932 950
932 964
932 996
932 967
932 991
932 999
933 980
934 960
934 942
934 987
934 977
935 967
936 942
936 945
936 963
936 957
937 965
938 998
939 965
941 999
941 986
941 949
941 980
942 954
944 996
944 950
945 949
947 949
949 981
949 980
949 954
949 960
949 989
950 965
950 971
950 957
953 988
953 954
954 996
954 965
954 958
954 967
954 981
956 959
957 964
957 978
958 975
959 994
960 963
961 987
962 965
963 968
965 996
965 992
965 997
965 971
965 994
967 979
967 988
968 980
969 973
971 993
974 998
977 988
979 998
980 981
984 998
988 995
992 996
