0 850
0 94
0 987
0 347
0 134
0 653
0 626
0 398
0 269
0 631
0 815
0 17
0 859
0 164
0 941
0 762
0 312
0 700
0 288
0 920
0 644
0 307
0 990
0 713
0 848
0 676
0 278
0 202
0 95
0 208
0 366
0 178
0 310
0 901
0 883
0 326
0 665
0 421
0 810
0 148
0 754
0 4
0 821
0 636
0 620
0 440
0 678
0 469
0 121
0 768
0 979
0 621
0 628
0 120
0 136
0 689
0 690
0 319
0 872
0 404
0 75
1 165
1 161
1 306
1 723
1 5
1 873
1 419
1 667
1 946
1 719
1 725
1 355
1 360
1 467
1 275
1 293
1 908
1 206
1 587
1 673
1 603
1 988
1 791
1 196
1 978
1 324
1 836
1 782
1 996
1 18
1 414
1 110
1 152
1 343
1 90
1 243
1 135
1 254
1 239
1 320
1 406
1 541
1 923
1 538
1 560
1 562
1 843
1 599
1 116
2 820
2 248
2 392
2 684
2 798
2 983
2 396
2 402
2 717
2 668
2 270
2 802
2 788
2 559
2 83
2 803
2 760
2 481
2 938
2 747
2 591
2 930
2 43
2 289
2 679
2 361
2 971
2 623
2 556
2 155
2 251
2 544
2 40
2 75
2 111
2 642
2 656
2 681
2 718
2 751
2 755
2 349
2 351
2 368
2 372
2 375
2 892
2 927
2 424
3 131
3 618
3 139
3 605
3 961
3 611
3 342
3 428
3 805
3 575
3 311
3 219
3 493
3 523
3 274
3 515
3 149
3 327
3 584
3 767
3 82
3 576
3 13
3 443
3 664
3 484
3 365
3 244
3 960
3 956
3 870
3 374
3 622
3 200
3 214
3 151
3 594
3 226
3 329
3 466
3 232
4 653
4 277
4 810
4 134
4 848
4 700
4 883
4 941
4 446
4 178
4 143
4 632
4 399
4 120
4 772
4 278
4 621
4 636
4 440
4 404
4 421
4 850
4 563
4 469
4 136
4 928
4 442
4 94
4 624
4 121
4 676
4 689
4 690
4 713
4 762
4 768
4 815
4 821
4 319
4 901
4 912
4 987
5 538
5 541
5 599
5 293
5 284
5 537
5 239
5 667
5 849
5 196
5 320
5 135
5 264
5 782
5 275
5 786
5 406
5 419
5 161
5 946
5 562
5 306
5 836
5 585
5 719
5 978
5 723
5 343
5 603
5 996
5 243
5 254
6 678
6 164
6 469
6 94
6 772
6 202
6 665
6 401
6 764
6 17
6 288
6 160
6 563
6 95
6 620
6 621
6 624
6 631
6 120
6 121
6 636
6 644
6 143
6 676
6 689
6 690
6 700
6 754
6 762
6 821
6 901
6 399
6 912
6 404
7 385
7 256
7 229
7 692
7 535
7 989
7 20
7 86
7 332
7 499
7 66
7 845
7 267
7 574
7 964
7 98
7 748
7 240
7 757
8 385
8 516
8 98
8 705
8 449
8 229
8 66
8 614
8 739
8 20
8 61
8 86
8 964
8 704
8 256
8 267
8 783
8 37
8 574
8 332
8 845
8 598
8 492
8 750
8 240
8 757
8 638
9 54
9 470
9 830
9 346
9 846
9 171
9 166
9 819
9 677
9 502
9 510
9 182
9 423
9 568
9 697
9 185
9 957
9 583
9 729
9 119
10 641
10 387
10 852
10 370
10 408
10 606
10 371
10 752
10 186
10 730
10 192
10 113
10 674
10 491
10 295
10 89
10 777
10 112
10 759
10 840
10 352
10 184
10 985
10 826
10 640
10 608
10 472
10 474
10 445
10 952
10 191
10 359
10 570
10 814
10 79
11 514
11 972
11 157
11 458
11 677
11 470
11 981
11 171
11 91
11 819
11 176
11 285
11 434
11 65
11 185
11 182
11 806
11 170
11 957
11 830
11 325
11 583
11 846
11 729
11 346
11 104
11 119
11 510
12 455
12 982
12 315
12 105
12 273
12 633
12 513
12 954
12 169
12 106
12 388
12 255
12 142
12 787
12 30
12 660
12 245
12 96
12 304
12 294
12 992
12 390
12 588
12 266
12 260
12 195
12 965
12 918
12 109
12 87
12 949
12 580
12 589
12 549
12 126
12 879
12 851
12 504
12 340
12 670
12 242
12 525
12 301
12 298
12 465
12 437
12 807
12 425
12 765
12 52
12 785
12 132
12 766
12 403
12 763
12 602
12 519
12 138
12 26
12 607
12 579
12 769
12 969
12 199
12 350
12 997
12 943
12 263
12 16
12 287
12 903
12 833
12 488
12 88
13 131
13 523
13 327
13 342
13 232
13 443
13 622
13 428
13 374
13 82
13 515
13 151
13 274
13 244
13 805
13 420
13 484
13 956
13 219
13 611
13 576
13 594
13 311
13 365
13 453
13 870
13 493
13 329
13 200
13 149
13 618
13 961
13 584
13 960
13 605
13 139
13 466
14 448
14 133
14 944
14 283
14 296
14 905
14 140
14 895
14 800
14 682
14 643
14 415
14 159
14 524
14 909
14 225
14 259
14 391
14 286
14 663
14 518
14 198
14 687
14 936
14 302
14 801
14 389
14 162
14 666
14 28
14 756
14 882
14 292
14 865
14 716
14 980
14 356
14 313
14 812
14 357
14 490
14 995
14 463
14 749
14 655
14 373
14 862
14 695
14 137
14 253
14 688
14 153
14 939
14 740
14 966
14 377
14 480
14 29
14 776
14 646
14 416
14 380
14 789
14 507
14 967
14 139
14 711
14 203
14 337
15 395
15 863
15 378
15 929
15 412
15 911
15 708
15 460
15 835
15 130
15 951
15 475
15 794
15 842
15 305
15 706
15 506
15 426
15 868
15 823
15 733
15 915
15 417
15 838
15 799
15 237
15 528
15 919
15 188
15 21
15 744
15 547
15 381
15 818
15 595
15 22
15 753
15 496
15 994
15 894
15 854
15 586
15 898
15 430
15 910
15 209
15 33
15 832
15 36
15 54
15 55
15 62
15 600
15 144
15 675
15 710
15 257
15 790
15 318
15 857
15 888
15 926
15 418
15 427
15 441
15 454
15 975
15 498
15 511
16 765
16 260
16 851
16 965
16 403
16 266
16 916
16 602
16 982
16 580
16 282
16 525
16 102
16 350
16 255
16 969
16 106
16 519
16 807
16 588
16 138
16 766
16 132
16 340
16 245
16 787
16 549
16 287
16 997
16 488
16 771
16 315
16 142
16 301
16 109
16 579
16 298
16 513
16 105
16 455
16 96
16 504
16 169
16 670
16 918
16 26
16 52
16 126
16 242
16 763
16 526
16 589
16 87
16 607
16 294
16 992
17 520
17 252
17 872
17 941
17 901
17 366
17 628
17 442
17 208
17 864
17 762
17 121
17 700
17 95
17 94
17 620
17 621
17 631
17 120
17 636
17 134
17 649
17 689
17 690
17 754
17 810
17 815
17 821
17 850
17 404
17 421
18 908
18 923
18 599
18 410
18 264
18 196
18 135
18 792
18 782
18 988
18 419
18 152
18 407
18 603
18 306
18 925
18 303
18 90
18 161
18 541
18 836
18 414
18 673
18 560
18 723
18 849
18 537
18 293
18 946
18 562
18 324
18 585
18 719
18 725
18 243
19 512
19 261
19 363
19 485
19 213
19 118
19 728
19 205
19 601
19 774
19 31
19 476
19 163
19 330
19 383
19 457
19 856
19 93
19 204
19 158
19 456
19 581
19 737
19 610
19 804
19 35
19 122
19 715
19 500
19 573
19 503
19 223
19 893
19 508
19 34
19 743
19 860
19 963
19 712
19 189
19 220
19 505
19 886
19 707
20 384
20 385
20 267
20 748
20 964
20 66
20 574
20 614
20 61
20 499
20 535
20 548
20 692
20 449
20 845
20 85
20 598
20 98
20 240
20 498
21 533
21 22
21 454
21 381
21 318
21 460
21 734
21 265
21 857
21 935
21 733
21 625
21 144
21 911
21 33
21 58
21 62
21 586
21 595
21 675
21 188
21 216
21 753
21 257
21 790
21 305
21 835
21 842
21 334
21 847
21 863
21 868
21 378
21 919
21 412
21 427
21 975
21 994
21 498
21 511
22 265
22 475
22 426
22 731
22 24
22 937
22 314
22 378
22 216
22 907
22 600
22 744
22 197
22 922
22 935
22 854
22 322
22 54
22 680
22 395
22 305
22 818
22 418
22 951
22 412
22 496
22 900
22 753
22 847
22 180
22 625
22 257
22 888
22 710
22 790
22 188
22 706
22 726
22 55
22 506
22 926
22 868
22 708
22 962
22 838
22 586
22 193
22 857
22 430
22 441
22 533
22 144
22 381
22 498
22 835
22 595
22 910
22 919
22 237
22 842
22 209
22 929
22 417
22 894
22 911
22 221
22 823
22 547
22 675
22 33
22 454
22 39
22 334
22 427
22 915
22 794
22 528
22 863
22 799
22 975
22 318
22 898
22 546
22 734
22 62
22 832
22 994
22 36
22 460
22 345
22 607
22 58
23 128
23 904
23 268
23 271
23 527
23 146
23 400
23 272
23 659
23 471
23 276
23 877
23 478
23 844
23 977
23 339
23 853
23 88
23 742
23 382
23 106
24 533
24 708
24 395
24 898
24 675
24 794
24 962
24 922
24 799
24 680
24 919
24 221
24 975
24 36
24 726
24 600
24 33
24 857
24 412
24 915
24 417
24 55
24 58
24 62
24 586
24 595
24 144
24 180
24 706
24 710
24 733
24 734
24 753
24 257
24 790
24 305
24 818
24 823
24 318
24 835
24 842
24 334
24 868
24 888
24 378
24 900
24 926
24 427
24 441
24 454
24 460
24 475
24 994
24 498
25 129
25 897
25 521
25 45
25 671
25 123
25 44
25 411
25 592
25 564
25 344
25 235
25 615
25 234
25 635
25 77
25 550
25 331
25 103
25 881
25 156
25 543
25 932
25 309
25 333
25 459
25 878
26 513
26 525
26 765
26 903
26 109
26 589
26 106
26 390
26 294
26 273
26 102
26 607
26 771
26 579
26 918
26 304
26 670
26 132
26 315
26 437
26 602
26 465
26 949
26 997
26 87
26 96
26 105
26 138
26 195
26 763
26 255
26 298
26 851
26 965
26 992
27 258
27 647
27 645
27 779
27 405
27 552
27 114
27 517
27 353
27 72
27 429
27 773
27 828
27 999
27 222
27 829
27 450
27 880
27 885
27 793
27 50
27 297
27 438
27 38
27 869
27 141
27 167
27 942
27 619
27 108
28 524
28 800
28 283
28 991
28 518
28 159
28 389
28 463
28 373
28 357
28 416
28 198
28 646
28 29
28 292
28 695
28 490
28 137
28 891
28 865
28 905
28 862
28 313
28 337
28 801
28 666
28 924
28 253
28 687
28 980
28 944
28 995
28 655
28 507
28 711
28 391
28 688
28 939
28 740
28 909
28 57
28 643
28 153
28 776
28 393
28 259
28 480
28 966
28 162
28 211
28 133
28 834
28 882
28 895
28 302
28 415
28 356
28 377
28 225
28 936
28 663
28 286
28 716
28 988
28 542
28 140
28 203
28 228
29 524
29 357
29 137
29 203
29 800
29 292
29 490
29 776
29 944
29 688
29 198
29 756
29 302
29 905
29 882
29 463
29 380
29 337
29 865
29 740
29 895
29 643
29 646
29 140
29 655
29 162
29 711
29 211
29 225
29 228
29 749
29 789
29 801
29 296
29 862
29 415
29 448
29 995
30 519
30 525
30 350
30 513
30 589
30 242
30 273
30 629
30 918
30 390
30 138
30 169
30 579
30 602
30 607
30 96
30 102
30 105
30 106
30 126
30 132
30 766
30 255
30 263
30 785
30 294
30 298
30 833
30 851
30 425
30 949
30 965
30 982
30 992
30 997
31 842
31 35
31 963
31 715
31 573
31 886
31 158
31 330
31 383
31 163
31 476
31 34
31 804
31 856
31 601
31 860
31 610
31 867
31 118
31 893
31 707
31 213
31 220
31 479
31 223
31 503
31 505
32 521
32 411
32 671
32 635
32 344
32 592
32 881
32 331
32 564
32 44
32 129
32 615
32 932
32 45
32 328
32 77
32 103
32 233
33 533
33 546
33 857
33 794
33 586
33 54
33 511
33 58
33 625
33 39
33 910
33 832
33 209
33 854
33 322
33 475
33 962
33 547
33 36
33 62
33 595
33 144
33 675
33 180
33 188
33 706
33 710
33 734
33 753
33 257
33 790
33 823
33 318
33 835
33 842
33 334
33 847
33 863
33 888
33 378
33 919
33 412
33 417
33 935
33 427
33 441
33 994
33 498
34 512
34 728
34 205
34 476
34 804
34 893
34 503
34 581
34 886
34 118
34 707
34 223
34 610
34 204
34 363
34 743
34 115
34 122
34 158
34 383
34 505
34 330
34 601
34 93
34 867
34 163
34 456
34 715
34 213
35 261
35 774
35 860
35 379
35 189
35 213
35 601
35 383
35 204
35 456
35 93
35 707
35 963
35 457
35 330
35 856
35 118
35 804
35 867
35 115
35 886
35 163
35 715
35 205
36 528
36 547
36 193
36 951
36 907
36 708
36 731
36 62
36 586
36 216
36 894
36 334
36 595
36 868
36 935
36 460
36 506
36 926
36 753
36 710
36 221
36 265
36 734
36 857
36 197
36 794
36 314
36 962
36 680
36 744
36 600
36 838
36 498
36 418
36 427
36 188
36 412
36 318
36 533
36 395
36 511
36 911
36 546
36 305
36 847
36 322
36 301
36 54
36 55
36 58
36 144
36 675
36 180
36 706
36 257
36 790
36 823
36 835
36 842
36 345
36 863
36 378
36 441
36 454
36 975
36 475
36 994
37 385
37 267
37 535
37 548
37 638
37 634
37 783
37 750
37 598
37 66
37 692
37 574
37 449
37 61
37 704
37 98
37 240
38 517
38 645
38 779
38 651
38 921
38 405
38 545
38 773
38 101
38 869
38 72
38 50
38 828
38 438
38 450
38 619
38 222
38 181
38 258
38 297
38 942
38 108
38 885
39 533
39 926
39 427
39 216
39 847
39 907
39 863
39 753
39 345
39 265
39 528
39 680
39 441
39 919
39 322
39 55
39 62
39 586
39 595
39 600
39 144
39 675
39 193
39 710
39 734
39 257
39 305
39 318
39 835
39 842
39 334
39 857
39 868
39 378
39 412
39 935
39 454
39 460
39 975
39 475
39 994
39 498
39 511
40 409
40 884
40 841
40 556
40 424
40 781
40 855
40 482
40 41
40 751
40 375
40 983
40 668
40 75
40 238
40 481
40 553
40 577
40 717
40 656
40 559
40 561
40 289
40 591
40 892
40 820
40 760
40 979
40 714
40 42
40 444
40 392
40 770
40 397
40 971
40 251
40 623
40 368
40 63
40 111
40 351
40 567
40 83
40 639
40 681
40 683
40 718
40 755
40 248
40 270
40 817
40 824
40 349
40 361
40 396
41 544
41 361
41 927
41 760
41 685
41 362
41 289
41 482
41 409
41 75
41 717
41 424
41 890
41 679
41 78
41 559
41 642
41 396
41 699
41 683
41 770
41 639
41 824
41 481
41 351
41 349
41 681
41 718
41 397
41 556
41 802
41 668
41 747
41 755
41 841
41 820
41 444
41 279
41 402
41 270
41 906
41 247
41 43
41 855
41 372
41 48
41 392
41 258
41 42
41 553
41 656
41 751
41 817
41 368
41 884
41 892
41 930
42 544
42 855
42 279
42 841
42 684
42 556
42 591
42 701
42 639
42 241
42 553
42 567
42 75
42 623
42 654
42 668
42 679
42 681
42 685
42 718
42 755
42 248
42 781
42 270
42 289
42 817
42 820
42 351
42 368
42 372
42 375
42 892
42 392
42 396
42 930
42 424
42 979
42 481
43 685
43 841
43 591
43 699
43 247
43 402
43 938
43 567
43 48
43 375
43 75
43 623
43 111
43 639
43 681
43 683
43 718
43 270
43 341
43 368
43 884
43 890
43 396
43 930
43 481
44 129
44 411
44 156
44 671
44 333
44 615
44 45
44 235
44 77
44 543
44 459
44 564
44 550
44 635
44 592
44 233
44 103
44 309
44 344
44 881
45 129
45 897
45 521
45 411
45 156
45 671
45 932
45 550
45 635
45 77
45 233
45 878
45 123
45 212
45 543
45 249
45 615
45 331
45 234
45 592
45 462
45 564
45 309
45 459
45 328
45 235
45 344
45 881
45 333
46 128
46 904
46 271
46 527
46 659
46 145
46 977
46 471
46 125
46 224
46 354
46 268
46 853
46 844
46 400
46 276
46 382
46 272
46 596
46 529
46 953
46 335
46 478
46 877
46 339
46 132
47 127
47 534
47 281
47 551
47 217
47 194
47 998
47 984
47 172
47 554
47 489
47 555
47 477
47 64
47 175
47 694
47 945
47 696
47 698
47 827
47 959
47 70
47 215
47 736
47 612
47 745
48 668
48 251
48 289
48 368
48 75
48 717
48 971
48 933
48 642
48 402
48 561
48 63
48 591
48 92
48 639
48 654
48 681
48 683
48 685
48 718
48 751
48 270
48 824
48 351
48 375
48 892
48 392
48 396
48 424
48 979
49 650
49 526
49 913
49 300
49 557
49 173
49 432
49 71
49 494
49 875
49 582
49 317
49 974
49 874
49 53
49 958
49 451
49 709
49 210
49 986
49 613
50 773
50 517
50 645
50 779
50 651
50 942
50 619
50 438
50 885
50 108
50 405
50 353
50 67
50 167
50 258
50 552
50 101
50 869
50 450
50 921
50 775
50 297
50 114
50 828
50 829
50 817
51 386
51 147
51 531
51 291
51 495
51 509
51 84
51 236
51 661
51 99
51 578
51 69
51 262
51 902
51 539
51 896
51 565
51 183
51 702
51 76
51 593
51 483
52 787
52 549
52 769
52 340
52 607
52 903
52 771
52 102
52 132
52 298
52 916
52 142
52 580
52 589
52 87
52 96
52 105
52 106
52 109
52 629
52 169
52 766
52 260
52 851
52 425
52 949
52 965
52 992
53 636
53 300
53 557
53 174
53 173
53 691
53 447
53 348
53 874
53 432
53 761
53 486
53 974
53 808
53 875
53 321
53 97
53 526
53 913
53 582
53 887
53 81
53 74
53 973
53 494
53 650
53 613
53 376
53 451
54 533
54 498
54 794
54 994
54 733
54 197
54 854
54 863
54 731
54 475
54 318
54 322
54 857
54 364
54 835
54 888
54 735
54 847
54 818
54 799
54 528
54 744
54 180
54 726
54 900
54 144
54 547
54 832
54 926
54 237
54 62
54 675
54 898
54 395
54 842
54 427
54 868
54 910
54 506
54 460
54 935
54 907
54 314
54 951
54 130
54 418
54 600
54 193
54 975
54 58
54 454
54 937
54 511
54 412
54 790
54 441
54 257
54 823
54 706
54 753
54 911
54 496
54 221
54 305
54 710
54 378
54 334
54 546
54 586
54 595
54 734
54 265
54 345
54 919
55 533
55 193
55 496
55 744
55 454
55 257
55 854
55 838
55 731
55 794
55 935
55 441
55 922
55 381
55 832
55 937
55 868
55 180
55 888
55 863
55 221
55 197
55 710
55 305
55 216
55 209
55 898
55 823
55 345
55 475
55 894
55 188
55 900
55 318
55 422
55 706
55 430
55 994
55 395
55 546
55 600
55 919
55 708
55 130
55 58
55 62
55 586
55 595
55 144
55 675
55 734
55 753
55 790
55 818
55 835
55 842
55 334
55 378
55 412
55 926
55 418
55 417
55 427
55 460
55 975
56 899
56 648
56 780
56 522
56 914
56 536
56 795
56 796
56 809
56 811
56 299
56 177
56 435
56 816
56 280
56 323
56 100
56 394
56 825
56 720
56 473
56 107
56 127
57 524
57 716
57 292
57 688
57 415
57 542
57 490
57 356
57 203
57 909
57 133
57 357
57 518
57 646
57 140
57 655
57 666
57 711
57 211
57 740
57 749
57 789
57 801
57 296
57 882
57 448
57 995
58 144
58 710
58 180
58 832
58 475
58 847
58 911
58 962
58 506
58 625
58 744
58 868
58 854
58 454
58 237
58 511
58 929
58 733
58 318
58 888
58 216
58 460
58 257
58 188
58 528
58 680
58 937
58 381
58 197
58 427
58 994
58 926
58 915
58 595
58 221
58 209
58 193
58 975
58 919
58 818
58 823
58 364
58 863
58 907
58 533
58 790
58 305
58 735
58 898
58 314
58 586
58 922
58 894
58 731
58 546
58 334
58 794
58 857
58 951
58 322
58 422
58 430
58 441
58 412
58 900
58 753
58 378
58 426
58 600
58 910
58 838
58 935
58 496
58 418
58 726
58 734
58 498
58 62
58 176
58 675
58 708
58 835
58 842
58 417
59 690
59 896
59 530
59 147
59 531
59 565
59 183
59 627
59 179
59 539
59 84
59 672
59 76
59 593
59 597
59 609
59 230
59 497
60 896
60 386
60 147
60 661
60 672
60 291
60 565
60 183
60 702
60 495
60 531
60 179
60 230
60 597
60 509
60 76
60 497
61 385
61 256
61 516
61 267
61 783
61 535
61 692
61 574
61 66
61 964
61 85
61 598
61 98
61 614
61 750
61 240
61 499
62 533
62 842
62 364
62 680
62 900
62 726
62 835
62 911
62 733
62 547
62 935
62 863
62 209
62 395
62 794
62 441
62 818
62 735
62 546
62 744
62 919
62 586
62 130
62 595
62 847
62 318
62 823
62 898
62 894
62 216
62 600
62 412
62 144
62 345
62 427
62 430
62 496
62 857
62 528
62 418
62 951
62 675
62 790
62 378
62 460
62 257
62 305
62 734
62 926
62 381
62 731
62 197
62 265
62 334
62 937
62 193
62 475
62 625
62 888
62 511
62 915
62 854
62 221
62 710
62 975
62 753
62 838
62 454
62 417
62 426
62 498
62 799
62 322
62 994
62 910
62 237
62 907
62 422
62 922
62 868
62 708
62 268
62 180
63 559
63 289
63 111
63 409
63 760
63 855
63 556
63 397
63 841
63 798
63 747
63 349
63 803
63 482
63 788
63 279
63 92
63 685
63 247
63 372
63 78
63 755
63 679
63 971
63 75
63 83
63 639
63 642
63 654
63 668
63 681
63 714
63 718
63 248
63 270
63 817
63 351
63 368
63 884
63 892
63 396
63 927
63 930
63 424
63 481
64 662
64 669
64 696
64 698
64 827
64 464
64 175
64 616
64 194
64 984
64 217
64 477
64 246
64 959
64 998
64 736
65 677
65 806
65 171
65 434
65 182
65 568
65 697
65 185
65 119
65 729
65 423
65 325
65 981
65 346
65 104
66 385
66 267
66 783
66 535
66 692
66 574
66 705
66 256
66 757
66 98
66 964
66 229
66 634
66 598
66 449
66 332
66 516
66 548
66 989
66 384
66 845
66 614
66 748
66 492
66 750
66 240
66 499
67 517
67 645
67 779
67 921
67 167
67 552
67 429
67 942
67 181
67 438
67 829
67 450
67 72
67 880
67 353
67 651
67 545
67 101
67 869
67 885
67 619
67 258
67 141
67 461
67 222
67 114
68 899
68 648
68 778
68 780
68 652
68 784
68 914
68 536
68 540
68 809
68 811
68 299
68 435
68 950
68 825
68 436
68 323
68 452
68 724
68 858
68 280
68 917
68 487
68 433
68 522
68 107
68 218
68 630
68 473
68 338
68 876
68 177
68 693
68 720
68 532
68 187
68 100
68 394
68 816
68 947
68 970
68 813
68 150
68 127
69 896
69 386
69 902
69 531
69 661
69 291
69 565
69 566
69 183
69 316
69 593
69 590
69 262
69 483
69 80
69 597
69 230
69 497
69 509
69 646
70 281
70 669
70 797
70 172
70 308
70 696
70 698
70 827
70 703
70 959
70 745
70 246
70 637
70 464
70 721
70 413
70 489
70 215
70 477
70 984
70 612
70 998
71 650
71 913
71 808
71 557
71 174
71 958
71 451
71 709
71 871
71 973
71 494
71 376
71 227
71 761
71 173
71 875
71 300
71 74
71 887
71 571
71 613
71 321
71 974
71 986
71 97
72 775
72 647
72 779
72 141
72 921
72 167
72 429
72 942
72 450
72 885
72 869
72 108
72 880
73 662
73 669
73 413
73 934
73 551
73 945
73 308
73 698
73 827
73 246
73 746
73 959
73 637
73 489
73 696
73 612
73 998
73 616
73 745
74 913
74 808
74 300
74 557
74 432
74 321
74 451
74 582
74 986
74 447
74 874
74 887
74 973
74 974
74 210
74 97
74 613
74 376
75 286
75 544
75 561
75 656
75 701
75 238
75 855
75 841
75 931
75 289
75 556
75 685
75 760
75 111
75 83
75 402
75 938
75 481
75 788
75 241
75 577
75 372
75 361
75 971
75 251
75 884
75 482
75 567
75 247
75 802
75 927
75 668
75 341
75 906
75 714
75 683
75 979
75 642
75 623
75 349
75 803
75 751
75 424
75 684
75 930
75 817
75 351
75 78
75 290
75 679
75 798
75 781
75 92
75 639
75 681
75 718
75 983
75 755
75 892
75 368
75 699
75 270
75 392
75 717
75 933
75 591
75 444
75 770
75 654
75 248
75 396
76 896
76 902
76 262
76 530
76 531
76 661
76 672
76 179
76 565
76 183
76 578
76 495
76 597
76 627
76 316
76 609
76 702
76 291
76 386
76 497
76 566
76 168
76 80
76 539
76 84
76 147
76 593
76 236
76 509
77 521
77 156
77 543
77 550
77 564
77 411
77 878
77 635
77 309
77 129
77 881
77 235
77 328
77 897
77 249
77 233
77 123
77 331
77 459
77 592
77 212
77 351
78 556
78 747
78 760
78 642
78 83
78 892
78 933
78 591
78 681
78 685
78 718
78 751
78 755
78 270
78 289
78 824
78 349
78 368
78 396
78 927
78 930
78 424
78 481
79 641
79 387
79 408
79 184
79 826
79 192
79 501
79 985
79 840
79 852
79 640
79 445
79 861
79 352
79 359
79 371
79 112
79 730
79 759
79 474
79 89
79 608
80 147
80 531
80 539
80 179
80 565
80 578
80 497
80 661
80 896
80 99
80 168
80 593
80 509
80 882
81 650
81 526
81 808
81 300
81 557
81 173
81 691
81 571
81 958
81 451
81 973
81 974
81 986
81 348
81 874
82 805
82 428
82 311
82 956
82 575
82 961
82 327
82 453
82 466
82 523
82 960
82 618
82 214
82 274
82 420
82 219
82 611
82 484
82 232
82 622
82 244
83 544
83 591
83 930
83 751
83 351
83 481
83 699
83 247
83 290
83 803
83 361
83 760
83 155
83 681
83 798
83 701
83 92
83 788
83 482
83 855
83 396
83 623
83 884
83 890
83 639
83 656
83 747
83 685
83 111
83 279
83 983
83 642
83 683
83 349
83 679
83 906
83 402
83 820
83 270
83 424
83 577
83 559
83 241
83 654
83 668
83 714
83 718
83 755
83 248
83 289
83 817
83 824
83 368
83 372
83 892
83 392
84 386
84 530
84 531
84 672
84 291
84 179
84 565
84 578
84 539
84 168
84 230
84 316
84 609
84 483
84 497
85 384
85 385
85 267
85 783
85 548
85 692
85 845
85 229
85 499
85 757
85 449
85 516
85 614
85 240
85 739
85 332
85 964
85 98
85 617
85 748
85 492
85 750
86 384
86 385
86 267
86 535
86 574
86 704
86 845
86 256
86 449
86 229
86 516
86 614
86 705
86 499
86 240
87 525
87 549
87 579
87 580
87 266
87 969
87 763
87 602
87 851
87 918
87 588
87 785
87 982
87 403
87 607
87 589
87 465
87 340
87 294
87 879
87 992
87 102
87 109
87 138
87 787
87 315
87 390
87 769
87 771
87 126
87 455
87 765
87 273
87 916
87 670
87 807
87 287
87 242
87 260
87 245
87 488
87 298
87 997
87 106
87 169
87 660
87 633
87 105
87 282
87 437
87 142
87 954
87 263
87 903
87 301
87 324
87 96
87 629
87 199
87 949
87 965
88 128
88 904
88 271
88 527
88 145
88 844
88 977
88 596
88 224
88 272
88 953
88 471
88 382
88 276
88 146
88 268
88 400
88 339
88 529
88 742
88 478
89 640
89 641
89 387
89 674
89 184
89 191
89 852
89 472
89 985
89 474
89 606
89 192
89 186
89 371
89 570
90 792
90 537
90 284
90 538
90 419
90 562
90 324
90 599
90 343
90 996
90 360
90 431
90 239
90 541
90 303
90 978
90 264
90 560
90 243
90 719
90 165
90 786
90 889
90 836
90 657
90 725
90 603
91 514
91 285
91 170
91 171
91 176
91 182
91 568
91 185
91 957
91 583
91 458
91 468
91 981
91 346
91 166
91 866
91 830
91 738
91 104
91 502
91 119
91 510
92 559
92 270
92 155
92 684
92 397
92 251
92 890
92 906
92 770
92 841
92 362
92 392
92 681
92 623
92 654
92 668
92 679
92 683
92 685
92 718
92 755
92 248
92 289
92 803
92 817
92 349
92 351
92 361
92 368
92 884
92 892
92 396
92 927
92 930
92 424
92 481
93 261
93 330
93 601
93 860
93 189
93 856
93 505
93 223
93 508
93 774
93 867
93 500
93 610
93 886
93 118
93 158
93 963
93 457
93 715
93 205
93 213
93 503
94 369
94 442
94 620
94 644
94 864
94 164
94 772
94 872
94 632
94 399
94 928
94 762
94 307
94 987
94 678
94 624
94 676
94 713
94 649
94 941
94 700
94 768
94 404
94 912
94 398
94 421
94 764
94 626
94 631
94 628
94 446
94 143
94 883
94 440
94 121
94 850
94 848
94 563
94 134
94 901
94 202
94 120
94 252
94 990
94 347
94 278
94 920
94 95
94 136
94 269
94 810
94 754
94 288
94 758
94 821
94 312
94 148
94 689
94 160
94 732
94 310
94 815
94 326
94 794
94 621
94 636
94 690
94 208
95 520
95 312
95 277
95 143
95 690
95 178
95 732
95 864
95 440
95 713
95 928
95 624
95 628
95 121
95 636
95 134
95 676
95 754
95 762
95 269
95 850
95 859
95 872
95 901
95 912
95 404
95 442
95 987
95 749
96 525
96 579
96 580
96 589
96 602
96 607
96 465
96 195
96 765
96 242
96 102
96 629
96 304
96 588
96 916
96 903
96 763
96 350
96 340
96 949
96 504
96 294
96 425
96 169
96 969
96 315
96 106
96 785
96 771
96 769
96 138
96 660
96 519
96 833
96 807
96 437
96 513
96 260
96 266
96 263
96 105
96 132
96 766
96 298
96 851
96 992
96 997
97 808
97 557
97 174
97 691
97 447
97 321
97 451
97 973
97 974
97 986
97 709
97 494
97 613
97 650
97 875
97 432
97 571
97 761
97 913
97 871
97 317
97 300
97 376
98 385
98 256
98 535
98 548
98 449
98 332
98 845
98 614
98 516
98 748
98 598
98 783
98 638
98 229
98 384
98 750
98 499
98 705
98 757
99 896
99 386
99 147
99 672
99 291
99 168
99 566
99 183
99 702
99 590
99 593
99 609
99 578
99 530
99 316
99 531
99 230
99 497
99 509
100 648
100 778
100 522
100 914
100 536
100 822
100 809
100 811
100 940
100 299
100 686
100 435
100 950
100 825
100 190
100 323
100 452
100 720
100 107
100 630
100 127
101 647
101 645
101 779
101 651
101 793
101 921
101 545
101 167
101 942
101 829
101 450
101 222
101 353
101 438
101 114
101 999
101 429
101 619
102 525
102 588
102 589
102 607
102 903
102 138
102 580
102 340
102 242
102 579
102 195
102 879
102 169
102 298
102 660
102 833
102 965
102 629
102 126
102 273
102 992
102 969
102 245
102 765
102 997
102 763
102 918
102 315
102 282
102 294
102 301
102 465
102 304
102 263
102 982
102 255
102 403
102 769
102 949
102 105
102 106
102 633
102 199
102 260
102 851
102 390
102 425
103 897
103 521
103 411
103 156
103 564
103 309
103 331
103 333
103 592
103 123
103 233
103 878
103 881
104 514
104 157
104 285
104 677
104 806
104 171
104 176
104 819
104 185
104 957
104 846
104 468
104 346
104 972
104 830
104 510
104 170
104 568
104 866
104 423
104 697
104 572
104 119
104 729
104 166
104 981
104 738
105 519
105 525
105 580
105 589
105 602
105 607
105 549
105 260
105 965
105 488
105 763
105 579
105 916
105 350
105 660
105 390
105 949
105 969
105 242
105 425
105 918
105 633
105 879
105 294
105 629
105 455
105 315
105 504
105 266
105 588
105 287
105 138
105 106
105 954
105 437
105 388
105 132
105 109
105 126
105 282
105 670
105 766
105 298
105 851
105 992
106 513
106 519
106 525
106 589
106 602
106 390
106 660
106 138
106 954
106 273
106 965
106 437
106 943
106 504
106 301
106 763
106 629
106 199
106 833
106 588
106 949
106 879
106 807
106 766
106 982
106 126
106 997
106 916
106 388
106 304
106 242
106 670
106 287
106 263
106 260
106 294
106 771
106 142
106 340
106 266
106 132
106 315
106 607
106 195
106 455
106 785
106 633
106 765
106 903
106 425
106 109
106 769
106 787
106 255
106 851
106 245
106 403
106 282
106 918
106 465
106 298
106 992
107 522
107 784
107 536
107 795
107 809
107 811
107 177
107 452
107 720
107 473
107 652
107 127
107 948
107 831
107 914
107 648
107 858
107 569
107 250
107 190
107 487
107 686
107 630
107 950
107 970
107 218
107 394
107 940
107 435
107 231
107 722
107 813
107 839
107 604
107 187
107 917
107 207
107 780
107 947
107 124
107 876
107 724
107 658
107 150
107 693
107 899
107 540
107 822
107 816
107 796
107 154
107 825
107 117
107 323
107 299
107 338
107 367
107 968
107 778
107 532
107 433
107 436
107 108
108 258
108 517
108 779
108 651
108 793
108 942
108 222
108 353
108 885
108 114
108 921
108 552
108 829
108 775
108 999
108 545
108 619
108 880
109 519
109 579
109 607
109 245
109 388
109 949
109 242
109 282
109 142
109 602
109 965
109 350
109 833
109 954
109 132
109 199
109 807
109 787
109 263
109 513
109 879
109 301
109 273
109 969
109 771
109 287
109 294
109 943
109 660
109 298
109 785
109 629
109 670
109 766
109 255
109 260
109 851
109 425
109 455
109 992
110 264
110 782
110 152
110 537
110 410
110 541
110 923
110 419
110 946
110 562
110 320
110 978
110 723
110 725
110 603
110 996
110 243
110 116
111 556
111 553
111 577
111 591
111 802
111 685
111 971
111 402
111 639
111 654
111 683
111 714
111 718
111 751
111 289
111 803
111 817
111 349
111 351
111 368
111 892
111 392
111 396
111 424
111 481
112 640
112 641
112 674
112 295
112 814
112 184
112 952
112 826
112 472
112 985
112 730
112 474
113 640
113 641
113 777
113 408
113 674
113 184
113 826
113 445
113 472
113 985
113 861
113 852
114 517
114 775
114 779
114 651
114 921
114 545
114 942
114 829
114 222
114 999
114 258
114 461
114 647
114 828
114 619
114 869
114 552
114 880
114 645
114 438
114 353
114 885
115 601
115 867
115 363
115 479
115 500
115 330
115 728
115 743
115 163
115 220
115 379
115 737
115 886
115 118
115 158
115 457
115 715
115 213
116 782
116 792
116 537
116 410
116 284
116 946
116 562
116 306
116 324
116 196
116 719
116 723
116 599
116 603
116 996
116 243
116 791
116 293
116 406
116 836
116 667
116 657
116 355
116 431
116 786
116 419
116 560
116 165
116 239
116 849
116 538
116 407
116 360
116 923
116 925
116 541
116 889
116 978
116 152
116 358
116 467
116 908
117 648
117 780
117 522
117 914
117 917
117 150
117 536
117 795
117 809
117 940
117 177
117 435
117 950
117 436
117 323
117 452
118 512
118 774
118 804
118 581
118 330
118 601
118 610
118 886
118 867
118 223
118 503
118 505
118 189
118 456
118 508
118 158
118 476
118 261
118 204
118 122
118 860
118 856
118 737
118 743
118 363
118 163
118 220
118 479
118 500
118 205
118 457
118 893
118 712
118 573
118 728
118 715
118 485
118 213
119 514
119 157
119 677
119 806
119 166
119 434
119 182
119 697
119 185
119 583
119 846
119 981
119 170
119 738
119 502
119 285
119 830
119 972
119 866
119 729
119 572
119 510
119 325
119 468
119 470
119 346
119 957
119 458
120 520
120 620
120 621
120 624
120 628
120 631
120 912
120 644
120 762
120 399
120 649
120 252
120 883
120 134
120 864
120 312
120 178
120 690
120 398
120 202
120 401
120 758
120 148
120 164
120 990
120 821
120 201
120 815
120 850
120 810
120 676
120 366
120 347
120 288
120 901
120 278
120 678
120 269
120 764
120 208
120 121
120 632
120 636
120 136
120 143
120 665
120 689
120 772
120 404
121 621
121 624
121 987
121 678
121 164
121 178
121 815
121 312
121 732
121 758
121 636
121 160
121 912
121 653
121 872
121 901
121 398
121 700
121 864
121 208
121 762
121 848
121 310
121 319
121 369
121 676
121 768
121 252
121 202
121 399
121 442
121 134
121 143
121 754
121 421
121 326
121 665
121 810
121 644
121 690
121 976
121 446
121 404
121 347
121 440
121 201
121 469
121 401
121 269
121 631
121 277
121 941
121 850
121 148
121 288
121 649
121 563
121 713
121 520
121 628
121 764
121 772
121 307
121 821
121 620
121 136
121 920
121 689
121 883
121 366
121 632
121 493
122 261
122 581
122 330
122 601
122 610
122 867
122 886
122 715
122 963
122 383
122 485
122 774
122 204
122 508
122 737
122 158
122 707
122 476
122 213
122 856
122 163
122 503
123 521
123 411
123 156
123 550
123 564
123 309
123 331
123 328
123 592
123 459
123 344
123 233
124 899
124 648
124 522
124 784
124 914
124 536
124 795
124 811
124 435
124 950
124 825
124 955
124 323
124 720
124 473
124 231
124 127
125 128
125 271
125 272
125 276
125 659
125 400
125 953
125 844
125 977
125 339
125 853
125 471
126 525
126 549
126 588
126 589
126 602
126 629
126 633
126 833
126 263
126 519
126 282
126 879
126 982
126 437
126 771
126 763
126 304
126 607
126 195
126 579
126 132
126 766
126 255
126 294
126 807
126 298
126 851
126 949
126 992
126 997
127 899
127 652
127 522
127 914
127 536
127 796
127 299
127 433
127 435
127 950
127 825
127 955
127 323
127 452
127 720
127 231
127 778
127 658
127 813
127 207
127 948
127 540
127 630
127 795
127 686
127 367
127 831
127 839
127 154
127 648
127 947
127 436
127 473
127 693
127 569
127 784
127 604
127 816
127 968
127 822
127 858
127 487
127 250
127 780
128 529
128 742
128 271
128 953
128 596
128 146
128 145
128 844
128 471
128 659
128 877
128 224
128 335
128 977
128 527
128 400
128 276
128 354
128 339
128 853
128 268
128 272
128 382
128 904
128 478
129 897
129 459
129 462
129 233
129 878
129 932
129 671
129 344
129 521
129 333
129 543
129 881
129 635
129 592
129 564
129 411
129 156
129 309
129 331
129 328
129 234
129 235
130 528
130 547
130 586
130 595
130 600
130 823
130 441
130 334
130 422
130 533
130 498
130 857
130 708
130 144
130 180
130 188
130 193
130 710
130 733
130 734
130 735
130 221
130 753
130 257
130 790
130 305
130 318
130 835
130 842
130 863
130 378
130 900
130 412
130 418
130 935
130 427
130 454
130 975
130 475
130 994
130 511
131 274
131 428
131 226
131 484
131 365
131 611
131 575
131 466
131 622
131 515
131 151
131 214
131 960
131 329
131 956
131 584
131 767
131 200
131 594
131 244
131 219
131 327
131 149
131 311
131 961
131 342
131 232
131 493
132 525
132 579
132 580
132 589
132 602
132 607
132 245
132 260
132 504
132 943
132 315
132 763
132 965
132 425
132 660
132 263
132 255
132 992
132 916
132 588
132 273
132 519
132 513
132 670
132 287
132 851
132 138
132 787
132 465
132 997
132 390
132 633
132 954
132 918
132 266
132 169
132 142
132 969
132 949
132 785
132 833
132 982
132 282
132 903
132 437
132 340
132 765
132 301
132 304
132 455
132 769
132 195
132 766
132 807
133 524
133 663
133 253
133 944
133 711
133 905
133 283
133 153
133 895
133 756
133 439
133 198
133 356
133 415
133 380
133 993
133 393
133 936
133 909
133 292
133 789
133 448
133 776
133 337
133 389
133 995
133 159
133 259
133 137
133 666
133 812
133 518
133 373
133 507
133 865
133 391
133 646
133 140
133 162
133 203
133 211
133 286
133 296
133 882
133 416
133 980
134 520
134 620
134 636
134 148
134 689
134 987
134 442
134 269
134 278
134 901
134 398
134 440
134 848
134 649
134 326
134 632
134 941
134 990
134 404
134 136
134 665
134 850
134 810
134 912
134 764
134 563
134 678
134 631
134 676
134 762
134 626
134 399
134 621
134 421
134 772
134 644
134 976
134 160
134 713
134 312
134 401
134 469
134 347
134 277
134 319
134 872
134 202
134 758
134 288
134 310
134 624
134 732
134 446
134 252
134 920
134 143
134 201
134 754
134 928
134 164
134 428
134 815
134 859
135 264
135 673
135 843
135 792
135 196
135 719
135 946
135 560
135 603
135 988
135 239
135 419
135 923
135 849
135 657
135 406
135 152
135 537
135 667
135 541
135 414
135 538
135 562
135 585
135 978
135 723
135 599
135 343
135 996
135 243
135 254
136 624
136 632
136 636
136 201
136 883
136 901
136 928
136 277
136 278
136 620
136 815
136 621
136 628
136 310
136 864
136 626
136 676
136 941
136 164
136 678
136 520
136 732
136 326
136 920
136 649
136 143
136 665
136 160
136 689
136 178
136 208
136 754
136 252
136 269
136 821
136 399
136 404
136 294
137 524
137 542
137 646
137 140
137 286
137 980
137 198
137 967
137 292
137 936
137 228
137 801
137 296
137 643
137 357
137 800
137 991
137 337
137 391
137 711
137 416
137 380
137 373
137 862
137 966
137 789
137 259
137 507
137 393
137 356
137 909
137 695
137 415
137 924
137 663
137 439
137 891
137 682
137 687
137 756
137 995
137 490
137 666
137 389
137 944
137 302
137 834
137 448
137 776
137 688
137 458
137 655
137 211
137 225
137 740
137 749
137 882
138 519
138 525
138 580
138 589
138 602
138 629
138 607
138 282
138 918
138 273
138 199
138 969
138 851
138 142
138 763
138 765
138 766
138 255
138 294
138 807
138 298
138 879
138 425
138 455
138 992
138 997
139 515
139 523
139 956
139 493
139 961
139 484
139 575
139 870
139 219
139 618
139 365
139 594
139 466
139 805
139 311
139 584
139 329
139 200
139 342
139 232
139 244
139 392
140 524
140 646
140 153
140 296
140 357
140 337
140 480
140 909
140 682
140 716
140 834
140 776
140 936
140 286
140 463
140 800
140 789
140 162
140 377
140 159
140 891
140 663
140 865
140 655
140 740
140 812
140 391
140 711
140 905
140 228
140 939
140 666
140 944
140 801
140 749
140 292
140 507
140 993
140 991
140 687
140 225
140 688
140 389
140 518
140 967
140 313
140 393
140 253
140 756
140 862
140 356
140 966
140 380
140 415
140 283
140 203
140 695
140 895
140 995
140 416
140 259
140 447
140 211
140 882
140 980
141 647
141 645
141 779
141 461
141 619
141 517
141 828
141 405
141 793
141 921
141 297
141 438
141 829
141 450
141 222
141 880
141 885
142 519
142 580
142 589
142 602
142 607
142 763
142 765
142 255
142 771
142 263
142 298
142 879
142 949
142 455
142 992
142 997
143 520
143 620
143 621
143 624
143 631
143 632
143 636
143 644
143 821
143 307
143 653
143 278
143 398
143 312
143 160
143 920
143 990
143 626
143 277
143 872
143 758
143 421
143 665
143 252
143 941
143 732
143 469
143 649
143 401
143 928
143 810
143 678
143 201
143 288
143 690
143 369
143 399
143 768
143 772
143 976
143 901
143 148
143 319
143 762
143 700
143 689
143 883
143 269
143 848
143 987
143 208
143 859
143 310
143 446
143 864
143 178
143 440
143 326
143 202
143 563
143 442
143 347
143 164
143 716
143 676
143 754
143 815
143 850
143 404
144 533
144 586
144 595
144 600
144 625
144 345
144 926
144 832
144 511
144 929
144 546
144 911
144 381
144 726
144 731
144 863
144 378
144 547
144 922
144 842
144 868
144 418
144 180
144 675
144 962
144 305
144 910
144 735
144 506
144 894
144 216
144 734
144 900
144 364
144 257
144 994
144 528
144 823
144 441
144 706
144 265
144 460
144 475
144 314
144 427
144 919
144 838
144 799
144 898
144 209
144 794
144 395
144 498
144 454
144 197
144 951
144 496
144 422
144 915
144 193
144 975
144 857
144 417
144 237
144 847
144 907
144 818
144 334
144 835
144 710
144 708
144 188
144 412
144 426
144 935
144 753
144 221
144 318
144 680
144 790
144 322
144 430
144 888
144 733
144 366
145 904
145 268
145 853
145 224
145 478
145 659
145 335
145 272
145 953
145 977
145 844
145 529
145 596
145 382
146 904
146 527
146 529
146 339
146 224
146 271
146 853
146 471
146 276
146 659
146 844
146 977
146 596
146 478
146 382
147 896
147 386
147 902
147 236
147 509
147 262
147 495
147 183
147 497
147 597
147 179
147 539
147 531
147 627
147 316
147 672
147 702
147 661
147 291
147 565
147 609
147 483
147 230
148 520
148 620
148 621
148 624
148 631
148 636
148 649
148 689
148 690
148 754
148 821
148 399
148 404
148 442
148 987
149 523
149 805
149 453
149 956
149 219
149 960
149 443
149 428
149 151
149 420
149 576
149 232
149 622
149 311
149 575
149 961
149 584
149 329
149 200
149 342
150 648
150 780
150 652
150 522
150 914
150 532
150 809
150 876
150 839
150 722
150 831
150 950
150 435
150 536
150 795
150 796
150 811
150 813
150 299
150 816
150 433
150 177
150 825
150 955
150 436
150 323
150 452
150 720
151 219
151 594
151 767
151 611
151 622
151 575
151 870
151 374
151 327
151 618
151 365
151 420
151 428
151 311
151 443
151 956
151 960
151 961
151 584
151 329
151 342
151 244
152 264
152 923
152 360
152 243
152 673
152 306
152 889
152 723
152 978
152 293
152 467
152 725
152 541
152 792
152 782
152 431
152 275
152 537
152 419
152 946
152 562
152 196
152 585
152 719
152 599
152 343
152 603
152 996
152 254
153 524
153 225
153 756
153 882
153 415
153 895
153 688
153 682
153 448
153 296
153 789
153 480
153 716
153 228
153 416
153 463
153 834
153 292
153 253
153 865
153 924
153 800
153 198
153 655
153 356
153 695
153 663
153 283
153 211
153 377
153 991
153 337
153 507
153 740
153 391
153 687
153 711
153 203
153 749
153 801
153 862
153 909
153 980
154 648
154 522
154 536
154 811
154 652
154 970
154 955
154 187
154 231
154 914
154 950
154 720
154 795
154 822
154 809
154 299
154 433
154 177
154 435
154 825
154 452
154 604
154 630
155 567
155 591
155 639
155 349
155 409
155 556
155 623
155 402
155 927
155 701
155 824
155 368
155 341
155 279
155 684
155 561
155 755
155 668
155 681
155 714
155 718
155 248
155 270
155 289
155 817
155 351
155 884
155 892
155 392
155 930
156 897
156 521
156 411
156 932
156 309
156 233
156 550
156 543
156 234
156 615
156 878
156 249
156 331
156 459
156 564
156 235
156 881
156 328
156 671
156 592
156 344
157 514
157 568
157 468
157 423
157 972
157 697
157 830
157 185
157 182
157 806
157 957
157 325
157 846
157 981
157 729
157 346
157 510
158 512
158 261
158 601
158 610
158 886
158 508
158 774
158 383
158 379
158 743
158 737
158 860
158 363
158 581
158 804
158 456
158 500
158 573
158 707
158 479
158 163
158 505
158 189
158 485
158 330
158 963
158 204
158 867
158 457
158 728
158 856
158 223
158 715
158 205
158 213
158 476
158 503
159 524
159 646
159 655
159 663
159 416
159 812
159 716
159 993
159 415
159 688
159 439
159 687
159 162
159 711
159 203
159 211
159 228
159 749
159 286
159 801
159 337
159 865
159 448
159 995
160 624
160 636
160 653
160 901
160 202
160 208
160 689
160 754
160 278
160 810
160 815
160 821
160 326
160 859
160 399
160 404
160 987
161 275
161 786
161 537
161 410
161 667
161 538
161 467
161 587
161 320
161 254
161 889
161 541
161 306
161 324
161 719
161 723
161 599
161 343
161 603
161 996
161 360
161 243
162 524
162 542
162 924
162 801
162 967
162 882
162 993
162 688
162 389
162 716
162 253
162 643
162 518
162 966
162 939
162 228
162 862
162 463
162 834
162 980
162 905
162 991
162 646
162 203
162 490
162 380
162 663
162 296
162 666
162 695
162 225
162 740
162 756
162 286
162 393
162 448
162 995
163 255
163 261
163 573
163 330
163 601
163 610
163 886
163 860
163 728
163 189
163 505
163 205
163 804
163 485
163 220
163 707
163 737
163 743
163 363
163 213
163 223
163 856
163 581
163 963
163 204
163 457
163 715
164 520
164 620
164 621
164 624
164 628
164 631
164 632
164 649
164 676
164 689
164 690
164 700
164 821
164 319
164 848
164 850
164 859
164 399
164 404
164 987
165 264
165 782
165 667
165 925
165 541
165 419
165 239
165 599
165 414
165 410
165 360
165 560
165 946
165 562
165 306
165 343
165 603
165 988
165 873
165 243
165 254
166 514
166 285
166 677
166 502
166 176
166 957
166 806
166 170
166 830
166 185
166 182
166 846
166 171
166 434
166 568
166 697
166 583
166 458
166 729
166 346
167 258
167 517
167 779
167 651
167 181
167 999
167 773
167 829
167 297
167 461
167 885
167 828
167 438
167 869
167 647
167 921
167 429
167 645
167 619
167 942
167 450
167 552
167 353
168 530
168 531
168 661
168 539
168 291
168 316
168 672
168 183
168 179
168 590
168 609
168 497
168 902
168 230
168 566
168 578
168 483
168 236
169 579
169 589
169 602
169 340
169 807
169 390
169 549
169 245
169 997
169 260
169 763
169 255
169 785
169 298
169 851
169 879
169 949
169 965
169 992
170 285
170 806
170 514
170 972
170 182
170 176
170 729
170 434
170 502
170 171
170 423
170 325
170 568
170 185
170 572
170 957
170 583
170 981
170 510
171 514
171 285
171 819
171 583
171 470
171 185
171 729
171 846
171 434
171 697
171 957
171 981
171 346
172 534
172 281
172 934
172 336
172 308
172 669
172 616
172 246
172 984
172 194
172 827
172 741
172 554
172 413
172 558
172 696
172 698
172 837
172 217
172 736
172 612
172 745
173 913
173 557
173 174
173 808
173 494
173 432
173 958
173 875
173 526
173 451
173 887
173 300
173 986
173 227
173 691
173 761
173 973
173 871
173 317
173 571
173 210
174 650
174 913
174 808
174 557
174 526
174 348
174 761
174 376
174 875
174 317
174 887
174 447
174 571
174 871
174 227
174 613
174 432
174 986
174 582
174 691
175 281
175 934
175 554
175 827
175 959
175 215
175 489
175 721
175 336
175 246
175 558
175 696
175 698
175 703
175 837
175 741
175 745
176 514
176 806
176 866
176 185
176 434
176 572
176 568
176 729
176 510
176 846
176 182
176 957
176 325
176 583
176 458
176 468
177 899
177 648
177 652
177 784
177 658
177 914
177 536
177 796
177 809
177 970
177 917
177 940
177 876
177 452
177 724
177 825
177 299
177 950
177 811
177 816
177 693
177 604
177 778
177 795
177 433
177 522
177 947
177 394
177 630
177 968
177 187
177 813
177 948
177 858
177 839
177 955
177 831
177 435
177 436
177 720
177 473
178 620
178 624
178 628
178 631
178 636
178 653
178 754
178 762
178 764
178 772
178 269
178 810
178 815
178 821
178 901
178 399
178 912
178 404
178 987
179 896
179 386
179 262
179 539
179 672
179 291
179 495
179 902
179 483
179 609
179 565
179 497
179 236
179 627
179 578
179 316
179 230
180 595
180 600
180 675
180 915
180 922
180 799
180 265
180 710
180 735
180 919
180 418
180 506
180 427
180 216
180 753
180 454
180 975
180 823
180 430
180 706
180 625
180 794
180 378
180 854
180 475
180 546
180 188
180 900
180 907
180 345
180 818
180 586
180 412
180 994
180 888
180 790
180 734
180 533
180 441
180 197
180 193
180 708
180 257
180 305
180 318
180 835
180 842
180 334
180 857
180 863
180 381
180 926
180 935
180 460
181 773
181 517
181 647
181 779
181 651
181 921
181 545
181 429
181 942
181 222
181 461
181 450
181 258
181 829
181 353
181 880
182 514
182 434
182 819
182 325
182 738
182 346
182 502
182 972
182 957
182 981
182 423
182 697
182 568
182 185
182 830
182 583
182 846
182 470
182 510
183 896
183 262
183 539
183 291
183 565
183 566
183 497
183 702
183 236
183 483
183 230
183 609
184 674
184 295
184 191
184 608
184 472
184 759
184 491
184 501
184 474
184 852
184 641
184 814
184 840
184 752
184 371
184 370
184 352
184 570
184 777
184 640
184 606
184 861
184 359
184 186
184 192
184 952
184 408
184 387
184 826
184 445
184 985
185 821
185 790
185 514
185 423
185 568
185 677
185 458
185 957
185 346
185 846
185 510
185 972
185 502
185 866
185 806
185 468
185 325
185 434
185 981
185 583
185 819
185 572
185 729
186 641
186 408
186 674
186 295
186 814
186 826
186 191
186 777
186 570
186 861
186 840
186 608
186 491
186 387
186 371
186 472
186 985
186 474
187 899
187 778
187 780
187 652
187 658
187 914
187 917
187 811
187 299
187 825
187 955
187 323
187 452
187 720
187 231
188 533
188 546
188 547
188 586
188 595
188 600
188 675
188 322
188 888
188 460
188 929
188 498
188 838
188 706
188 854
188 680
188 910
188 412
188 475
188 894
188 975
188 731
188 911
188 863
188 919
188 417
188 197
188 257
188 364
188 216
188 318
188 454
188 314
188 528
188 265
188 221
188 922
188 734
188 794
188 378
188 753
188 818
188 334
188 926
188 625
188 381
188 823
188 735
188 726
188 900
188 744
188 835
188 422
188 882
188 708
188 710
188 733
188 305
188 842
188 857
188 935
188 427
188 441
188 511
189 261
189 774
189 601
189 860
189 610
189 886
189 707
189 503
189 457
189 715
189 205
189 213
190 648
190 394
190 780
190 522
190 914
190 536
190 795
190 809
190 813
190 299
190 435
190 825
190 323
190 473
190 630
191 640
191 641
191 387
191 777
191 674
191 814
191 445
191 371
191 472
191 474
191 608
192 641
192 408
192 674
192 295
192 814
192 952
192 826
192 985
192 359
192 472
192 370
192 570
192 371
192 759
193 404
193 547
193 586
193 595
193 675
193 868
193 951
193 418
193 426
193 915
193 412
193 911
193 257
193 926
193 498
193 441
193 209
193 734
193 395
193 857
193 533
193 381
193 600
193 907
193 378
193 422
193 314
193 305
193 733
193 832
193 345
193 731
193 726
193 838
193 706
193 710
193 216
193 753
193 790
193 318
193 835
193 842
193 334
193 847
193 863
193 888
193 919
193 417
193 935
193 427
193 454
193 975
193 475
193 994
193 511
194 669
194 945
194 696
194 698
194 827
194 959
194 616
194 464
194 489
194 797
194 558
194 837
194 741
194 745
195 603
195 519
195 525
195 549
195 588
195 589
195 607
195 629
195 943
195 304
195 579
195 763
195 350
195 504
195 766
195 255
195 807
195 298
195 851
195 879
195 949
195 992
195 997
196 264
196 275
196 407
196 541
196 538
196 419
196 946
196 562
196 358
196 560
196 673
196 537
196 206
196 320
196 603
196 599
196 925
196 792
196 723
196 725
196 343
196 996
196 243
197 528
197 533
197 586
197 595
197 600
197 733
197 734
197 735
197 753
197 257
197 790
197 305
197 823
197 835
197 842
197 334
197 857
197 863
197 378
197 919
197 412
197 926
197 418
197 417
197 935
197 427
197 441
197 454
197 460
197 975
197 475
197 994
197 511
198 524
198 542
198 646
198 687
198 749
198 439
198 865
198 812
198 995
198 939
198 711
198 203
198 211
198 225
198 740
198 286
198 909
198 936
198 980
199 525
199 579
199 589
199 602
199 607
199 670
199 519
199 954
199 304
199 513
199 298
199 588
199 260
199 787
199 437
199 766
199 255
199 294
199 807
199 851
199 425
199 949
199 965
199 455
199 992
199 997
200 523
200 805
200 443
200 956
200 575
200 960
200 584
200 329
200 365
200 327
200 342
200 611
200 493
200 274
200 420
200 466
200 605
200 232
200 618
200 622
200 244
201 520
201 621
201 624
201 628
201 631
201 636
201 649
201 676
201 689
201 713
201 768
201 754
201 252
201 815
201 821
201 901
201 399
201 404
201 987
202 520
202 620
202 621
202 632
202 636
202 665
202 676
202 689
202 713
202 768
202 815
202 446
202 653
202 758
202 307
202 990
202 288
202 690
202 850
202 208
202 762
202 319
202 326
202 366
202 901
202 399
202 404
202 987
203 524
203 542
203 711
203 688
203 716
203 801
203 695
203 980
203 939
203 518
203 302
203 356
203 663
203 995
203 895
203 682
203 253
203 789
203 967
203 211
203 480
203 905
203 296
203 286
203 393
203 687
203 655
203 646
203 812
203 357
203 463
203 909
203 756
203 944
203 391
203 313
203 862
203 865
203 800
203 749
203 416
203 225
203 507
203 448
203 373
203 439
203 337
203 490
203 882
203 991
203 377
203 776
203 993
203 936
203 924
203 891
203 834
203 292
203 283
203 916
204 512
204 261
204 804
204 601
204 860
204 610
204 363
204 886
204 379
204 715
204 213
204 893
204 457
204 505
205 261
205 573
205 581
205 330
205 601
205 610
205 867
205 886
205 457
205 715
205 893
205 479
205 213
205 856
205 774
205 363
205 963
206 264
206 786
206 537
206 667
206 541
206 923
206 538
206 419
206 431
206 946
206 562
206 843
206 719
206 978
206 723
206 599
206 996
206 243
207 780
207 522
207 784
207 536
207 280
207 795
207 796
207 822
207 809
207 811
207 299
207 686
207 436
207 250
207 950
207 720
207 231
207 630
208 620
208 624
208 632
208 636
208 676
208 689
208 690
208 326
208 850
208 278
208 754
208 404
208 713
208 401
208 764
208 310
208 920
208 928
208 631
208 563
208 758
208 700
208 366
208 649
208 399
208 762
208 815
208 768
208 653
208 821
208 848
208 810
208 269
208 626
208 252
208 859
208 912
209 586
209 595
209 625
209 675
209 710
209 496
209 706
209 216
209 753
209 257
209 790
209 305
209 823
209 835
209 842
209 334
209 857
209 863
209 378
209 919
209 412
209 427
209 441
209 460
209 975
209 475
209 994
209 498
210 650
210 526
210 557
210 691
210 571
210 974
210 227
210 973
210 808
210 348
210 871
211 518
211 524
211 542
211 646
211 655
211 666
211 687
211 711
211 302
211 373
211 286
211 507
211 439
211 800
211 882
211 296
211 939
211 991
211 895
211 834
211 480
211 259
211 391
211 663
211 688
211 716
211 891
211 966
211 789
211 389
211 356
211 995
211 253
211 801
211 377
211 643
211 313
211 909
211 283
211 749
211 865
211 812
211 228
211 490
211 924
211 292
211 740
211 380
211 415
211 225
211 993
211 967
211 936
211 448
211 756
211 416
211 776
211 682
211 862
211 357
211 944
211 874
211 337
211 980
212 521
212 411
212 671
212 543
212 564
212 309
212 331
212 592
212 878
212 459
212 328
212 881
212 333
213 261
213 330
213 856
213 601
213 610
213 867
213 886
213 457
213 500
213 860
213 804
213 581
213 508
213 379
213 485
213 223
213 363
213 503
213 715
213 512
213 712
213 737
213 774
213 573
213 479
213 963
213 893
213 220
213 728
213 505
213 476
214 515
214 523
214 805
214 420
214 428
214 311
214 443
214 956
214 575
214 584
214 329
214 219
214 226
214 232
214 622
214 244
215 281
215 413
215 945
215 308
215 696
215 698
215 827
215 837
215 612
215 736
215 336
215 637
215 741
215 745
216 595
216 675
216 706
216 708
216 710
216 460
216 857
216 922
216 625
216 322
216 422
216 735
216 753
216 334
216 888
216 962
216 412
216 498
216 854
216 427
216 237
216 937
216 790
216 441
216 734
216 265
216 305
216 318
216 835
216 842
216 847
216 863
216 378
216 919
216 935
216 975
216 475
216 994
216 511
217 281
217 934
217 558
217 945
217 308
217 696
217 837
217 959
217 612
217 336
217 698
217 797
217 736
217 745
218 648
218 778
218 394
218 784
218 536
218 280
218 795
218 796
218 822
218 809
218 813
218 299
218 435
218 825
218 323
218 720
218 473
218 231
218 630
219 311
219 956
219 575
219 961
219 584
219 342
219 605
219 226
219 622
219 420
219 484
219 618
219 493
219 244
219 919
220 512
220 261
220 774
220 330
220 601
220 610
220 886
220 457
220 715
220 379
220 860
220 479
221 546
221 586
221 595
221 600
221 675
221 708
221 710
221 726
221 734
221 735
221 237
221 475
221 733
221 265
221 412
221 935
221 926
221 868
221 847
221 460
221 418
221 753
221 498
221 915
221 511
221 422
221 426
221 894
221 318
221 842
221 305
221 790
221 835
221 334
221 857
221 888
221 378
221 919
221 417
221 427
221 441
221 454
221 975
221 994
222 258
222 773
222 517
222 779
222 651
222 793
222 942
222 829
222 880
222 461
222 775
222 999
222 619
222 545
222 885
222 552
222 297
223 261
223 774
223 573
223 330
223 856
223 601
223 867
223 379
223 707
223 479
223 737
223 363
223 500
223 508
223 503
224 268
224 272
224 659
224 844
224 853
224 977
224 904
224 877
225 524
225 542
225 646
225 655
225 862
225 682
225 939
225 357
225 980
225 936
225 800
225 377
225 688
225 966
225 643
225 711
225 740
225 993
225 439
225 480
225 895
225 380
225 801
225 391
225 389
225 416
225 909
225 490
225 228
225 687
225 292
225 749
225 967
225 286
225 296
225 337
225 882
225 448
225 995
226 805
226 420
226 575
226 584
226 342
226 576
226 329
226 870
226 594
226 484
226 618
227 913
227 808
227 557
227 691
227 958
227 973
227 986
227 317
227 321
227 871
227 874
228 946
228 524
228 646
228 655
228 666
228 711
228 716
228 740
228 480
228 415
228 253
228 891
228 448
228 357
228 905
228 682
228 391
228 292
228 812
228 296
228 936
228 944
228 967
228 518
228 862
228 377
228 643
228 749
228 259
228 286
228 801
228 865
228 995
228 685
229 385
229 267
229 548
229 964
229 845
229 598
229 574
229 750
229 705
229 989
229 449
229 240
229 634
229 332
229 739
229 614
229 617
230 386
230 902
230 539
230 291
230 565
230 566
230 597
230 590
230 896
230 672
230 497
230 531
230 702
230 262
230 316
230 661
230 609
230 236
231 899
231 778
231 780
231 536
231 795
231 813
231 299
231 435
231 630
231 825
231 436
231 532
231 784
231 970
231 487
231 569
231 323
231 876
231 367
231 839
231 831
232 523
232 805
232 428
232 311
232 443
232 956
232 576
232 584
232 329
232 466
232 342
232 767
232 961
232 515
232 575
232 493
232 870
232 274
232 622
232 244
233 411
233 671
233 543
233 550
233 564
233 309
233 592
233 459
233 615
233 878
233 234
233 635
233 328
233 932
233 235
234 411
234 543
234 932
234 550
234 564
234 309
234 331
234 459
234 635
234 671
234 881
234 235
234 878
235 411
235 671
235 543
235 550
235 564
235 592
235 344
235 615
235 635
235 249
235 462
235 878
235 881
236 896
236 530
236 672
236 566
236 590
236 609
236 483
236 627
236 509
236 565
236 531
236 702
236 262
236 291
236 597
237 624
237 586
237 595
237 675
237 706
237 710
237 731
237 733
237 734
237 305
237 318
237 835
237 842
237 334
237 857
237 863
237 888
237 381
237 919
237 412
237 418
237 417
237 935
237 427
237 441
237 454
237 975
237 475
237 994
237 498
238 553
238 639
238 654
238 656
238 668
238 681
238 685
238 718
238 683
238 424
238 349
238 817
238 760
238 971
238 751
238 755
238 270
238 289
238 841
238 351
238 368
238 884
238 372
238 892
238 392
238 396
238 930
238 481
239 264
239 786
239 537
239 538
239 419
239 562
239 324
239 599
239 343
239 603
239 360
239 243
239 254
240 385
240 256
240 535
240 548
240 692
240 574
240 332
240 845
240 739
240 614
240 617
240 750
240 492
240 638
240 384
240 499
240 267
240 783
240 634
240 449
240 989
240 516
240 704
240 748
240 598
240 964
240 705
241 556
241 553
241 623
241 654
241 668
241 681
241 701
241 714
241 718
241 372
241 248
241 289
241 817
241 349
241 351
241 368
241 375
241 892
241 392
241 396
241 402
241 930
241 424
241 481
242 519
242 580
242 607
242 549
242 763
242 255
242 807
242 298
242 851
242 965
242 982
242 992
242 997
243 946
243 324
243 585
243 723
243 343
243 603
243 355
243 843
243 431
243 996
243 358
243 275
243 786
243 538
243 667
243 360
243 836
243 303
243 407
243 410
243 406
243 908
243 587
243 873
243 988
243 320
243 264
243 254
243 792
243 978
243 889
243 306
243 925
243 791
243 541
243 725
243 599
243 560
243 923
243 414
243 719
243 782
243 657
243 537
243 562
243 419
243 721
244 428
244 311
244 956
244 575
244 961
244 584
244 329
244 342
244 622
244 443
244 611
244 453
244 515
244 523
244 365
244 618
244 594
244 664
244 274
244 327
244 484
244 767
244 427
245 519
245 580
245 588
245 607
245 260
245 255
245 294
245 807
245 851
245 949
245 455
245 992
245 997
246 662
246 534
246 558
246 945
246 696
246 827
246 745
246 477
246 984
246 308
246 741
247 556
247 559
247 577
247 591
247 639
247 654
247 668
247 685
247 714
247 718
247 751
247 553
247 747
247 248
247 270
247 803
247 341
247 351
247 368
247 884
247 372
247 892
247 392
247 927
247 930
247 424
247 481
248 567
248 639
248 668
248 681
248 685
248 718
248 747
248 755
248 361
248 544
248 931
248 717
248 482
248 781
248 372
248 701
248 349
248 559
248 481
248 751
248 770
248 679
248 890
248 270
248 803
248 817
248 930
248 402
248 760
248 362
248 392
248 979
248 251
248 938
248 971
248 397
248 289
248 654
248 409
248 684
248 820
248 623
248 906
248 714
248 798
248 802
248 824
248 884
248 683
248 927
248 444
248 561
248 368
248 892
248 290
248 396
248 553
248 933
248 331
248 351
248 607
249 411
249 543
249 564
249 309
249 331
249 328
249 592
249 459
249 878
250 899
250 648
250 780
250 652
250 522
250 536
250 796
250 809
250 811
250 813
250 299
250 686
250 435
250 825
250 720
250 724
251 559
251 591
251 623
251 639
251 642
251 654
251 656
251 668
251 683
251 714
251 718
251 747
251 270
251 803
251 351
251 368
251 372
251 375
251 892
251 392
251 396
251 927
251 930
251 424
251 481
252 520
252 624
252 632
252 636
252 689
252 713
252 754
252 398
252 941
252 976
252 872
252 732
252 288
252 772
252 269
252 815
252 307
252 821
252 319
252 326
252 850
252 859
252 366
252 901
252 399
252 404
253 524
253 542
253 646
253 655
253 663
253 687
253 711
253 716
253 749
253 286
253 865
253 882
253 924
253 415
253 448
253 480
253 995
254 264
254 782
254 657
254 786
254 284
254 673
254 419
254 293
254 946
254 562
254 324
254 585
254 719
254 723
254 725
254 603
254 599
254 873
254 275
254 343
254 667
254 978
254 843
254 407
254 889
254 836
254 538
254 791
254 467
254 410
254 303
254 908
254 431
254 849
254 320
254 996
254 541
254 925
254 358
255 519
255 525
255 588
255 589
255 602
255 607
255 629
255 763
255 766
255 425
255 785
255 807
255 949
255 633
255 260
255 670
255 916
255 969
255 771
255 918
255 765
255 965
255 943
255 769
255 403
255 350
255 304
255 465
255 273
255 833
255 488
255 903
255 390
255 388
255 315
255 954
255 982
255 294
255 879
255 787
255 437
255 579
255 287
255 298
255 340
255 504
255 660
255 455
255 263
255 851
255 992
255 997
256 384
256 385
256 748
256 739
256 598
256 614
256 989
256 267
256 783
256 535
256 548
256 692
256 705
256 845
256 499
256 757
257 586
257 595
257 675
257 708
257 710
257 733
257 734
257 753
257 454
257 378
257 838
257 441
257 922
257 900
257 863
257 823
257 794
257 847
257 842
257 726
257 915
257 475
257 546
257 395
257 868
257 790
257 907
257 334
257 412
257 744
257 888
257 427
257 919
257 854
257 935
257 381
257 418
257 506
257 910
257 417
257 314
257 962
257 345
257 898
257 272
257 305
257 835
257 857
257 460
257 975
257 994
257 498
257 511
258 429
258 869
258 885
258 450
258 461
258 353
258 645
258 438
258 880
258 773
258 517
258 775
258 779
258 651
258 921
258 297
258 942
258 829
258 619
259 518
259 524
259 646
259 666
259 682
259 687
259 695
259 711
259 716
259 740
259 895
259 356
259 337
259 302
259 663
259 980
259 749
259 286
259 882
259 391
259 924
259 967
259 995
260 519
260 525
260 549
260 580
260 588
260 589
260 602
260 763
260 766
260 287
260 304
260 851
260 607
260 785
260 263
260 340
260 943
260 298
260 769
260 918
260 997
260 787
260 294
260 833
260 879
260 425
260 949
260 992
261 512
261 379
261 508
261 860
261 601
261 743
261 610
261 479
261 893
261 500
261 363
261 804
261 774
261 867
261 712
261 330
261 963
261 456
261 505
261 728
261 476
261 715
261 457
262 386
262 902
262 530
262 495
262 896
262 509
262 590
262 497
262 316
262 539
262 291
262 593
262 531
263 519
263 589
263 607
263 629
263 763
263 765
263 266
263 807
263 455
263 488
263 766
263 833
263 903
263 579
263 549
263 787
263 949
263 350
263 287
263 504
263 390
263 992
263 670
263 969
263 660
263 513
263 602
263 851
263 997
263 298
263 879
263 425
264 946
264 320
264 541
264 996
264 786
264 673
264 725
264 719
264 537
264 988
264 419
264 585
264 284
264 849
264 599
264 923
264 275
264 667
264 538
264 324
264 843
264 723
264 343
264 603
264 358
264 873
264 668
265 586
265 595
265 600
265 675
265 710
265 734
265 753
265 935
265 417
265 794
265 454
265 926
265 854
265 318
265 835
265 842
265 334
265 857
265 345
265 863
265 888
265 378
265 919
265 412
265 418
265 427
265 441
265 975
265 475
265 994
265 498
265 511
266 513
266 519
266 525
266 588
266 589
266 607
266 670
266 763
266 765
266 766
266 807
266 298
266 304
266 851
266 425
266 949
266 455
266 992
266 997
267 385
267 449
267 739
267 750
267 492
267 692
267 757
267 535
267 845
267 989
267 384
267 705
267 516
267 598
267 499
267 783
267 617
267 548
267 614
268 659
268 400
268 335
268 977
268 271
268 953
268 272
268 527
268 529
268 877
269 620
269 624
269 636
269 676
269 713
269 762
269 772
269 754
269 810
269 821
269 278
269 632
269 312
269 644
269 404
269 369
269 628
269 883
269 920
269 631
269 665
269 990
269 399
269 347
269 859
269 319
269 815
269 326
269 850
269 901
269 987
270 559
270 654
270 656
270 681
270 684
270 685
270 718
270 803
270 906
270 372
270 983
270 699
270 482
270 679
270 884
270 361
270 802
270 770
270 747
270 341
270 841
270 639
270 567
270 979
270 444
270 714
270 642
270 938
270 798
270 289
270 375
270 424
270 392
270 290
270 368
270 760
270 362
270 591
270 751
270 553
270 701
270 930
270 927
270 556
270 397
270 561
270 717
270 409
270 788
270 396
270 683
270 892
270 481
270 820
270 623
270 351
270 668
270 279
270 890
270 817
270 544
270 382
271 904
271 596
271 742
271 354
271 478
271 877
271 471
271 659
271 339
271 272
271 844
271 335
271 527
271 276
271 977
271 953
271 853
271 382
272 335
272 977
272 527
272 853
272 953
272 844
272 339
272 471
272 382
273 549
273 607
273 629
273 807
273 298
273 851
273 425
273 949
273 965
273 455
273 992
273 997
274 515
274 805
274 484
274 493
274 960
274 466
274 584
274 327
274 342
274 428
274 311
274 575
274 961
274 329
274 622
274 334
275 782
275 657
275 306
275 360
275 673
275 725
275 467
275 978
275 407
275 723
275 562
275 414
275 538
275 925
275 320
275 431
275 719
275 419
275 786
275 537
275 284
275 560
275 946
275 599
275 343
275 603
275 996
276 527
276 335
276 953
276 339
276 844
276 853
276 659
276 400
276 977
276 478
276 877
277 563
277 620
277 621
277 624
277 631
277 636
277 665
277 676
277 689
277 690
277 713
277 754
277 772
277 815
277 821
277 319
277 326
277 848
277 912
277 404
278 563
278 620
278 628
278 632
278 636
278 665
278 676
278 689
278 690
278 700
278 713
278 754
278 762
278 864
278 912
278 631
278 810
278 399
278 404
278 987
279 559
279 561
279 591
279 623
279 639
279 654
279 668
279 681
279 685
279 718
279 755
279 289
279 824
279 351
279 368
279 372
279 892
279 392
279 396
279 402
279 927
279 930
279 424
280 778
280 522
280 784
280 917
280 536
280 816
280 323
280 955
280 825
280 724
280 299
280 950
280 693
280 968
280 436
280 796
280 809
280 940
280 813
280 433
280 720
280 473
281 662
281 534
281 746
281 489
281 669
281 554
281 336
281 741
281 308
281 736
281 694
281 797
281 837
281 477
281 959
281 637
281 721
281 551
281 945
281 696
281 827
281 727
281 984
281 998
281 616
281 745
282 513
282 580
282 589
282 602
282 607
282 765
282 519
282 903
282 294
282 807
282 298
282 851
282 425
282 949
282 455
282 992
283 524
283 646
283 711
283 740
283 643
283 296
283 337
283 862
283 865
283 882
283 391
283 415
283 936
283 448
283 995
284 908
284 782
284 407
284 537
284 667
284 324
284 925
284 355
284 923
284 673
284 587
284 585
284 414
284 792
284 996
284 889
284 431
284 467
284 406
284 538
284 306
284 723
284 541
284 419
284 562
284 320
284 719
284 343
284 603
284 368
285 514
285 510
285 583
285 572
285 957
285 568
285 458
285 423
285 434
285 972
285 325
285 502
285 806
285 819
285 677
285 697
285 470
285 981
285 346
286 524
286 542
286 646
286 655
286 687
286 711
286 740
286 749
286 882
286 905
286 980
286 389
286 688
286 895
286 834
286 480
286 391
286 865
286 643
286 356
286 393
286 695
286 891
286 373
286 789
286 439
286 967
286 995
286 666
286 313
286 337
286 801
286 448
286 716
286 296
286 682
286 357
286 966
286 944
286 756
286 909
286 862
286 991
286 490
286 812
286 776
286 518
286 800
286 380
286 939
286 415
286 936
287 809
287 418
287 525
287 579
287 607
287 992
287 633
287 294
287 298
287 851
287 949
287 455
287 969
287 997
288 520
288 624
288 636
288 644
288 676
288 690
288 762
288 821
288 326
288 859
288 404
288 987
289 559
289 591
289 623
289 639
289 642
289 654
289 656
289 668
289 681
289 683
289 685
289 701
289 718
289 755
289 481
289 567
289 884
289 553
289 577
289 409
289 684
289 349
289 803
289 444
289 820
289 751
289 561
289 375
289 798
289 841
289 930
289 760
289 890
289 556
289 699
289 544
289 802
289 351
289 817
289 770
289 906
289 424
289 983
289 714
289 430
289 341
289 361
289 396
289 402
290 556
290 559
290 591
290 656
290 668
290 681
290 685
290 714
290 718
290 751
290 351
290 368
290 884
290 375
290 892
290 392
290 396
290 930
290 424
290 481
291 896
291 531
291 565
291 530
291 597
291 627
291 902
291 386
291 316
291 702
291 590
291 509
291 539
291 495
291 609
291 497
292 524
292 542
292 663
292 695
292 711
292 749
292 801
292 991
292 296
292 337
292 882
292 936
292 448
292 480
293 908
293 782
293 537
293 541
293 414
293 419
293 889
293 667
293 599
293 431
293 978
293 585
293 923
293 946
293 562
293 324
293 723
293 725
293 603
293 996
293 358
293 360
294 525
294 579
294 589
294 602
294 607
294 763
294 766
294 765
294 588
294 425
294 787
294 785
294 771
294 982
294 633
294 954
294 301
294 769
294 549
294 519
294 298
294 437
294 992
294 903
294 350
294 465
294 403
294 315
294 997
294 580
294 949
294 879
294 943
294 504
294 390
294 969
294 851
294 455
294 488
295 641
295 674
295 491
295 408
295 840
295 501
295 985
295 814
295 371
295 352
295 861
295 445
295 952
295 474
296 524
296 643
296 646
296 687
296 711
296 740
296 749
296 801
296 936
296 373
296 393
296 800
296 776
296 995
296 439
296 302
296 688
296 993
296 905
296 507
296 980
296 415
296 865
296 356
296 542
296 490
296 991
296 380
296 663
296 939
296 716
296 966
296 862
296 337
296 924
296 448
296 967
297 779
297 405
297 921
297 793
297 942
297 829
297 438
297 999
297 353
297 429
297 869
297 619
297 880
297 885
298 519
298 525
298 549
298 589
298 602
298 607
298 629
298 670
298 763
298 766
298 903
298 992
298 949
298 765
298 954
298 403
298 455
298 785
298 304
298 315
298 943
298 390
298 771
298 787
298 350
298 301
298 437
298 879
298 633
298 388
298 580
298 965
298 465
298 851
298 833
298 725
298 425
298 997
299 899
299 648
299 522
299 914
299 917
299 536
299 795
299 809
299 940
299 604
299 652
299 970
299 839
299 693
299 831
299 784
299 796
299 813
299 947
299 858
299 816
299 825
299 630
299 473
299 487
299 367
299 540
299 433
299 722
299 950
299 822
299 948
299 338
299 569
299 436
299 686
299 576
299 435
299 323
299 720
300 526
300 958
300 348
300 557
300 986
300 376
300 582
300 871
300 317
300 321
300 691
300 451
300 974
300 486
300 874
301 525
301 589
301 602
301 763
301 765
301 807
301 315
301 425
301 771
301 851
301 879
301 949
301 965
301 992
301 997
302 675
302 518
302 524
302 542
302 687
302 716
302 749
302 801
302 337
302 882
302 391
302 393
302 448
302 967
302 980
302 766
303 657
303 786
303 406
303 537
303 541
303 923
303 538
303 419
303 431
303 355
303 585
303 719
303 996
303 587
303 560
303 946
303 562
303 306
303 843
303 725
303 599
303 603
304 519
304 589
304 766
304 807
304 833
304 425
304 949
304 992
304 997
305 586
305 595
305 600
305 675
305 708
305 710
305 734
305 735
305 753
305 790
305 395
305 334
305 731
305 937
305 911
305 835
305 794
305 910
305 378
305 680
305 929
305 919
305 322
305 314
305 345
305 894
305 838
305 857
305 418
305 823
305 888
305 426
305 381
305 994
305 417
305 898
305 922
305 863
305 496
305 832
305 951
305 422
305 460
305 842
305 926
305 533
305 511
305 318
305 706
305 935
305 975
305 454
305 847
305 528
305 907
305 799
305 868
305 427
305 900
305 962
305 475
305 430
305 498
305 925
305 412
305 441
306 537
306 667
306 925
306 541
306 538
306 419
306 560
306 562
306 599
306 603
306 410
306 908
306 406
306 657
306 988
306 836
306 324
306 873
306 431
306 358
306 585
306 978
306 723
306 343
306 360
307 520
307 621
307 631
307 636
307 689
307 690
307 713
307 754
307 821
307 326
307 901
307 912
307 404
307 987
308 413
308 558
308 945
308 551
308 662
308 959
308 727
308 464
308 698
308 669
308 837
308 696
308 827
309 897
309 521
309 411
309 671
309 543
309 550
309 564
309 881
309 462
309 328
309 331
309 333
309 932
309 344
309 878
309 459
310 563
310 620
310 624
310 628
310 631
310 632
310 636
310 653
310 676
310 689
310 700
310 713
310 754
310 810
310 815
310 821
310 326
310 859
310 901
310 399
310 404
310 987
310 441
311 515
311 805
311 420
311 428
311 664
311 523
311 484
311 870
311 584
311 767
311 466
311 618
311 329
311 605
311 365
311 575
311 960
311 493
311 443
311 374
311 622
311 576
311 611
311 327
311 342
311 956
312 520
312 624
312 631
312 632
312 636
312 665
312 689
312 690
312 754
312 772
312 821
312 319
312 850
312 859
312 901
312 404
312 935
313 524
313 646
313 655
313 711
313 716
313 740
313 749
313 801
313 337
313 415
313 416
313 448
313 995
314 533
314 546
314 586
314 600
314 675
314 706
314 708
314 710
314 733
314 734
314 753
314 790
314 818
314 318
314 835
314 842
314 334
314 857
314 863
314 888
314 378
314 919
314 412
314 935
314 427
314 441
314 454
314 975
314 475
314 994
314 498
315 589
315 602
315 607
315 763
315 765
315 766
315 807
315 851
315 879
315 949
315 992
316 386
316 530
316 531
316 539
316 565
316 566
316 609
317 650
317 526
317 557
317 691
317 875
317 887
317 874
317 974
317 986
317 613
318 547
318 586
318 595
318 675
318 710
318 733
318 734
318 753
318 790
318 395
318 506
318 888
318 533
318 832
318 460
318 818
318 600
318 345
318 926
318 412
318 475
318 454
318 951
318 823
318 364
318 898
318 907
318 426
318 706
318 847
318 854
318 910
318 418
318 417
318 900
318 842
318 929
318 322
318 794
318 894
318 625
318 726
318 935
318 937
318 868
318 334
318 975
318 496
318 422
318 962
318 498
318 838
318 857
318 922
318 731
318 528
318 994
318 511
318 799
318 430
318 919
318 546
318 441
318 680
318 911
318 381
318 378
318 770
318 835
318 863
318 427
319 520
319 624
319 628
319 631
319 632
319 636
319 665
319 676
319 689
319 690
319 700
319 762
319 815
319 821
319 848
319 369
319 928
319 563
319 850
319 920
319 772
319 469
319 678
319 713
319 901
319 976
319 883
319 326
319 859
319 399
319 404
319 442
319 987
319 994
320 782
320 657
320 537
320 667
320 541
320 560
320 946
320 562
320 410
320 360
320 587
320 923
320 725
320 406
320 355
320 719
320 978
320 343
320 603
320 996
321 650
321 526
321 913
321 557
321 691
321 958
321 871
321 376
321 348
321 875
321 447
321 451
321 709
321 974
321 613
321 874
321 761
322 586
322 595
322 600
322 675
322 710
322 734
322 753
322 790
322 823
322 835
322 345
322 863
322 378
322 919
322 412
322 926
322 935
322 441
322 454
322 975
322 475
322 994
322 498
323 778
323 394
323 914
323 917
323 536
323 795
323 822
323 809
323 811
323 433
323 435
323 825
323 955
323 831
323 950
323 780
323 367
323 487
323 648
323 569
323 858
323 540
323 796
323 724
323 436
323 658
323 338
323 899
323 473
323 947
323 604
323 813
323 784
323 839
323 940
323 522
323 970
323 948
323 452
323 720
324 782
324 537
324 410
324 667
324 414
324 538
324 360
324 873
324 585
324 996
324 786
324 560
324 407
324 541
324 431
324 673
324 355
324 908
324 946
324 587
324 657
324 843
324 358
324 467
324 562
324 603
324 836
324 723
324 406
324 419
324 343
324 599
325 806
325 423
325 434
325 568
325 697
325 572
325 830
325 738
325 468
325 677
325 846
325 819
325 583
325 502
325 729
325 972
325 458
325 514
325 346
325 470
325 510
326 520
326 620
326 621
326 624
326 631
326 632
326 636
326 649
326 665
326 689
326 690
326 754
326 762
326 772
326 815
326 821
326 366
326 369
326 990
326 941
326 883
326 678
326 928
326 563
326 653
326 987
326 732
326 850
326 859
326 442
327 523
327 575
327 960
327 961
327 453
327 618
327 374
327 584
327 329
327 342
327 622
328 897
328 521
328 411
328 564
328 331
328 932
328 543
328 550
328 671
328 635
328 881
328 459
328 333
328 592
329 428
329 956
329 575
329 961
329 576
329 584
329 374
329 767
329 420
329 960
329 453
329 523
329 365
329 484
329 594
329 805
329 618
329 870
329 466
329 515
329 493
329 664
329 342
329 622
330 774
330 573
330 500
330 610
330 379
330 457
330 383
330 479
330 867
330 963
330 512
330 728
330 860
330 503
330 893
330 363
330 456
330 856
330 601
330 886
330 715
330 505
331 897
331 411
331 671
331 543
331 550
331 564
331 881
331 333
331 344
331 459
331 615
331 592
332 692
332 574
332 614
332 535
332 757
332 783
332 845
332 492
332 748
332 705
332 704
332 598
332 638
332 586
333 521
333 671
333 543
333 550
333 897
333 564
333 592
333 344
333 615
333 881
334 586
334 595
334 675
334 706
334 708
334 710
334 734
334 753
334 790
334 835
334 842
334 733
334 857
334 460
334 910
334 854
334 498
334 929
334 454
334 975
334 600
334 919
334 951
334 533
334 735
334 894
334 381
334 528
334 680
334 898
334 506
334 907
334 994
334 364
334 418
334 417
334 900
334 475
334 818
334 838
334 868
334 412
334 823
334 426
334 726
334 863
334 547
334 625
334 832
334 926
334 922
334 937
334 378
334 427
334 441
335 475
335 904
335 659
335 400
335 529
335 844
335 977
335 596
335 877
335 478
335 339
335 382
336 662
336 534
336 934
336 555
336 696
336 698
336 827
336 959
336 837
336 736
337 542
337 643
337 646
337 655
337 711
337 756
337 801
337 882
337 995
337 393
337 415
337 507
337 391
337 895
337 905
337 966
337 356
337 865
337 834
337 439
337 749
337 924
337 812
337 967
337 891
337 991
337 666
337 939
337 687
337 389
337 846
337 373
337 980
337 480
338 899
338 648
338 522
338 784
338 917
338 536
338 796
338 809
338 811
338 813
338 435
338 955
338 720
339 904
339 527
339 659
339 400
339 844
339 742
339 596
339 471
339 354
339 877
339 382
340 513
340 588
340 589
340 602
340 607
340 629
340 763
340 807
340 833
340 851
340 965
340 455
340 992
341 556
341 559
341 623
341 639
341 642
341 654
341 668
341 681
341 685
341 718
341 747
341 751
341 375
341 890
341 930
341 368
341 931
341 699
341 884
341 906
341 760
341 362
341 892
341 553
341 349
341 855
341 781
341 402
341 701
341 803
341 971
341 351
341 372
341 392
341 396
341 481
341 525
342 420
342 575
342 961
342 453
342 584
342 594
342 956
342 576
342 466
342 493
342 515
342 428
342 484
342 664
342 622
342 960
342 870
342 611
342 365
342 605
342 767
342 443
342 618
343 791
343 782
343 786
343 407
343 537
343 410
343 667
343 541
343 414
343 923
343 419
343 946
343 562
343 585
343 719
343 849
343 358
343 560
343 467
343 908
343 355
343 657
343 723
343 873
343 538
343 599
343 406
343 431
343 603
343 889
343 996
343 587
344 411
344 543
344 550
344 564
344 592
344 881
344 462
344 615
344 878
345 586
345 675
345 706
345 708
345 710
345 733
345 734
345 790
345 818
345 835
345 857
345 823
345 926
345 854
345 744
345 907
345 533
345 430
345 735
345 600
345 910
345 506
345 937
345 680
345 863
345 417
345 426
345 381
345 929
345 868
345 378
345 919
345 412
345 427
345 441
345 975
345 475
345 994
345 498
345 511
346 806
346 423
346 697
346 583
346 981
346 729
346 434
346 819
346 514
346 846
346 470
346 568
346 677
346 738
346 510
347 621
347 624
347 631
347 632
347 636
347 676
347 689
347 690
347 772
347 815
347 821
347 901
347 912
347 404
348 526
348 557
348 432
348 691
348 571
348 958
348 447
348 451
348 973
348 974
348 986
348 887
348 613
348 874
348 494
349 419
349 556
349 559
349 623
349 656
349 668
349 679
349 718
349 817
349 770
349 820
349 372
349 983
349 788
349 685
349 701
349 938
349 890
349 933
349 760
349 577
349 892
349 751
349 361
349 375
349 884
349 444
349 567
349 855
349 684
349 591
349 561
349 824
349 781
349 397
349 683
349 931
349 979
349 409
349 681
349 961
349 368
349 392
349 930
350 519
350 579
350 589
350 602
350 607
350 763
350 766
350 851
350 879
350 949
350 965
350 455
350 992
350 997
350 488
351 556
351 559
351 567
351 668
351 681
351 685
351 718
351 747
351 817
351 855
351 983
351 701
351 931
351 683
351 591
351 884
351 802
351 760
351 824
351 623
351 392
351 717
351 938
351 803
351 798
351 654
351 781
351 444
351 656
351 397
351 714
351 699
351 372
351 979
351 639
351 892
351 361
351 930
351 770
351 577
351 684
351 751
351 409
351 362
351 482
351 755
351 368
351 553
351 971
351 890
351 841
351 788
351 642
351 561
351 820
351 927
351 906
351 424
351 481
351 679
351 402
352 648
352 641
352 408
352 674
352 814
352 952
352 826
352 472
352 985
352 730
352 474
352 606
353 773
353 517
353 775
353 645
353 779
353 651
353 405
353 429
353 942
353 450
353 921
353 619
353 880
353 885
354 659
354 529
354 853
354 478
354 904
354 596
354 382
354 471
354 742
355 782
355 657
355 406
355 407
355 541
355 538
355 419
355 946
355 562
355 585
355 719
355 978
355 723
355 599
355 603
356 378
356 524
356 542
356 646
356 663
356 666
356 687
356 711
356 740
356 801
356 862
356 865
356 882
356 391
356 393
356 415
356 448
356 995
357 518
357 524
357 542
357 643
357 646
357 655
357 740
357 749
357 756
357 393
357 415
357 448
357 995
358 706
358 782
358 792
358 537
358 667
358 541
358 538
358 419
358 946
358 562
358 978
358 723
358 599
358 603
358 996
358 908
358 889
358 843
359 640
359 641
359 777
359 674
359 814
359 952
359 570
359 826
359 840
359 985
359 730
359 474
359 606
359 608
359 501
360 657
360 537
360 923
360 419
360 562
360 719
360 978
360 723
360 599
360 603
360 431
360 406
360 585
361 559
361 591
361 623
361 639
361 654
361 668
361 685
361 714
361 718
361 751
361 755
361 798
361 841
361 760
361 770
361 392
361 544
361 930
361 679
361 788
361 556
361 747
361 368
361 884
361 372
361 375
361 892
361 396
362 556
362 559
362 639
362 642
362 654
362 656
362 684
362 714
362 718
362 751
362 368
362 884
362 892
362 392
362 396
362 927
362 930
362 424
363 711
363 774
363 601
363 867
363 383
363 728
363 512
363 581
363 804
363 886
363 707
363 715
363 503
363 505
364 586
364 595
364 675
364 706
364 734
364 735
364 790
364 835
364 842
364 857
364 863
364 888
364 412
364 418
364 417
364 935
364 427
364 441
364 454
364 460
364 975
364 475
364 994
364 498
364 511
365 523
365 664
365 805
365 443
365 575
365 961
365 576
365 453
365 584
365 618
365 622
366 520
366 563
366 621
366 624
366 628
366 632
366 636
366 649
366 665
366 689
366 690
366 713
366 754
366 815
366 821
366 848
366 901
366 732
366 399
366 404
366 987
367 784
367 914
367 532
367 540
367 822
367 809
367 811
367 940
367 813
367 435
367 948
367 950
367 825
367 473
367 780
367 452
367 630
368 654
368 668
368 684
368 685
368 701
368 718
368 817
368 820
368 841
368 553
368 424
368 481
368 971
368 983
368 824
368 884
368 396
368 938
368 623
368 397
368 577
368 561
368 770
368 591
368 927
368 892
368 714
368 906
368 544
368 567
368 803
368 933
368 642
368 717
368 681
368 699
368 375
368 556
368 755
368 747
368 760
368 656
368 751
368 855
368 802
368 798
368 559
368 979
368 930
368 444
368 683
368 392
368 372
368 890
368 781
368 931
368 402
368 639
369 520
369 620
369 621
369 624
369 631
369 632
369 636
369 644
369 676
369 689
369 690
369 700
369 762
369 772
369 815
369 821
369 901
369 404
369 442
369 987
370 387
370 777
370 674
370 952
370 570
370 826
370 730
370 474
370 606
370 640
371 814
371 826
371 840
371 852
371 472
371 985
371 474
371 861
371 445
371 408
372 412
372 559
372 577
372 591
372 623
372 639
372 654
372 668
372 683
372 684
372 718
372 803
372 817
372 884
372 820
372 892
372 802
372 781
372 770
372 983
372 424
372 933
372 681
372 444
372 699
372 938
372 392
372 396
372 927
372 930
372 481
373 524
373 542
373 646
373 688
373 695
373 711
373 749
373 801
373 862
373 865
373 882
373 389
373 939
373 507
373 682
373 909
373 391
373 415
373 936
373 448
373 967
373 980
373 995
374 805
374 575
374 960
374 961
374 584
374 618
374 622
374 605
375 556
375 559
375 642
375 654
375 668
375 681
375 714
375 718
375 755
375 817
375 820
375 884
375 684
375 402
375 679
375 701
375 971
375 685
375 979
375 577
375 392
375 481
375 824
375 803
375 892
375 396
375 927
376 808
376 557
376 691
376 958
376 974
376 650
376 571
376 432
376 447
376 761
377 518
377 524
377 542
377 646
377 682
377 687
377 711
377 749
377 801
377 882
377 448
377 980
377 995
377 623
378 586
378 595
378 675
378 710
378 734
378 735
378 790
378 835
378 847
378 857
378 863
378 888
378 506
378 975
378 533
378 600
378 842
378 937
378 460
378 708
378 868
378 919
378 475
378 680
378 395
378 546
378 898
378 910
378 496
378 894
378 915
378 528
378 838
378 823
378 922
378 511
378 418
378 412
378 547
378 832
378 753
378 794
378 818
378 744
378 907
378 951
378 926
378 454
378 706
378 430
378 625
378 498
378 962
378 731
378 929
378 417
378 427
378 994
379 763
379 774
379 601
379 610
379 867
379 886
379 485
379 715
379 476
379 503
380 524
380 682
380 711
380 740
380 801
380 865
380 882
380 415
380 448
380 980
380 995
381 586
381 595
381 625
381 675
381 706
381 710
381 734
381 753
381 790
381 835
381 842
381 857
381 863
381 726
381 395
381 506
381 929
381 430
381 915
381 731
381 823
381 412
381 926
381 935
381 427
381 441
381 975
381 475
381 498
381 511
382 527
382 529
382 596
382 853
382 478
382 904
382 844
382 471
382 742
382 659
382 400
383 573
383 856
383 601
383 610
383 886
383 715
383 505
384 449
384 845
384 638
384 757
384 634
384 574
384 614
384 750
384 598
384 492
384 385
384 535
384 548
384 692
384 705
384 499
385 449
385 574
385 548
385 692
385 614
385 492
385 634
385 845
385 739
385 535
385 598
385 748
385 516
385 783
385 757
385 638
385 989
385 704
385 499
385 964
385 750
385 617
385 705
386 578
386 530
386 531
386 590
386 565
386 609
386 661
386 566
386 497
387 640
387 641
387 674
387 759
387 814
387 840
387 445
387 777
387 752
387 491
387 472
387 408
387 852
387 985
387 606
388 926
388 525
388 549
388 579
388 588
388 589
388 602
388 607
388 629
388 763
388 766
388 807
388 851
388 879
388 425
388 949
388 455
388 992
389 542
389 643
389 646
389 688
389 711
389 749
389 862
389 865
389 882
390 536
390 525
390 579
390 589
390 602
390 607
390 763
390 807
390 851
390 879
390 437
390 580
390 949
390 455
390 992
391 524
391 646
391 655
391 687
391 688
391 695
391 711
391 749
391 801
391 415
391 967
391 834
391 463
391 980
391 393
391 448
391 995
392 556
392 559
392 639
392 654
392 656
392 681
392 714
392 718
392 817
392 820
392 884
392 892
392 481
392 591
392 402
392 781
392 930
392 760
392 623
392 668
392 701
392 747
392 979
392 553
392 927
392 396
392 561
392 770
392 699
392 971
392 802
392 751
392 409
392 717
392 444
392 788
392 906
392 798
392 931
392 841
392 397
392 824
392 684
392 683
392 933
392 855
392 685
392 803
392 482
392 755
392 983
392 679
393 524
393 542
393 643
393 646
393 655
393 687
393 740
393 749
393 756
393 801
393 862
393 882
393 789
393 688
393 480
393 415
393 936
393 448
393 980
394 899
394 648
394 778
394 831
394 652
394 816
394 940
394 876
394 948
394 839
394 780
394 658
394 914
394 795
394 809
394 811
394 433
394 825
394 436
394 720
394 630
395 547
395 586
395 595
395 675
395 706
395 708
395 710
395 734
395 753
395 790
395 818
395 823
395 835
395 842
395 847
395 857
395 863
395 919
395 412
395 418
395 935
395 427
395 441
395 975
395 475
395 994
395 498
396 544
396 559
396 623
396 654
396 668
396 681
396 747
396 751
396 755
396 817
396 884
396 892
396 979
396 718
396 930
396 788
396 890
396 679
396 760
396 424
396 802
396 798
396 402
396 983
396 781
396 481
396 824
396 841
396 971
396 906
396 642
396 444
396 714
396 397
396 820
396 931
396 933
396 938
396 701
396 684
396 717
396 553
396 855
396 591
396 556
396 927
396 567
396 561
396 656
396 482
396 803
396 685
396 639
396 699
396 770
396 812
397 544
397 561
397 577
397 639
397 668
397 681
397 685
397 718
397 747
397 755
397 884
397 892
397 930
397 481
398 563
398 620
398 628
398 636
398 689
398 690
398 713
398 754
398 768
398 821
398 850
398 901
398 404
398 399
398 912
398 987
399 520
399 621
399 631
399 690
399 762
399 772
399 815
399 821
399 901
399 440
399 987
399 649
399 620
399 421
399 883
399 768
399 859
399 624
399 442
399 872
399 626
399 758
399 754
399 678
399 928
399 644
399 700
399 563
399 446
399 732
399 676
399 636
399 912
399 628
399 469
399 941
399 689
399 699
399 404
400 596
400 478
400 877
400 529
400 904
400 977
400 527
400 853
400 659
400 953
400 844
401 520
401 620
401 624
401 631
401 632
401 636
401 644
401 665
401 676
401 754
401 762
401 768
401 772
401 810
401 815
401 821
401 901
401 404
401 987
402 559
402 623
402 654
402 668
402 681
402 683
402 685
402 714
402 718
402 751
402 802
402 884
402 892
402 642
402 699
402 824
402 931
402 770
402 983
402 424
402 482
402 591
402 906
402 747
402 855
402 927
402 930
402 481
403 513
403 519
403 549
403 589
403 607
403 763
403 807
403 833
403 851
403 425
403 949
403 965
403 992
404 520
404 620
404 624
404 628
404 636
404 644
404 676
404 689
404 690
404 700
404 762
404 815
404 901
404 912
404 920
404 810
404 768
404 764
404 442
404 440
404 864
404 469
404 626
404 421
404 941
404 754
404 821
404 653
404 621
404 772
404 631
404 713
404 678
404 632
404 928
404 758
404 649
404 883
404 848
404 732
404 872
404 990
404 976
404 665
404 850
404 987
404 446
404 563
405 775
405 645
405 779
405 773
405 942
405 517
405 450
405 880
405 552
405 545
405 438
405 793
405 921
405 829
405 619
405 885
406 908
406 791
406 782
406 657
406 946
406 836
406 723
406 585
406 849
406 431
406 407
406 843
406 925
406 537
406 410
406 541
406 923
406 538
406 560
406 562
406 719
406 725
406 599
406 603
407 419
407 791
407 719
407 725
407 414
407 946
407 537
407 541
407 923
407 538
407 562
407 585
407 978
407 603
408 640
408 641
408 759
408 826
408 814
408 606
408 752
408 852
408 445
408 608
408 674
408 985
408 570
408 491
408 777
408 472
408 474
409 561
409 591
409 623
409 639
409 654
409 668
409 681
409 683
409 685
409 714
409 718
409 751
409 755
409 781
409 817
409 824
409 884
409 892
409 930
410 791
410 792
410 537
410 603
410 414
410 843
410 849
410 560
410 419
410 673
410 541
410 538
410 431
410 562
410 599
410 996
411 878
411 564
411 615
411 932
411 671
411 881
411 635
411 521
411 592
411 543
411 462
411 459
411 550
412 586
412 600
412 675
412 680
412 710
412 726
412 735
412 753
412 790
412 835
412 842
412 857
412 888
412 919
412 854
412 929
412 731
412 528
412 422
412 937
412 926
412 910
412 994
412 708
412 975
412 460
412 962
412 734
412 799
412 454
412 733
412 496
412 907
412 898
412 935
412 511
412 625
412 427
412 922
412 506
412 498
412 430
412 832
412 417
412 868
412 546
412 744
412 818
412 847
412 823
412 475
412 418
412 894
412 706
412 911
412 915
412 794
412 900
412 838
412 441
413 662
413 534
413 703
413 721
413 694
413 637
413 477
413 998
413 727
413 736
413 554
413 555
413 945
413 696
413 698
413 827
413 959
413 837
413 464
413 745
414 782
414 537
414 667
414 925
414 541
414 791
414 836
414 657
414 923
414 538
414 560
414 585
414 723
414 725
414 603
415 524
415 542
415 711
415 865
415 882
415 756
415 800
415 687
415 939
415 801
415 507
415 967
415 812
415 776
415 862
415 643
415 688
415 834
415 518
415 663
415 966
415 980
415 416
415 716
415 995
415 448
415 480
416 524
416 646
416 655
416 663
416 740
416 749
416 801
416 882
416 905
416 756
416 936
416 448
416 967
416 995
417 533
417 547
417 586
417 595
417 600
417 675
417 706
417 710
417 726
417 734
417 753
417 790
417 823
417 835
417 842
417 857
417 863
417 868
417 888
417 418
417 935
417 926
417 794
417 735
417 426
417 838
417 441
417 929
417 680
417 744
417 731
417 894
417 962
417 911
417 623
417 427
417 454
417 975
417 475
417 994
417 511
418 546
418 595
418 600
418 675
418 706
418 708
418 710
418 733
418 734
418 735
418 753
418 790
418 823
418 835
418 842
418 857
418 863
418 868
418 888
418 854
418 951
418 898
418 929
418 427
418 506
418 818
418 799
418 962
418 586
418 726
418 498
418 533
418 528
418 422
418 731
418 430
418 922
418 847
418 744
418 935
418 441
418 975
418 475
419 791
419 782
419 657
419 792
419 667
419 541
419 599
419 725
419 538
419 978
419 908
419 537
419 996
419 923
419 925
419 988
419 946
419 603
419 723
419 843
419 467
419 849
419 562
419 889
419 431
419 873
419 587
419 560
419 585
419 719
420 515
420 664
420 576
420 961
420 767
420 443
420 956
420 584
420 618
420 493
420 622
421 563
421 624
421 631
421 636
421 649
421 689
421 713
421 754
421 762
421 764
421 772
421 821
421 859
421 901
421 987
422 586
422 595
422 600
422 675
422 706
422 710
422 733
422 734
422 753
422 790
422 835
422 842
422 847
422 857
422 868
422 919
422 935
422 427
422 441
422 454
422 460
422 975
422 475
422 994
422 498
423 514
423 677
423 738
423 866
423 830
423 846
423 434
423 572
423 957
423 583
423 981
423 510
424 544
424 639
424 654
424 668
424 681
424 718
424 755
424 817
424 884
424 892
424 559
424 971
424 577
424 685
424 979
424 802
424 591
424 906
424 747
424 656
424 933
424 561
424 679
424 683
424 553
424 820
424 841
424 983
424 798
424 931
424 653
425 525
425 549
425 589
425 607
425 633
425 763
425 807
425 851
425 997
425 766
425 437
425 787
425 513
425 969
425 992
425 769
425 771
425 455
425 670
425 602
425 879
425 965
425 519
425 765
425 504
425 916
425 982
425 949
425 465
425 692
426 586
426 595
426 675
426 708
426 710
426 734
426 735
426 753
426 790
426 818
426 832
426 835
426 842
426 857
426 863
426 919
426 427
426 441
426 454
426 975
426 475
426 498
426 511
427 586
427 595
427 600
427 675
427 706
427 708
427 710
427 753
427 790
427 842
427 857
427 863
427 888
427 919
427 926
427 935
427 528
427 680
427 731
427 868
427 854
427 911
427 511
427 907
427 794
427 975
427 835
427 910
427 894
427 832
427 744
427 734
427 454
427 726
427 994
427 922
427 915
427 898
427 496
427 506
427 733
427 929
427 735
427 962
427 430
427 460
427 475
427 799
427 937
427 546
427 533
427 818
427 847
427 900
427 838
427 951
427 823
427 625
427 441
427 498
428 515
428 664
428 443
428 576
428 523
428 575
428 961
428 453
428 584
428 611
428 618
428 493
428 622
428 767
428 589
429 517
429 779
429 647
429 651
429 999
429 921
429 828
429 438
429 942
429 829
429 450
429 619
429 880
429 885
430 528
430 586
430 595
430 600
430 675
430 706
430 708
430 710
430 733
430 734
430 753
430 835
430 857
430 863
430 919
430 926
430 935
430 441
430 454
430 460
430 975
430 475
430 994
430 498
430 511
431 782
431 657
431 541
431 538
431 560
431 946
431 562
431 585
431 587
431 978
431 723
431 599
431 603
432 650
432 526
432 913
432 557
432 486
432 973
432 451
432 447
432 986
432 691
432 808
432 613
432 871
432 874
433 648
433 652
433 522
433 536
433 822
433 809
433 813
433 940
433 693
433 825
433 811
433 658
433 795
433 876
433 720
433 816
433 955
433 917
433 452
433 778
433 473
433 947
433 858
433 968
433 487
433 780
433 435
433 436
433 630
434 677
434 806
434 510
434 568
434 981
434 470
434 866
434 819
434 830
434 738
434 572
434 468
435 899
435 522
435 914
435 917
435 795
435 796
435 822
435 809
435 876
435 825
435 532
435 948
435 858
435 473
435 950
435 652
435 686
435 816
435 604
435 811
435 648
435 540
435 569
435 839
435 780
435 722
435 813
435 720
435 436
435 630
436 899
436 648
436 780
436 522
436 784
436 536
436 796
436 540
436 809
436 811
436 950
436 825
436 452
436 795
436 569
436 630
436 968
436 947
436 658
436 858
436 532
436 720
437 519
437 525
437 579
437 580
437 588
437 589
437 607
437 763
437 766
437 807
437 851
437 992
438 517
438 645
438 779
438 921
438 793
438 461
438 880
438 885
439 524
439 542
439 643
439 646
439 687
439 695
439 711
439 756
439 882
439 936
439 448
439 967
439 995
440 563
440 620
440 631
440 636
440 689
440 690
440 713
440 762
440 772
440 821
440 859
440 901
440 912
441 547
441 586
441 595
441 675
441 708
441 710
441 726
441 734
441 753
441 790
441 835
441 842
441 857
441 863
441 926
441 935
441 910
441 496
441 506
441 818
441 888
441 847
441 937
441 894
441 733
441 680
441 823
441 460
441 922
441 975
441 907
441 511
441 832
441 744
441 900
441 915
441 546
441 528
441 454
441 600
441 838
441 533
441 475
441 929
441 898
441 919
441 799
441 868
441 951
441 735
441 731
441 994
441 625
441 854
441 962
441 706
442 621
442 624
442 628
442 631
442 636
442 676
442 690
442 713
442 754
442 758
442 815
442 901
442 912
442 446
442 883
442 850
442 644
442 678
442 649
442 732
442 987
442 653
442 864
443 523
443 805
443 584
443 956
443 575
443 960
443 453
444 544
444 556
444 559
444 567
444 623
444 654
444 656
444 681
444 714
444 718
444 751
444 755
444 820
444 841
444 892
444 927
444 930
445 641
445 777
445 674
445 826
445 814
445 730
445 985
445 472
445 752
445 570
445 491
445 840
445 474
445 608
446 563
446 620
446 624
446 632
446 636
446 676
446 689
446 690
446 762
446 772
446 810
446 821
446 920
447 650
447 526
447 557
447 691
447 613
447 582
447 451
447 494
447 973
447 871
447 913
447 571
447 874
448 542
448 646
448 655
448 695
448 711
448 862
448 865
448 882
448 936
448 939
448 518
448 905
448 740
448 643
448 756
448 944
448 834
448 666
448 993
448 776
448 895
448 801
448 966
448 524
448 682
448 789
448 716
448 812
448 924
448 480
448 463
448 967
448 507
448 980
448 891
448 800
448 672
449 516
449 783
449 535
449 574
449 964
449 748
449 705
449 548
449 845
449 614
449 492
449 757
450 773
450 775
450 779
450 651
450 921
450 552
450 829
450 461
450 645
450 885
450 999
450 880
451 808
451 557
451 691
451 582
451 887
451 494
451 874
451 650
451 526
451 761
451 974
451 871
451 613
452 648
452 522
452 784
452 914
452 532
452 536
452 822
452 811
452 940
452 955
452 831
452 970
452 968
452 720
452 722
452 630
452 809
452 693
452 724
452 858
453 805
453 956
453 575
453 960
453 961
453 484
453 584
453 466
453 870
453 622
454 586
454 595
454 600
454 675
454 706
454 710
454 733
454 734
454 753
454 790
454 835
454 842
454 847
454 857
454 888
454 926
454 935
454 498
454 794
454 680
454 744
454 546
454 911
454 907
454 708
454 547
454 898
454 929
454 868
454 533
454 937
454 823
454 975
454 962
454 838
454 910
454 475
454 994
454 511
455 519
455 589
455 602
455 607
455 670
455 765
455 851
455 949
455 769
455 465
455 807
455 549
455 918
455 580
455 588
455 766
455 579
455 903
455 997
455 504
455 992
456 512
456 573
456 601
456 886
456 707
456 712
456 457
456 963
456 508
456 860
456 500
456 715
456 505
457 774
457 573
457 601
457 610
457 867
457 886
457 712
457 856
457 479
457 500
457 963
457 715
457 503
457 737
457 743
457 707
457 804
457 505
458 514
458 677
458 819
458 957
458 830
458 583
458 572
458 468
458 972
458 846
458 981
458 729
458 510
459 521
459 543
459 550
459 564
459 897
459 615
459 635
459 878
459 881
459 524
460 586
460 600
460 675
460 706
460 710
460 753
460 790
460 818
460 835
460 842
460 857
460 868
460 888
460 919
460 926
460 935
460 595
460 731
460 734
460 847
460 546
460 625
460 838
460 547
460 726
460 680
460 929
460 951
460 506
460 900
460 708
460 498
460 962
460 533
460 840
460 475
460 994
460 511
461 517
461 647
461 793
461 829
461 545
461 619
461 880
462 897
462 521
462 671
462 543
462 550
462 564
462 592
462 881
462 878
463 518
463 524
463 542
463 646
463 655
463 711
463 749
463 882
463 997
464 662
464 669
464 797
464 558
464 945
464 694
464 696
464 698
464 827
464 837
464 998
464 612
464 745
465 513
465 525
465 549
465 607
465 766
465 807
465 851
465 949
465 997
466 515
466 523
466 664
466 575
466 960
466 961
466 584
466 605
466 618
466 622
467 791
467 782
467 786
467 537
467 925
467 541
467 946
467 562
467 585
467 719
467 723
467 603
467 996
468 514
468 806
468 697
468 572
468 957
468 583
468 846
468 470
468 677
468 981
468 729
468 738
468 510
469 520
469 621
469 626
469 631
469 632
469 636
469 689
469 713
469 754
469 772
469 815
469 821
470 806
470 568
470 697
470 957
470 981
470 677
470 729
471 527
471 844
471 529
471 478
472 621
472 641
472 674
472 570
472 826
472 640
472 491
472 952
472 861
472 759
472 777
472 752
472 501
472 985
472 606
472 474
473 648
473 522
473 914
473 536
473 809
473 813
473 950
473 825
473 955
473 948
473 540
473 487
473 720
473 658
473 780
473 686
473 811
473 630
473 816
473 722
473 822
474 641
474 674
474 814
474 952
474 826
474 852
474 985
474 501
474 752
474 840
474 777
475 586
475 595
475 675
475 706
475 710
475 726
475 733
475 734
475 735
475 753
475 790
475 832
475 835
475 842
475 847
475 863
475 868
475 919
475 926
475 975
475 546
475 915
475 857
475 794
475 708
475 496
475 498
475 823
475 929
475 680
475 894
475 911
475 511
475 854
475 744
475 600
475 900
475 962
475 935
475 799
475 528
475 506
475 818
475 533
475 625
475 910
475 951
475 898
475 994
475 731
475 907
475 838
475 547
476 581
476 601
476 886
476 715
476 503
477 551
477 558
477 696
477 698
477 827
477 837
477 945
477 612
477 534
477 745
478 904
478 659
478 529
478 953
478 853
478 742
478 844
478 527
479 774
479 601
479 610
479 886
479 715
479 804
479 867
479 508
479 737
479 503
479 505
480 524
480 646
480 655
480 687
480 711
480 749
480 862
480 936
480 991
480 490
480 643
480 688
480 891
481 544
481 556
481 553
481 639
481 654
481 681
481 714
481 718
481 751
481 755
481 817
481 884
481 890
481 892
481 930
481 685
481 482
481 701
481 623
481 906
481 760
481 931
481 971
481 679
481 656
481 802
481 803
481 788
481 824
481 820
481 841
481 559
481 927
481 684
481 798
481 717
481 855
481 863
482 556
482 559
482 561
482 623
482 639
482 668
482 681
482 718
482 751
482 755
482 803
482 892
483 531
483 661
483 672
483 566
483 597
483 609
483 902
483 896
483 539
483 495
483 702
483 497
484 515
484 523
484 575
484 961
484 584
484 960
484 622
485 512
485 601
485 610
485 867
485 886
485 715
485 503
485 505
486 526
486 913
486 557
486 571
486 974
486 613
486 761
486 874
486 973
486 691
487 648
487 778
487 780
487 522
487 784
487 795
487 796
487 822
487 809
487 811
487 813
487 947
487 825
487 955
487 630
488 513
488 525
488 549
488 579
488 589
488 602
488 607
488 763
488 807
488 833
488 851
488 949
488 965
488 992
488 997
488 903
488 765
489 662
489 669
489 934
489 551
489 555
489 945
489 694
489 696
489 827
489 612
489 741
489 616
489 745
490 524
490 542
490 643
490 655
490 687
490 711
490 740
490 749
490 882
490 936
490 980
490 995
491 640
491 641
491 777
491 674
491 952
491 570
491 826
491 852
491 985
491 730
491 606
492 516
492 535
492 692
492 574
492 704
492 964
492 845
492 614
492 757
492 499
492 617
492 598
492 548
493 523
493 956
493 575
493 960
493 584
493 605
493 618
493 622
493 961
493 594
494 650
494 913
494 557
494 691
494 974
494 986
494 874
494 571
494 526
494 871
494 582
495 896
495 531
495 539
495 672
495 565
495 566
495 597
495 497
496 533
496 586
496 600
496 625
496 675
496 706
496 710
496 726
496 733
496 734
496 735
496 753
496 790
496 818
496 823
496 835
496 842
496 857
496 863
496 868
496 919
496 975
496 498
497 531
497 566
497 702
497 597
497 627
497 530
497 672
497 593
497 661
497 609
497 902
497 509
497 590
497 896
497 565
497 539
498 528
498 533
498 586
498 600
498 675
498 706
498 708
498 710
498 734
498 735
498 753
498 790
498 823
498 832
498 835
498 842
498 857
498 863
498 919
498 926
498 935
498 975
498 794
498 929
498 838
498 911
498 922
498 799
498 547
498 546
498 733
498 625
498 888
498 744
498 910
498 680
498 506
498 915
498 907
498 818
498 900
498 868
498 994
498 898
498 894
498 511
498 731
498 962
498 937
498 951
498 595
499 535
499 574
499 964
499 617
499 783
499 598
499 634
499 548
500 804
500 573
500 601
500 867
500 886
500 893
500 505
501 641
501 674
501 814
501 952
501 852
501 985
501 730
501 640
501 826
502 806
502 568
502 697
502 572
502 957
502 981
502 514
502 729
502 830
502 738
502 510
503 512
503 573
503 601
503 610
503 867
503 886
503 715
503 963
503 728
503 774
503 893
503 743
503 856
504 549
504 580
504 589
504 602
504 607
504 763
504 766
504 851
504 879
504 949
504 992
504 997
505 774
505 601
505 860
505 610
505 886
505 715
505 963
505 737
505 707
505 893
505 508
505 804
506 547
506 586
506 595
506 600
506 675
506 706
506 708
506 710
506 734
506 735
506 753
506 790
506 818
506 835
506 842
506 857
506 888
506 919
506 935
506 975
507 524
507 542
507 643
507 646
507 655
507 711
507 716
507 740
507 749
507 800
507 801
507 865
507 882
507 980
507 995
508 562
508 512
508 601
508 610
508 867
508 886
508 707
508 715
509 896
509 902
509 530
509 531
509 661
509 539
509 609
509 565
510 957
510 583
510 846
510 981
510 972
510 819
510 830
510 729
510 738
510 568
510 806
510 572
510 697
510 677
511 533
511 586
511 675
511 706
511 710
511 734
511 753
511 790
511 823
511 835
511 842
511 857
511 868
511 919
511 926
511 935
511 975
511 994
511 818
511 547
511 900
511 898
511 731
511 888
511 708
511 680
511 625
511 937
511 832
511 911
511 894
511 922
511 915
511 838
511 600
511 546
511 910
511 726
511 847
511 854
511 528
511 799
511 863
511 595
511 744
511 929
511 635
512 886
512 893
512 610
512 963
512 867
512 715
513 943
513 589
513 982
513 549
513 525
513 579
513 602
513 607
513 629
513 833
513 851
513 949
513 992
514 572
514 738
514 697
514 972
514 957
514 866
514 806
514 981
514 583
514 677
514 846
514 830
515 594
515 618
515 870
515 956
515 576
515 575
515 523
515 961
515 584
515 622
515 767
516 964
516 989
516 535
516 705
516 617
516 750
516 739
516 574
516 845
516 598
516 614
516 757
516 638
517 773
517 880
517 647
517 775
517 999
517 885
517 829
517 779
517 828
517 545
517 552
517 645
517 793
517 921
517 942
517 801
518 967
518 740
518 524
518 862
518 924
518 776
518 834
518 756
518 716
518 663
518 789
518 688
518 542
518 646
518 711
518 801
518 882
518 995
519 943
519 982
519 954
519 949
519 918
519 588
519 602
519 607
519 670
519 851
519 629
519 771
519 633
519 579
519 766
519 965
519 992
519 997
520 621
520 815
520 848
520 620
520 653
520 628
520 941
520 920
520 631
520 626
520 676
520 732
520 883
520 690
520 859
520 850
520 990
520 624
520 636
520 649
520 689
520 762
520 821
520 912
521 897
521 543
521 932
521 671
521 635
521 615
521 564
521 592
521 878
522 648
522 652
522 796
522 780
522 968
522 658
522 914
522 536
522 569
522 630
522 686
522 955
522 604
522 947
522 809
522 899
522 948
522 970
522 532
522 811
522 816
522 784
522 724
522 693
522 831
522 813
522 778
522 795
522 950
522 825
523 611
523 960
523 956
523 584
523 961
523 870
523 664
523 805
523 575
523 576
523 622
524 756
524 936
524 716
524 740
524 542
524 687
524 966
524 666
524 801
524 655
524 865
524 812
524 646
524 663
524 980
524 862
524 995
524 939
524 695
524 909
524 882
524 895
524 682
524 993
524 688
524 643
524 991
524 905
524 711
524 749
525 969
525 879
525 670
525 949
525 982
525 992
525 588
525 903
525 833
525 549
525 997
525 607
525 589
525 763
525 602
525 766
525 965
525 851
525 633
525 660
525 579
525 954
525 629
526 973
526 761
526 913
526 691
526 709
526 650
526 557
526 974
526 613
526 874
527 977
527 844
527 659
527 877
527 853
527 742
528 799
528 863
528 706
528 911
528 533
528 951
528 547
528 595
528 675
528 710
528 733
528 734
528 753
528 823
528 835
528 842
528 847
528 857
528 935
528 975
528 994
529 659
529 904
529 877
529 953
529 853
530 902
530 578
530 539
530 590
530 896
530 661
530 531
530 566
530 702
530 597
530 609
531 672
531 597
531 578
531 661
531 565
531 590
531 539
531 609
531 702
532 899
532 652
532 778
532 569
532 917
532 720
532 648
532 968
532 536
532 795
532 822
532 809
532 811
532 813
532 686
532 950
532 825
532 630
533 922
533 731
533 733
533 929
533 838
533 842
533 586
533 854
533 625
533 935
533 680
533 900
533 868
533 888
533 710
533 937
533 595
533 600
533 675
533 706
533 734
533 735
533 753
533 790
533 818
533 823
533 835
533 847
533 857
533 863
533 919
533 975
533 994
534 637
534 984
534 797
534 746
534 698
534 696
534 669
534 934
534 945
534 827
534 837
534 741
534 745
535 617
535 705
535 614
535 548
535 634
535 748
535 638
535 757
535 964
535 574
535 845
535 598
536 648
536 784
536 809
536 968
536 914
536 686
536 816
536 948
536 831
536 569
536 899
536 950
536 813
536 693
536 795
536 970
536 540
536 796
536 917
536 778
536 825
536 652
536 658
536 720
536 811
536 955
536 724
536 876
536 839
536 858
536 630
537 657
537 978
537 873
537 925
537 843
537 585
537 908
537 988
537 673
537 836
537 792
537 599
537 587
537 996
537 782
537 541
537 723
537 791
537 725
537 538
537 946
537 603
538 782
538 657
538 667
538 843
538 889
538 719
538 560
538 996
538 587
538 925
538 723
538 786
538 725
538 849
538 541
538 562
538 873
538 836
538 792
538 946
538 585
538 599
538 603
539 902
539 661
539 627
539 702
539 565
539 566
539 609
540 899
540 648
540 778
540 784
540 686
540 947
540 876
540 569
540 811
540 822
540 950
540 720
540 630
541 786
541 792
541 978
541 843
541 946
541 725
541 560
541 657
541 667
541 849
541 585
541 599
541 925
541 996
541 603
541 673
541 836
541 723
541 719
541 923
541 873
541 782
541 780
541 562
542 980
542 655
542 800
542 740
542 812
542 944
542 995
542 882
542 695
542 646
542 895
542 905
542 663
542 789
542 711
542 909
542 776
542 643
542 834
542 967
542 682
542 756
542 865
542 936
543 615
543 592
543 635
543 671
543 932
543 564
543 881
543 654
544 754
544 718
544 639
544 906
544 567
544 717
544 668
544 623
544 781
544 685
544 892
544 747
544 884
544 788
544 681
544 983
544 933
544 890
544 820
544 841
544 654
544 751
544 556
544 559
544 591
544 656
544 817
544 930
544 979
545 779
545 651
545 828
545 645
545 619
545 829
545 552
545 775
545 880
546 838
546 919
546 868
546 975
546 753
546 586
546 731
546 794
546 962
546 595
546 744
546 726
546 847
546 929
546 910
546 600
546 675
546 706
546 734
546 735
546 790
546 835
546 857
547 842
547 733
547 926
547 994
547 937
547 922
547 726
547 915
547 675
547 919
547 818
547 935
547 625
547 838
547 735
547 857
547 595
547 744
547 900
547 586
547 710
547 734
547 753
547 790
547 835
547 863
547 975
548 748
548 705
548 964
548 692
548 614
548 704
548 989
548 574
548 739
548 598
548 617
548 750
549 903
549 949
549 771
549 629
549 992
549 943
549 660
549 579
549 589
549 602
549 607
549 763
549 766
549 833
549 851
549 879
549 982
550 897
550 671
550 881
550 635
550 878
550 564
550 592
551 797
551 721
551 612
551 741
551 554
551 558
551 945
551 696
551 827
551 745
551 863
552 773
552 775
552 647
552 645
552 921
552 942
552 829
552 619
552 880
553 623
553 979
553 933
553 751
553 755
553 931
553 556
553 824
553 890
553 591
553 817
553 639
553 656
553 668
553 681
553 685
553 718
553 820
553 884
553 892
553 930
554 662
554 669
554 555
554 696
554 934
554 945
554 745
554 746
554 698
554 827
555 662
555 669
555 934
555 727
555 827
555 741
555 945
555 698
555 797
555 694
555 696
555 998
555 745
556 820
556 681
556 971
556 755
556 788
556 559
556 718
556 855
556 717
556 561
556 781
556 699
556 751
556 983
556 841
556 654
556 656
556 798
556 938
556 927
556 567
556 591
556 639
556 668
556 803
556 817
556 824
556 890
556 930
557 650
557 913
557 973
557 761
557 887
557 571
557 974
557 808
557 709
557 691
557 986
557 874
557 582
557 875
557 613
557 958
558 998
558 984
558 721
558 746
558 694
558 727
558 945
558 696
558 827
558 959
558 736
558 745
559 577
559 567
559 817
559 938
559 760
559 979
559 639
559 656
559 930
559 890
559 798
559 654
559 983
559 971
559 717
559 855
559 681
559 820
559 906
559 718
559 781
559 642
559 699
559 788
559 561
559 933
559 608
559 623
559 685
559 714
559 751
560 792
560 667
560 923
560 725
560 889
560 996
560 908
560 836
560 587
560 791
560 946
560 562
560 978
560 723
560 599
560 603
561 747
561 683
561 855
561 718
561 654
561 591
561 983
561 623
561 639
561 656
561 681
561 820
561 841
561 884
561 892
561 930
562 782
562 667
562 923
562 673
562 723
562 791
562 946
562 908
562 978
562 988
562 599
562 873
562 719
562 849
562 836
562 792
562 603
562 996
562 925
562 587
562 585
562 889
562 725
562 843
563 689
563 665
563 768
563 644
563 754
563 713
563 653
563 620
563 850
563 678
563 632
563 815
563 859
563 941
563 621
563 624
563 636
563 700
563 821
563 901
563 987
564 932
564 881
564 592
564 897
564 878
564 635
564 615
564 671
565 593
565 609
565 578
565 597
565 590
565 702
565 902
565 627
565 661
565 566
566 902
566 672
566 627
566 609
566 661
566 590
566 578
566 702
567 684
567 751
567 701
567 760
567 803
567 855
567 983
567 906
567 817
567 933
567 685
567 591
567 623
567 639
567 656
567 668
567 683
567 714
567 718
567 747
567 755
567 798
567 892
567 927
567 930
568 806
568 819
568 738
568 729
568 677
568 846
568 972
568 957
568 830
568 697
568 981
568 866
568 583
569 899
569 648
569 780
569 784
569 658
569 795
569 809
569 811
569 948
569 950
569 825
569 720
569 630
570 640
570 674
570 952
570 641
570 840
570 985
570 608
571 913
571 691
571 875
571 871
571 958
571 808
571 582
571 974
571 986
571 874
572 806
572 819
572 697
572 583
572 972
572 738
572 957
572 830
572 846
572 981
573 774
573 856
573 581
573 601
573 860
573 610
573 886
573 707
573 715
574 783
574 692
574 704
574 634
574 964
574 989
574 845
574 638
574 739
574 598
574 614
574 748
574 757
575 956
575 594
575 611
575 960
575 605
575 622
575 805
575 870
575 961
575 584
575 618
576 664
576 805
576 960
576 956
576 611
576 584
576 622
577 755
577 817
577 892
577 770
577 623
577 933
577 591
577 681
577 683
577 701
577 717
577 718
577 884
577 930
578 896
578 902
578 702
578 609
579 954
579 602
579 965
579 763
579 629
579 903
579 766
579 771
579 765
579 992
579 607
579 807
579 879
579 949
579 997
580 997
580 785
580 589
580 765
580 918
580 903
580 633
580 766
580 607
580 763
580 769
580 851
580 965
580 992
581 774
581 610
581 867
581 737
581 893
581 804
581 601
581 886
581 715
582 650
582 808
582 958
582 986
582 974
582 874
583 806
583 957
583 738
583 819
583 729
583 981
583 697
584 805
584 960
584 961
584 605
584 767
584 664
584 618
584 594
584 956
584 870
584 611
585 791
585 786
585 946
585 889
585 923
585 667
585 908
585 723
585 849
585 782
585 657
585 836
585 725
585 603
585 719
585 978
585 599
585 996
586 900
586 710
586 680
586 926
586 922
586 910
586 994
586 595
586 907
586 847
586 734
586 675
586 600
586 854
586 726
586 733
586 735
586 790
586 799
586 868
586 818
586 835
586 857
586 919
586 975
586 888
586 706
586 937
586 962
586 744
586 794
586 863
586 935
586 832
586 753
586 842
586 823
587 835
587 908
587 782
587 792
587 873
587 719
587 599
588 982
588 602
588 670
588 785
588 807
588 660
588 589
588 607
588 763
588 766
588 851
588 949
588 965
588 992
588 997
589 851
589 769
589 785
589 787
589 918
589 833
589 771
589 982
589 633
589 607
589 763
589 766
589 765
589 660
589 965
589 629
589 903
589 992
589 954
589 670
589 879
589 997
589 602
589 949
590 702
590 593
591 679
591 892
591 971
591 884
591 717
591 930
591 803
591 781
591 938
591 681
591 983
591 639
591 770
591 747
591 755
591 683
591 890
591 623
591 642
591 654
591 668
591 685
591 701
591 714
591 718
591 817
591 927
592 897
592 671
592 878
592 932
592 635
592 615
592 881
593 896
593 672
593 702
593 884
594 805
594 961
594 618
594 622
595 926
595 863
595 706
595 888
595 915
595 907
595 731
595 818
595 710
595 734
595 835
595 842
595 935
595 894
595 919
595 708
595 868
595 675
595 744
595 854
595 900
595 937
595 994
595 794
595 857
595 735
595 910
595 832
595 799
595 600
595 847
595 911
595 726
595 680
595 962
595 823
595 625
595 929
595 753
595 790
595 733
595 922
595 635
595 975
596 844
596 659
596 742
597 896
597 661
597 627
597 902
598 634
598 692
598 748
598 989
598 739
598 617
598 757
598 845
598 614
599 908
599 782
599 657
599 925
599 946
599 719
599 723
599 843
599 667
599 603
599 792
599 791
599 673
599 996
599 725
599 786
599 658
600 994
600 823
600 907
600 937
600 832
600 818
600 863
600 911
600 962
600 842
600 919
600 929
600 975
600 838
600 910
600 706
600 922
600 847
600 926
600 735
600 951
600 935
600 888
600 675
600 799
600 868
600 854
600 726
600 680
600 923
600 710
600 734
600 753
600 790
600 835
600 857
601 774
601 804
601 743
601 856
601 867
601 712
601 737
601 610
601 893
601 963
601 707
601 728
601 860
601 715
601 886
602 771
602 982
602 766
602 670
602 918
602 785
602 629
602 787
602 833
602 879
602 916
602 765
602 992
602 903
602 851
602 769
602 607
602 943
602 949
602 660
602 772
602 763
602 997
603 667
603 673
603 946
603 978
603 723
603 725
603 786
603 719
603 925
603 782
603 996
603 849
603 843
603 657
603 889
603 923
603 908
603 792
603 873
603 791
604 899
604 648
604 778
604 658
604 914
604 795
604 822
604 955
604 825
605 960
605 961
605 618
605 622
606 641
606 952
606 826
606 985
606 759
606 752
606 852
606 608
607 982
607 997
607 763
607 787
607 969
607 769
607 916
607 954
607 903
607 771
607 949
607 992
607 943
607 633
607 879
607 833
607 765
607 660
607 766
607 851
607 670
607 629
607 965
607 807
608 640
608 641
608 674
608 985
608 730
608 852
608 752
608 826
608 952
608 840
609 896
609 902
609 672
609 702
609 627
609 661
610 774
610 804
610 860
610 856
610 728
610 893
610 712
610 715
610 707
610 743
610 963
610 867
610 886
611 960
611 961
611 805
612 662
612 669
612 797
612 696
612 698
612 827
612 984
612 741
612 736
612 998
612 616
612 745
613 650
613 808
613 958
613 974
613 986
613 874
613 761
613 691
613 709
614 692
614 704
614 705
614 964
614 989
614 783
614 750
614 748
614 634
614 757
614 845
614 638
615 897
615 878
615 881
616 934
616 945
616 696
616 698
616 827
616 959
616 837
616 984
616 736
616 745
617 783
617 705
617 964
617 845
617 748
617 757
617 638
618 805
618 961
618 664
618 870
618 767
618 960
618 622
619 773
619 775
619 779
619 651
619 793
619 942
619 829
619 869
619 921
619 828
619 880
619 885
620 689
620 976
620 632
620 636
620 821
620 649
620 621
620 768
620 883
620 912
620 987
620 859
620 631
620 732
620 665
620 848
620 690
620 713
620 990
620 624
620 628
620 754
620 850
621 920
621 883
621 649
621 976
621 626
621 631
621 987
621 732
621 859
621 754
621 850
621 941
621 810
621 864
621 821
621 901
621 815
621 644
621 848
621 676
621 689
621 772
621 653
621 713
621 624
621 636
621 690
622 805
622 956
622 961
622 664
622 960
622 767
622 870
623 717
623 803
623 685
623 714
623 927
623 890
623 820
623 654
623 639
623 931
623 755
623 855
623 699
623 701
623 770
623 747
623 788
623 971
623 906
623 802
623 892
623 668
623 681
623 683
623 718
623 781
623 884
623 930
623 979
624 764
624 928
624 632
624 920
624 636
624 628
624 872
624 883
624 689
624 990
624 690
624 941
624 649
624 976
624 815
624 821
624 732
624 653
624 713
624 626
624 631
624 700
624 901
624 810
624 768
624 754
624 848
624 772
624 864
624 850
624 758
624 676
624 762
624 987
624 665
624 912
625 975
625 744
625 735
625 915
625 838
625 900
625 910
625 675
625 706
625 708
625 710
625 733
625 734
625 753
625 790
625 818
625 835
625 842
625 857
625 863
625 919
625 926
625 935
625 994
626 987
626 700
626 768
626 644
626 653
626 821
626 676
626 631
626 636
626 649
626 665
626 689
626 754
626 772
626 815
626 859
626 901
627 896
627 902
627 672
627 702
628 821
628 732
628 649
628 810
628 713
628 665
628 632
628 636
628 689
628 690
628 762
628 815
628 850
628 901
628 920
628 987
629 689
629 965
629 851
629 982
629 771
629 992
629 943
629 785
629 766
629 807
629 879
629 949
629 997
630 648
630 652
630 914
630 795
630 809
630 950
630 876
630 858
630 839
630 784
630 658
630 970
630 822
630 947
630 722
630 796
630 968
631 772
631 649
631 848
631 689
631 690
631 850
631 665
631 920
631 987
631 758
631 810
631 713
631 859
631 976
631 815
631 990
631 864
631 821
631 636
631 644
631 700
631 764
631 912
632 768
632 732
632 678
632 976
632 941
632 872
632 901
632 676
632 864
632 636
632 920
632 713
632 653
632 644
632 689
632 690
632 754
632 859
632 912
632 987
633 718
633 787
633 903
633 918
633 769
633 763
633 670
633 765
633 807
633 833
633 851
633 879
633 949
633 982
633 992
634 845
634 739
634 748
634 757
634 750
634 638
635 671
635 881
636 883
636 754
636 850
636 990
636 653
636 815
636 700
636 912
636 864
636 649
636 713
636 732
636 941
636 676
636 764
636 772
636 928
636 920
636 689
636 848
636 678
636 762
636 810
636 665
636 901
636 987
636 976
636 758
636 644
636 859
636 690
636 872
636 821
637 945
637 696
637 698
637 827
637 703
637 998
637 745
638 783
638 704
638 748
638 757
638 964
638 989
638 750
639 817
639 668
639 979
639 930
639 781
639 685
639 751
639 717
639 642
639 931
639 933
639 855
639 802
639 971
639 701
639 699
639 747
639 770
639 714
639 679
639 892
639 927
639 788
639 760
639 938
639 798
639 820
639 683
639 803
639 700
639 654
639 656
639 681
639 718
639 755
639 884
640 995
640 852
640 814
640 759
640 826
640 730
640 840
640 641
640 674
640 985
641 752
641 777
641 952
641 826
641 814
641 852
641 759
641 985
642 931
642 983
642 755
642 841
642 884
642 760
642 938
642 751
642 656
642 683
642 685
642 701
642 718
642 817
642 824
642 892
642 930
643 966
643 909
643 993
643 663
643 711
643 995
643 789
643 967
643 980
643 882
643 646
643 655
643 666
643 687
643 688
643 740
643 749
643 801
644 821
644 764
644 758
644 920
644 690
644 653
644 848
644 754
644 676
644 689
644 762
644 772
644 859
644 912
644 987
645 793
645 880
645 999
645 775
645 779
645 651
645 942
645 829
645 885
646 882
646 740
646 993
646 862
646 905
646 834
646 936
646 967
646 711
646 991
646 688
646 980
646 776
646 801
646 891
646 789
646 756
646 666
646 895
646 995
646 749
646 812
646 695
646 663
646 944
646 687
646 939
646 682
646 655
646 924
647 773
647 775
647 942
647 793
647 869
647 779
647 829
647 880
648 899
648 831
648 917
648 686
648 720
648 950
648 940
648 809
648 795
648 816
648 876
648 968
648 822
648 722
648 658
648 970
648 825
648 652
648 796
648 780
648 778
648 858
648 955
648 948
648 914
648 813
649 665
649 676
649 864
649 920
649 859
649 653
649 690
649 762
649 772
649 815
649 821
649 901
650 761
650 808
650 958
650 986
650 691
650 709
650 974
650 875
651 773
651 779
651 880
651 775
651 829
651 793
651 942
651 999
651 921
651 869
651 885
652 899
652 780
652 858
652 947
652 950
652 693
652 948
652 686
652 722
652 784
652 811
652 876
652 795
652 816
652 917
652 796
652 809
652 825
652 720
653 678
653 768
653 764
653 754
653 689
653 690
653 713
653 772
653 821
653 901
653 912
653 987
654 906
654 892
654 938
654 855
654 717
654 714
654 884
654 760
654 841
654 751
654 931
654 971
654 933
654 930
654 824
654 788
654 770
654 685
654 979
654 927
654 755
654 820
654 983
654 681
654 668
654 718
654 747
654 803
654 817
655 710
655 936
655 716
655 993
655 776
655 682
655 740
655 895
655 688
655 711
655 756
655 666
655 980
655 865
655 905
655 882
655 939
655 687
655 695
655 801
655 944
655 749
655 862
655 995
656 983
656 931
656 684
656 788
656 683
656 824
656 884
656 751
656 760
656 755
656 892
656 930
656 699
656 681
656 685
656 714
656 717
656 817
656 927
657 782
657 946
657 923
657 719
657 978
657 873
657 849
657 988
657 792
657 791
657 667
657 996
658 899
658 955
658 876
658 917
658 693
658 795
658 914
658 822
658 813
658 950
658 825
659 904
659 853
659 742
659 953
659 877
659 844
660 766
660 851
660 879
660 949
660 965
660 992
660 997
661 902
662 721
662 746
662 727
662 984
662 741
662 694
662 797
662 745
662 827
662 669
662 998
662 945
662 703
662 696
662 698
663 966
663 756
663 993
663 688
663 711
663 740
663 749
663 801
663 882
663 995
664 767
664 961
664 960
664 805
664 956
664 857
665 928
665 678
665 901
665 987
665 859
665 883
665 872
665 810
665 689
665 713
665 762
665 772
665 821
666 882
666 682
666 756
666 695
666 711
666 801
666 865
666 980
666 995
667 908
667 786
667 946
667 673
667 782
667 873
667 978
667 923
667 719
667 723
667 725
667 988
668 685
668 841
668 770
668 906
668 892
668 855
668 824
668 884
668 971
668 701
668 718
668 817
668 979
668 747
668 927
668 781
668 788
668 699
668 933
668 760
668 890
668 938
668 798
668 679
668 820
668 931
668 755
668 930
669 703
669 797
669 727
669 827
669 959
669 984
669 694
669 945
669 934
669 696
669 698
669 741
669 745
670 965
670 969
670 807
670 785
670 851
670 766
670 769
670 879
670 949
670 992
670 997
671 897
671 878
671 881
672 902
672 755
673 782
673 792
673 923
673 719
673 723
673 791
673 786
673 946
673 978
673 996
674 777
674 861
674 730
674 759
674 952
674 814
674 985
674 840
674 826
675 680
675 847
675 975
675 794
675 994
675 910
675 838
675 744
675 854
675 706
675 911
675 962
675 790
675 842
675 915
675 832
675 888
675 863
675 799
675 735
675 894
675 929
675 726
675 900
675 818
675 898
675 857
675 919
675 937
675 708
675 823
675 710
675 753
675 835
675 868
675 951
675 926
675 733
675 922
675 731
675 907
675 734
675 935
676 690
676 848
676 754
676 810
676 987
676 850
676 815
676 821
676 713
676 920
676 990
676 678
676 758
676 864
676 928
676 689
676 762
677 819
677 806
677 738
678 689
678 690
678 713
678 762
678 901
678 912
678 987
679 781
679 699
679 681
679 683
679 685
679 714
679 718
679 751
679 884
679 892
679 927
679 930
680 706
680 708
680 710
680 753
680 790
680 835
680 842
680 857
680 863
680 900
680 919
680 975
681 841
681 890
681 718
681 855
681 927
681 983
681 802
681 781
681 798
681 684
681 817
681 906
681 892
681 747
681 788
681 755
681 760
681 699
681 751
681 714
681 701
681 717
681 971
681 683
681 938
681 933
681 803
681 930
682 776
682 936
682 800
682 687
682 695
682 711
682 740
682 749
682 865
682 882
682 980
682 995
683 983
683 751
683 770
683 892
683 890
683 714
683 685
683 718
683 747
683 803
683 884
683 930
683 979
684 718
684 755
684 781
684 971
684 930
684 685
684 714
684 824
684 884
684 892
684 979
685 927
685 933
685 802
685 699
685 824
685 884
685 841
685 781
685 938
685 931
685 971
685 701
685 760
685 855
685 714
685 798
685 983
685 755
685 717
685 718
685 803
685 817
685 930
686 914
686 795
686 822
686 813
686 780
686 917
686 722
686 899
686 950
686 955
686 831
686 839
686 720
687 967
687 891
687 862
687 995
687 812
687 936
687 966
687 740
687 991
687 865
687 800
687 882
687 776
687 895
687 688
687 711
687 749
687 801
688 995
688 800
688 909
688 711
688 966
688 967
688 776
688 891
688 991
688 716
688 740
688 801
688 865
688 882
688 936
688 980
689 976
689 768
689 920
689 810
689 987
689 912
689 713
689 758
689 772
689 901
689 821
689 883
689 859
689 864
689 732
689 762
689 850
689 754
689 700
689 848
689 941
689 990
689 928
689 690
689 764
689 815
690 976
690 901
690 713
690 864
690 700
690 754
690 762
690 928
690 815
690 872
690 883
690 920
690 732
690 764
690 768
690 848
690 850
690 859
690 912
691 913
691 875
691 709
691 973
691 887
691 808
691 761
691 986
691 974
691 874
692 783
692 704
692 705
692 748
692 739
692 757
693 899
693 780
693 914
693 809
693 811
693 813
693 822
693 825
693 839
693 720
694 797
694 746
694 703
694 745
694 727
694 736
694 837
694 696
694 698
694 741
695 789
695 909
695 944
695 711
695 967
695 800
695 991
695 749
695 801
695 862
695 865
695 882
696 797
696 934
696 945
696 727
696 698
696 736
696 741
696 827
696 703
696 721
696 959
696 998
696 984
696 837
696 745
697 806
697 957
697 866
697 729
697 819
697 830
698 934
698 721
698 797
698 959
698 945
698 746
698 998
698 727
698 703
698 837
698 984
698 741
698 827
698 745
699 714
699 718
699 747
699 751
699 755
699 884
699 892
699 927
699 930
699 979
700 928
700 758
700 713
700 810
700 821
700 872
700 901
700 912
700 987
701 979
701 841
701 755
701 718
701 817
701 892
701 930
702 896
703 934
703 827
703 736
703 959
703 746
703 984
703 745
704 739
704 757
704 748
704 705
704 845
705 783
705 964
705 989
705 845
705 739
705 750
705 757
706 898
706 744
706 818
706 857
706 708
706 994
706 962
706 929
706 726
706 888
706 915
706 847
706 926
706 832
706 922
706 710
706 911
706 910
706 731
706 838
706 735
706 868
706 863
706 900
706 935
706 790
706 854
706 733
706 753
706 823
706 835
706 842
706 975
707 804
707 867
707 886
707 893
707 715
708 842
708 926
708 734
708 935
708 753
708 857
708 710
708 962
708 790
708 888
708 975
708 915
708 733
708 919
708 951
708 818
708 735
708 823
708 835
708 863
708 868
708 994
709 958
709 887
709 871
709 973
709 974
709 986
710 937
710 962
710 951
710 832
710 838
710 734
710 854
710 735
710 799
710 847
710 888
710 907
710 900
710 835
710 922
710 744
710 894
710 794
710 898
710 915
710 790
710 910
710 926
710 726
710 994
710 911
710 919
710 857
710 818
710 753
710 935
710 975
710 863
710 731
710 842
711 966
711 812
711 834
711 740
711 891
711 995
711 909
711 944
711 801
711 800
711 776
711 991
711 905
711 895
711 862
711 789
711 967
711 716
711 936
711 980
711 993
711 924
711 756
711 865
711 882
711 749
711 939
712 774
712 804
712 860
712 867
712 886
712 715
713 920
713 872
713 901
713 810
713 883
713 912
713 815
713 754
713 941
713 758
713 732
713 762
713 772
713 821
714 892
714 817
714 971
714 930
714 718
714 788
714 927
714 983
714 781
714 803
714 841
714 884
715 867
715 893
715 737
715 886
715 743
715 860
715 728
715 774
716 800
716 812
716 789
716 944
716 862
716 865
716 882
716 936
717 906
717 718
717 747
717 751
717 803
717 884
717 930
717 979
718 884
718 747
718 781
718 788
718 770
718 760
718 892
718 927
718 798
718 890
718 751
718 971
718 930
718 824
718 979
718 803
718 855
718 906
718 933
718 820
718 841
718 755
718 983
718 931
718 817
719 908
719 782
719 946
719 723
719 849
719 836
719 978
719 843
719 988
719 889
719 725
719 923
720 784
720 914
720 796
720 809
720 950
720 955
720 917
720 947
720 795
720 839
720 876
720 825
720 811
720 778
720 940
720 858
720 724
721 934
721 945
721 827
721 837
721 984
721 736
721 998
721 745
722 914
722 809
722 811
722 940
722 816
723 786
723 946
723 889
723 792
723 978
723 923
723 988
723 836
723 908
723 925
723 873
724 899
724 778
724 809
724 811
724 950
724 825
725 791
725 923
725 946
725 889
725 792
725 782
725 836
726 842
726 818
726 922
726 900
726 888
726 898
726 975
726 735
726 868
726 857
726 951
726 733
726 799
726 937
726 734
726 753
726 790
726 835
726 919
726 926
726 935
726 994
727 945
727 827
727 959
727 837
727 934
728 901
728 886
729 806
729 957
729 830
729 846
729 981
729 866
730 814
730 826
730 840
730 777
730 985
730 759
731 894
731 794
731 842
731 823
731 734
731 735
731 753
731 790
731 818
731 857
731 863
731 919
731 935
731 975
732 754
732 772
732 815
732 821
732 901
732 987
733 919
733 915
733 753
733 894
733 951
733 898
733 962
733 935
733 863
733 818
733 735
733 900
733 926
733 823
733 734
733 790
733 835
733 842
733 857
733 868
733 975
733 994
734 894
734 818
734 962
734 854
734 937
734 919
734 832
734 847
734 907
734 915
734 900
734 951
734 994
734 790
734 794
734 975
734 926
734 898
734 842
734 888
734 911
734 799
734 910
734 922
734 735
734 744
734 753
734 823
734 863
734 821
734 835
734 857
734 868
734 935
735 888
735 894
735 910
735 915
735 854
735 842
735 922
735 937
735 907
735 926
735 962
735 857
735 753
735 790
735 823
735 835
735 847
735 863
735 919
735 935
735 975
735 994
736 945
736 827
736 837
736 746
736 998
736 741
736 745
737 774
737 867
737 886
738 957
738 846
738 981
739 845
739 748
739 757
740 905
740 749
740 944
740 936
740 939
740 995
740 966
740 909
740 891
740 967
740 801
740 993
740 789
740 882
741 827
741 998
741 984
741 746
741 837
741 745
742 844
742 853
742 953
742 877
743 774
743 804
743 867
743 886
744 753
744 790
744 835
744 842
744 857
744 863
744 900
744 919
744 926
744 935
744 975
745 934
745 945
745 827
745 959
745 837
745 984
745 998
745 746
745 797
746 934
746 945
746 827
746 959
746 984
746 998
747 817
747 751
747 933
747 824
747 855
747 884
747 892
747 927
747 930
748 783
748 989
748 757
748 964
748 750
749 967
749 980
749 834
749 944
749 800
749 891
749 756
749 995
749 993
749 991
749 924
749 939
749 882
749 865
749 895
749 801
750 757
751 931
751 979
751 760
751 770
751 798
751 938
751 890
751 788
751 855
751 803
751 817
751 820
751 884
751 892
751 927
751 930
752 777
752 814
752 952
752 826
752 985
753 975
753 962
753 842
753 854
753 868
753 907
753 857
753 994
753 951
753 894
753 935
753 898
753 835
753 922
753 929
753 823
753 926
753 799
753 832
753 919
753 911
753 900
753 790
753 888
753 863
753 838
753 811
754 815
754 859
754 758
754 848
754 768
754 864
754 821
754 764
754 941
754 872
754 772
754 976
754 883
754 901
754 912
755 781
755 770
755 855
755 927
755 760
755 892
755 933
755 938
755 820
755 841
755 803
755 983
755 930
755 824
755 884
755 890
755 906
755 971
755 817
756 891
756 801
756 865
756 882
756 980
756 995
757 845
757 783
757 989
757 964
758 901
758 762
758 768
758 815
758 821
758 848
758 912
758 987
759 952
759 826
759 985
760 987
760 884
760 892
760 927
760 930
761 958
761 973
761 986
761 874
762 990
762 848
762 941
762 901
762 815
762 850
762 821
762 772
762 912
762 987
763 765
763 903
763 807
763 954
763 785
763 943
763 787
763 949
763 771
763 769
763 982
763 965
763 997
763 833
763 851
763 879
763 992
764 810
764 815
764 821
764 901
764 987
765 965
765 992
765 766
765 954
765 785
765 807
765 851
765 949
765 997
766 969
766 943
766 918
766 771
766 903
766 949
766 787
766 997
766 982
766 954
766 992
766 879
766 851
766 965
767 961
768 821
768 810
768 850
768 901
768 912
768 987
769 916
769 982
769 807
769 949
769 992
769 997
770 803
770 884
770 892
770 930
771 851
771 949
771 969
771 992
771 997
772 810
772 864
772 990
772 920
772 815
772 987
772 859
772 821
772 850
773 828
773 999
773 921
773 942
773 880
773 885
774 975
774 893
774 856
774 886
774 804
774 867
775 921
775 793
775 885
775 828
775 779
775 942
775 829
775 880
776 967
776 980
776 995
777 852
777 861
777 814
777 826
777 985
778 899
778 876
778 839
778 784
778 795
778 809
778 813
778 825
779 921
779 999
779 829
779 828
779 869
779 942
779 793
779 885
779 880
780 899
780 955
780 784
780 940
780 914
780 795
780 796
780 822
780 809
780 811
780 813
780 950
780 970
781 802
781 803
781 820
781 892
781 930
782 791
782 849
782 889
782 925
782 908
782 988
782 946
782 843
782 923
782 873
782 836
782 786
782 978
783 964
783 845
784 917
784 914
784 858
784 811
784 816
784 795
785 879
785 851
785 949
785 965
785 992
785 997
786 908
786 889
786 791
786 996
786 836
786 946
786 873
787 851
787 879
787 965
787 992
788 803
788 884
788 892
788 930
789 991
789 801
789 834
789 993
789 939
789 936
789 862
789 882
789 980
789 995
790 854
790 818
790 898
790 799
790 915
790 929
790 907
790 823
790 937
790 935
790 863
790 926
790 911
790 835
790 922
790 832
790 962
790 857
790 994
790 842
790 847
790 894
790 919
790 794
790 975
790 868
790 888
790 900
790 951
790 838
791 925
791 849
791 946
791 930
792 923
792 946
793 880
793 999
793 869
793 828
793 885
793 921
793 942
793 829
794 823
794 835
794 842
794 857
794 863
794 919
794 935
794 975
794 994
795 899
795 914
795 947
795 825
795 940
795 813
795 816
795 796
795 811
795 917
795 948
795 839
795 876
795 858
795 950
795 822
795 955
796 858
796 914
796 831
796 816
796 948
796 899
796 950
796 811
796 940
796 813
797 837
797 998
797 945
797 827
797 959
798 803
798 884
798 892
798 930
799 815
799 818
799 835
799 842
799 857
799 863
799 919
799 935
799 975
799 994
800 882
800 967
800 980
800 995
801 924
801 944
801 895
801 865
801 939
801 891
801 936
801 905
801 882
801 862
801 812
801 993
801 834
801 967
801 995
802 841
802 884
802 890
802 892
802 930
802 979
803 817
803 979
803 855
803 933
803 930
803 824
803 906
803 884
803 892
803 927
804 963
804 860
804 867
804 886
805 961
805 960
806 972
806 830
806 819
806 957
806 981
807 943
807 903
807 918
807 954
807 851
807 997
807 833
807 949
807 992
808 913
808 875
808 973
808 874
808 974
808 986
809 899
809 914
809 822
809 950
809 839
809 825
809 970
809 955
809 876
809 917
809 858
809 813
809 811
809 968
809 816
809 949
810 872
810 990
810 928
810 821
810 850
810 912
810 987
811 899
811 876
811 947
811 940
811 955
811 968
811 948
811 917
811 813
811 950
812 862
812 882
812 939
812 967
812 995
813 914
813 876
813 858
813 947
813 816
813 950
813 948
813 968
813 825
813 955
814 840
814 826
814 861
814 985
814 852
815 859
815 821
815 987
815 901
815 990
815 928
815 976
815 872
815 920
815 912
816 914
816 917
816 947
816 948
816 825
817 892
817 979
817 983
817 930
817 820
817 890
817 906
817 884
817 931
817 927
818 926
818 907
818 842
818 854
818 962
818 911
818 915
818 835
818 863
818 888
818 919
818 975
819 957
819 846
820 890
820 884
820 927
820 930
821 990
821 941
821 872
821 864
821 912
821 976
821 848
821 920
821 987
821 883
821 859
822 899
822 858
822 831
822 825
822 955
822 888
823 888
823 929
823 847
823 842
823 922
823 835
823 857
823 863
823 868
823 900
823 919
823 975
823 994
824 979
824 884
824 892
824 930
825 940
825 914
825 839
825 970
826 992
826 952
826 840
826 852
826 985
827 945
827 998
827 984
827 959
827 934
827 837
828 942
828 829
828 885
829 921
829 942
829 880
829 885
829 869
829 999
830 972
831 914
832 911
832 835
832 857
832 863
832 868
832 888
832 919
832 926
832 935
832 975
833 965
833 954
833 879
833 851
833 949
833 992
834 882
834 936
834 980
834 995
835 922
835 868
835 900
835 898
835 907
835 975
835 854
835 857
835 919
835 888
835 994
835 911
835 838
835 910
835 915
835 935
835 842
835 937
835 863
835 926
835 962
835 894
835 929
835 847
836 946
837 945
837 959
837 998
838 842
838 857
838 863
838 935
838 975
838 994
839 950
839 914
840 852
840 861
841 892
841 884
841 930
842 975
842 919
842 868
842 926
842 894
842 857
842 854
842 911
842 907
842 994
842 951
842 888
842 898
842 935
842 929
842 847
842 915
842 863
843 908
843 946
843 996
844 877
844 853
845 964
845 989
846 972
846 981
846 866
847 898
847 919
847 926
847 857
847 868
847 888
847 935
847 975
848 901
848 912
848 987
849 923
849 978
850 859
850 901
851 997
851 954
851 943
851 969
851 982
851 916
851 918
851 903
851 879
851 965
851 992
851 917
851 949
852 985
853 977
853 904
853 877
854 857
854 863
854 868
854 888
854 919
854 926
854 975
854 994
855 884
855 892
855 930
856 867
856 893
856 886
857 935
857 951
857 863
857 937
857 962
857 926
857 898
857 888
857 929
857 922
857 900
857 911
857 975
857 915
857 994
857 894
857 907
857 919
858 914
858 950
858 970
858 892
859 920
859 912
859 987
859 901
860 867
861 952
861 985
862 924
862 980
862 944
862 967
862 995
863 915
863 962
863 994
863 894
863 910
863 922
863 929
863 900
863 919
863 935
863 911
863 868
863 907
863 888
863 926
863 975
864 987
865 991
865 966
865 891
865 995
865 939
865 882
865 936
865 967
866 957
866 981
867 963
867 886
868 907
868 915
868 937
868 929
868 888
868 919
868 975
868 994
869 921
869 942
869 880
869 885
870 960
871 913
871 974
871 887
871 874
872 901
873 923
873 946
873 978
873 996
874 974
874 986
874 973
874 913
874 875
874 887
875 986
875 973
875 974
876 914
876 940
877 953
878 881
878 932
879 903
879 997
879 982
879 916
879 965
879 949
879 992
880 921
880 942
880 885
881 897
881 932
882 995
882 980
882 924
882 967
882 939
882 905
882 991
882 895
882 944
882 966
882 993
883 901
883 987
884 930
884 892
884 971
884 906
884 938
884 979
884 931
884 890
884 983
884 933
885 921
885 942
886 893
886 963
887 973
887 974
888 900
888 951
888 907
888 926
888 915
888 937
888 894
888 935
888 898
888 975
888 994
888 919
889 946
890 892
890 927
890 930
891 924
891 936
891 967
891 980
891 995
892 979
892 938
892 971
892 906
892 927
892 983
892 931
892 930
892 933
894 919
894 975
894 994
895 980
896 902
897 932
898 919
898 935
898 975
898 994
899 940
899 914
899 947
900 919
900 935
900 975
900 994
901 928
901 990
901 987
901 976
903 965
903 992
903 997
904 977
905 980
905 995
907 919
907 926
907 935
907 975
907 994
908 923
908 946
909 936
909 939
909 995
910 919
910 935
910 975
910 994
911 919
911 935
911 975
911 994
912 990
913 958
913 974
913 973
913 986
914 955
914 948
914 947
914 940
914 950
914 970
914 917
915 935
915 994
916 949
916 965
916 992
917 970
917 947
918 992
919 937
919 962
919 951
919 994
919 929
919 935
919 926
919 975
920 976
920 987
922 926
922 935
922 975
922 994
923 996
923 988
923 946
924 967
924 936
925 978
925 996
926 929
926 951
926 935
926 937
926 975
926 994
927 933
927 930
928 987
929 935
929 975
930 933
930 979
930 971
930 983
930 931
930 938
934 984
934 945
934 959
934 998
935 962
935 975
935 937
935 951
936 995
936 966
937 975
937 994
938 979
939 995
940 950
941 987
942 999
943 965
943 992
945 959
946 996
946 978
948 950
949 954
949 969
949 965
949 997
949 982
950 955
950 968
951 975
951 994
952 985
954 965
954 992
954 997
955 968
955 970
956 961
957 972
957 981
958 973
958 986
958 974
959 984
959 998
960 961
962 975
962 994
965 982
965 992
965 997
966 967
966 980
966 995
967 980
967 995
969 992
969 997
972 981
973 974
974 986
975 994
976 987
976 980
978 988
978 996
979 983
980 991
980 995
982 992
987 990
988 996
991 995
992 997
993 995
