0 425
0 314
0 67
0 233
0 484
0 14
0 98
0 919
0 595
0 139
0 156
0 234
0 494
0 406
0 16
0 690
0 205
0 284
0 312
0 826
0 838
0 331
0 78
0 677
1 641
1 525
1 107
1 45
1 947
1 425
1 780
1 280
1 42
1 565
1 653
1 852
1 306
1 862
1 539
1 334
1 770
1 969
1 30
1 676
1 871
1 19
1 468
1 150
1 881
1 71
1 527
1 923
1 895
1 156
1 447
1 129
1 602
1 646
2 780
2 73
2 77
2 766
2 241
2 254
2 21
2 40
2 920
2 535
2 744
2 756
2 341
2 517
2 719
2 810
2 178
2 250
2 44
2 146
2 898
2 406
2 419
2 894
2 401
2 855
2 410
2 396
2 323
2 462
2 346
2 588
2 771
2 99
2 310
2 343
2 303
2 633
2 848
2 930
2 448
2 180
2 922
2 400
2 422
2 636
2 298
2 693
2 402
2 131
2 456
2 182
2 513
2 439
2 978
2 347
2 106
2 553
2 933
2 127
2 294
2 785
2 191
2 229
2 268
2 812
2 85
2 646
3 179
3 974
3 771
3 513
3 23
3 413
3 418
3 491
3 322
3 77
3 777
3 536
3 564
3 570
3 834
3 67
3 329
3 79
3 850
3 105
3 118
3 209
3 507
3 900
3 185
3 979
3 542
3 325
3 354
3 497
3 925
3 737
3 321
3 566
4 619
4 593
4 111
4 671
4 839
4 108
4 369
4 400
4 876
4 466
4 616
4 571
4 686
4 979
4 922
4 645
4 309
4 826
4 452
4 123
4 432
4 160
4 386
4 252
5 975
5 777
5 570
5 88
5 74
5 718
5 953
5 208
5 134
5 331
5 406
5 951
5 501
5 457
5 63
5 238
5 800
5 508
5 818
5 646
5 666
6 663
6 421
6 90
6 438
6 488
6 117
6 523
6 40
6 501
6 223
6 354
6 727
6 756
6 794
6 931
6 475
6 524
6 824
6 65
6 991
6 375
6 341
6 983
6 763
6 466
6 584
6 310
6 48
6 738
6 483
6 778
6 999
6 150
6 701
6 697
6 130
6 695
6 237
6 611
6 452
6 123
6 637
6 365
6 716
6 405
7 404
7 483
7 573
7 603
7 398
7 575
7 633
7 501
7 995
7 754
7 46
7 174
7 949
7 492
7 744
7 925
7 677
7 206
7 406
7 428
7 818
7 586
7 646
7 666
7 252
8 627
8 689
8 835
8 927
8 546
8 76
8 557
8 169
8 197
8 718
8 852
8 53
8 523
8 19
8 26
8 40
8 57
8 571
8 575
8 151
8 165
8 215
8 864
8 366
8 384
8 919
8 427
8 644
8 239
8 824
8 877
9 329
9 698
9 935
9 946
9 678
9 431
9 832
9 137
9 995
9 986
9 773
9 444
9 796
9 926
9 646
10 83
10 128
10 333
10 967
10 488
10 361
10 50
10 384
10 260
10 27
10 449
10 322
10 740
10 235
10 551
10 211
10 924
10 705
10 149
10 498
10 638
10 776
10 249
10 36
10 409
10 659
10 433
10 208
10 733
10 754
10 753
10 728
10 743
10 15
10 715
10 978
10 781
10 668
10 687
10 676
10 516
10 644
10 973
10 949
10 919
10 270
10 764
10 441
10 511
10 233
10 212
10 191
10 182
10 868
10 72
10 987
10 706
10 166
10 290
10 557
10 616
10 338
10 360
10 547
10 476
10 940
10 448
10 29
10 675
10 869
10 912
10 165
10 244
10 693
10 629
10 268
10 962
10 320
10 596
10 860
10 607
10 862
10 285
10 981
10 163
10 431
10 782
10 918
10 492
10 756
10 938
11 663
11 530
11 73
11 23
11 750
11 416
11 853
11 76
11 52
11 683
11 598
11 971
11 861
11 78
11 481
11 628
11 881
11 539
11 337
11 274
11 592
11 37
11 772
11 868
11 46
11 317
11 108
11 407
11 244
11 831
11 967
11 217
11 668
11 589
11 187
11 735
11 884
11 474
11 688
11 472
11 790
12 770
12 73
12 83
12 625
12 111
12 935
12 305
12 984
12 510
12 678
12 488
12 652
12 749
12 56
12 200
12 983
12 545
12 66
12 838
12 264
12 886
12 394
12 193
12 154
12 699
12 801
12 300
12 333
12 846
12 369
12 967
12 109
12 635
12 919
12 498
12 354
12 794
12 129
12 216
12 812
12 417
12 462
13 800
13 77
13 963
13 771
13 711
13 786
13 519
13 50
13 299
13 223
13 920
13 108
13 906
13 401
13 406
13 122
14 67
14 871
14 391
14 521
14 767
14 363
14 554
14 538
14 647
14 387
14 368
14 797
14 469
14 446
14 962
14 74
14 320
14 42
14 296
14 157
14 56
14 321
14 621
14 47
14 193
14 356
14 117
14 165
14 481
14 866
14 220
14 731
14 146
14 811
14 862
14 406
15 525
15 679
15 368
15 523
15 26
15 322
15 380
15 924
15 955
15 211
15 995
15 918
15 781
15 776
15 978
15 753
15 260
15 789
15 668
15 315
15 449
15 644
15 59
15 333
15 413
15 469
15 21
15 132
15 651
15 671
15 460
15 502
15 169
15 785
15 471
15 72
15 326
15 948
15 390
15 374
15 622
15 441
15 675
15 635
15 376
15 473
15 783
15 325
15 418
15 452
16 42
16 77
16 83
16 921
16 786
16 890
16 598
16 507
16 214
16 361
16 87
16 224
16 604
16 115
16 826
16 298
16 838
16 943
16 266
16 814
16 836
16 981
16 358
16 744
16 693
16 870
16 489
16 764
16 761
16 331
16 402
16 868
16 933
16 980
16 816
16 451
16 680
16 535
16 931
16 756
16 81
16 485
16 90
16 379
16 932
16 337
16 696
16 482
16 572
16 328
16 784
16 162
16 95
16 640
16 735
16 467
16 597
16 237
16 228
16 400
16 569
16 392
16 908
16 47
16 797
16 630
16 698
16 988
16 248
16 891
16 70
16 684
16 430
16 36
16 536
16 589
16 978
16 986
16 904
16 530
16 518
16 284
16 312
16 395
16 925
16 465
16 220
16 365
16 370
16 428
16 184
17 272
17 975
17 758
17 594
17 195
17 779
17 507
17 765
17 99
17 679
17 521
17 466
17 215
17 468
17 739
17 311
17 553
17 450
17 419
17 956
17 555
17 567
17 606
17 608
17 174
17 234
17 920
17 492
17 93
18 442
18 779
18 190
18 273
18 900
18 398
18 821
18 361
18 140
18 131
18 632
18 132
18 358
18 75
18 585
18 133
18 47
18 122
18 868
18 575
18 158
18 147
18 38
18 832
18 68
18 217
18 883
18 628
18 377
18 511
18 356
18 92
18 354
18 920
18 78
19 280
19 426
19 285
19 832
19 883
19 905
19 929
19 501
19 240
19 808
19 337
19 92
19 997
19 585
19 951
19 407
19 976
19 765
19 154
19 370
19 329
19 129
19 618
19 853
19 872
19 664
19 56
19 24
19 636
19 946
19 177
19 398
19 26
19 40
19 50
19 571
19 575
19 366
19 919
19 743
19 885
19 205
19 465
20 975
20 786
20 882
20 487
20 869
20 628
20 575
20 454
20 180
20 419
20 355
20 60
20 486
20 817
20 293
20 689
20 576
20 589
20 606
20 207
20 223
20 259
20 458
20 358
20 677
20 229
21 67
21 900
21 390
21 185
21 295
21 467
21 455
21 894
21 601
21 684
21 317
21 319
21 461
21 228
21 616
21 454
21 497
21 360
21 205
21 794
21 993
21 129
21 637
21 229
22 74
22 426
22 241
22 829
22 377
22 207
22 831
22 404
22 324
22 452
22 136
22 437
22 369
22 578
22 618
22 174
22 301
22 348
22 885
22 920
22 949
22 454
22 645
22 712
22 103
22 102
22 637
23 594
23 777
23 788
23 570
23 289
23 118
23 88
23 271
23 531
23 64
23 114
23 30
23 189
23 591
23 547
23 850
23 543
23 79
23 533
23 63
23 522
23 536
23 513
23 37
23 856
23 362
23 67
23 603
23 100
23 564
23 615
23 822
23 329
23 537
23 311
23 657
23 284
23 858
23 147
23 766
23 592
23 851
23 648
23 168
23 397
23 862
23 719
23 303
23 352
23 768
23 415
23 210
23 939
23 835
23 195
23 612
23 111
23 471
23 142
23 953
23 599
23 881
23 825
23 602
23 645
23 920
23 307
23 220
23 404
23 840
23 586
23 804
23 56
23 105
23 941
23 750
23 661
23 157
23 40
23 240
23 676
23 606
23 458
23 444
24 385
24 110
24 627
24 195
24 375
24 538
24 193
24 342
24 211
24 495
24 645
24 127
24 800
24 709
24 33
24 580
24 243
24 931
24 990
24 57
24 983
24 354
24 415
24 637
24 972
24 704
24 812
24 386
24 518
25 528
25 547
25 730
25 742
25 233
25 747
25 276
25 750
25 324
25 967
25 117
25 523
25 555
25 684
25 417
25 646
25 252
26 314
26 196
26 533
26 369
26 523
26 40
26 571
26 597
26 49
26 905
26 979
26 57
26 966
26 480
26 686
26 342
26 337
26 95
26 575
26 240
26 381
26 427
26 953
26 998
26 92
26 694
26 726
26 89
26 509
26 481
26 335
26 448
26 929
26 897
26 50
26 951
26 841
26 294
26 124
26 492
26 393
26 64
26 653
26 644
26 642
26 735
26 228
26 848
26 159
26 194
26 423
26 268
26 782
26 119
26 706
26 446
26 622
26 244
26 433
26 518
26 193
26 324
26 934
26 640
26 624
26 605
26 67
26 867
26 473
26 444
26 280
26 856
26 249
26 150
26 165
26 215
26 864
26 366
26 384
26 988
26 501
26 380
26 659
26 681
26 933
26 465
26 898
26 790
27 83
27 921
27 850
27 105
27 403
27 853
27 388
27 427
27 516
27 782
27 361
27 983
27 506
27 348
27 581
27 351
27 626
27 583
27 379
27 999
27 36
27 551
27 380
27 920
27 949
27 977
27 465
27 494
27 587
27 160
27 419
28 536
28 746
28 841
28 504
28 387
28 391
28 647
28 568
28 642
28 876
28 237
28 193
28 262
28 760
28 664
28 554
28 368
28 639
28 612
28 47
28 851
28 525
28 537
28 512
28 570
28 100
28 550
28 608
28 212
28 39
28 287
28 818
28 997
28 917
28 400
28 672
28 395
28 960
28 248
28 109
28 117
28 571
28 919
28 988
28 687
28 773
28 284
28 494
28 684
28 873
28 401
28 462
28 545
29 558
29 738
29 839
29 867
29 511
29 47
29 523
29 215
29 50
29 240
29 151
29 919
29 95
29 106
29 953
29 480
29 933
29 104
29 179
29 389
29 909
29 616
29 246
29 472
29 266
29 619
29 866
29 639
29 581
29 328
29 865
29 880
29 165
29 347
29 427
29 501
29 782
29 449
29 995
29 958
29 458
29 349
29 491
29 553
29 184
30 179
30 394
30 777
30 788
30 533
30 289
30 37
30 543
30 79
30 939
30 681
30 429
30 853
30 493
30 672
30 819
30 210
30 979
30 702
30 280
30 564
30 822
30 64
30 105
30 747
30 304
30 488
30 988
30 676
30 589
30 735
30 482
30 497
30 360
30 592
30 358
30 731
30 548
30 563
31 83
31 505
31 311
31 54
31 698
31 832
31 633
31 165
31 897
31 966
31 337
31 342
31 381
31 864
31 778
31 984
31 254
31 820
31 943
31 764
31 644
31 439
31 785
31 720
31 747
31 555
31 445
31 40
31 575
31 151
31 919
31 932
31 427
31 953
31 501
31 973
31 97
31 223
31 259
31 761
31 331
31 938
31 561
31 824
31 477
31 432
31 682
31 405
31 545
32 820
32 830
32 867
32 612
32 117
32 40
32 781
32 87
32 458
32 814
32 64
32 846
32 85
32 666
33 536
33 698
33 869
33 388
33 464
33 900
33 909
33 398
33 879
33 113
33 810
33 986
33 317
33 832
33 217
33 628
33 919
33 884
33 949
33 535
33 756
33 752
33 894
33 926
34 183
34 130
34 771
34 902
34 393
34 317
34 182
34 196
34 143
34 889
34 828
34 833
34 53
34 112
34 562
34 392
34 252
34 200
34 584
34 854
34 537
34 407
34 718
34 459
34 165
34 384
34 753
34 46
34 234
34 321
35 399
35 279
35 203
35 648
35 96
35 127
35 594
35 287
35 829
35 477
35 457
35 330
35 720
35 265
35 550
35 221
35 508
35 919
35 988
35 149
35 374
35 735
35 922
35 814
35 933
36 640
36 554
36 668
36 260
36 409
36 918
36 743
36 380
36 754
36 740
36 676
36 468
36 727
36 646
36 84
36 453
36 117
36 307
36 526
36 373
36 896
36 911
36 980
36 859
36 293
36 638
36 433
36 211
36 434
36 482
36 809
36 810
37 71
37 483
37 777
37 522
37 270
37 271
37 531
37 533
37 267
37 909
37 159
37 61
37 570
37 573
37 64
37 329
37 591
37 850
37 105
37 869
37 985
37 165
37 516
37 82
37 174
37 884
37 690
37 798
38 442
38 163
38 822
38 640
38 359
38 108
38 197
38 909
38 398
38 147
38 285
38 68
38 377
38 48
38 634
38 344
38 815
38 934
38 140
38 354
38 615
38 81
38 529
38 947
38 558
38 243
38 709
38 71
38 182
38 307
38 668
38 588
38 975
38 991
38 810
38 936
38 481
38 745
38 460
38 832
38 361
38 883
38 876
38 808
38 91
38 580
38 497
38 312
38 465
38 849
39 547
39 336
39 76
39 237
39 895
39 50
39 106
39 342
39 93
39 135
39 790
39 278
39 609
39 653
39 730
39 851
39 279
39 876
39 973
39 486
39 821
39 79
39 736
39 90
39 471
39 684
39 402
39 41
39 563
39 566
39 586
39 85
39 666
40 550
40 597
40 57
40 384
40 215
40 979
40 337
40 905
40 509
40 998
40 571
40 915
40 897
40 411
40 49
40 437
40 633
40 412
40 585
40 106
40 347
40 808
40 481
40 448
40 151
40 951
40 726
40 98
40 686
40 381
40 501
40 240
40 480
40 694
40 50
40 990
40 523
40 469
40 75
40 629
40 929
40 366
40 213
40 335
40 760
40 970
40 520
40 716
40 149
40 591
40 987
40 170
40 643
40 258
40 652
40 572
40 142
40 477
40 228
40 984
40 930
40 858
40 885
40 175
40 818
40 113
40 909
40 483
40 699
40 733
40 534
40 537
40 207
40 85
40 651
40 451
40 235
40 361
40 780
40 941
40 297
40 557
40 357
40 152
40 188
40 136
40 65
40 631
40 459
40 865
40 575
40 165
40 919
40 953
40 358
40 435
40 146
40 862
40 548
41 805
41 758
41 570
41 558
41 238
41 575
41 165
41 322
41 948
41 621
41 866
41 482
41 561
41 477
41 440
41 308
41 646
41 579
41 599
41 666
41 85
41 122
41 649
41 843
41 553
41 739
41 790
41 563
41 275
41 458
41 755
41 676
41 618
41 315
41 304
41 556
41 701
41 82
41 962
41 555
41 673
41 533
41 123
41 591
41 63
41 935
41 127
41 102
41 771
41 971
41 864
41 280
41 840
41 930
41 343
41 715
41 416
41 511
41 814
41 586
42 641
42 780
42 653
42 663
42 425
42 881
42 565
42 280
42 107
42 947
42 450
42 808
42 376
42 797
42 964
42 285
42 695
42 994
42 248
42 894
42 975
42 786
42 699
42 292
42 846
42 900
42 165
42 495
42 415
42 977
42 744
42 135
42 216
42 288
42 548
43 641
43 107
43 941
43 99
43 350
43 945
43 937
43 765
43 698
43 716
43 772
43 880
43 416
43 626
43 763
43 504
43 361
43 156
43 207
43 783
43 445
43 535
43 690
43 331
43 419
44 698
44 109
44 618
44 773
44 993
44 132
44 396
44 877
44 288
44 229
44 812
44 983
44 232
44 441
44 811
44 684
44 894
44 873
44 386
44 796
44 144
44 898
44 430
44 893
44 440
44 406
44 352
44 417
44 321
44 457
44 277
44 635
44 77
44 980
44 769
44 88
44 55
44 404
44 661
44 830
44 959
44 447
44 468
44 656
44 154
44 439
44 296
44 972
44 93
44 516
44 458
44 639
44 241
44 668
44 592
44 460
44 550
44 625
44 914
44 324
45 780
45 653
45 663
45 280
45 947
45 718
45 278
45 860
45 898
45 920
45 522
45 559
45 512
45 70
45 209
45 927
45 154
45 436
45 398
45 636
45 156
45 234
45 301
45 454
45 474
45 727
45 293
45 465
45 684
45 646
46 800
46 732
46 196
46 543
46 601
46 100
46 837
46 407
46 296
46 674
46 186
46 520
46 467
46 585
46 606
46 859
46 297
46 156
46 143
46 188
46 87
46 618
46 875
46 768
46 458
46 286
46 621
46 497
46 354
46 332
46 667
46 965
46 630
46 126
46 243
46 492
46 408
46 141
46 589
46 542
46 982
46 847
46 844
46 785
46 750
46 715
46 731
46 906
46 54
46 709
46 598
46 319
46 145
46 670
46 212
46 257
46 917
46 209
46 760
46 456
46 273
46 202
46 195
46 238
46 908
46 779
46 201
46 699
46 647
46 641
46 550
46 830
46 215
46 546
46 375
46 649
46 784
46 991
46 84
46 130
46 368
46 661
46 498
46 174
46 722
46 301
46 981
46 503
46 123
46 321
47 371
47 941
47 303
47 333
47 674
47 942
47 387
47 568
47 876
47 363
47 237
47 982
47 546
47 227
47 50
47 787
47 409
47 618
47 454
47 975
47 905
47 532
47 778
47 193
47 356
47 368
47 171
47 517
47 682
47 370
47 926
48 892
48 547
48 927
48 519
48 128
48 369
48 909
48 398
48 147
48 285
48 175
48 903
48 769
48 264
48 304
48 195
48 650
48 832
48 217
48 755
48 883
48 628
48 50
48 448
48 481
48 341
48 609
49 641
49 615
49 119
49 689
49 446
49 523
49 563
49 302
49 141
49 557
49 259
49 849
49 71
49 447
49 575
49 165
49 215
49 864
49 919
49 932
49 427
49 988
49 204
49 852
49 722
49 223
49 293
49 264
49 599
50 404
50 199
50 327
50 67
50 779
50 795
50 718
50 846
50 629
50 501
50 469
50 213
50 951
50 905
50 412
50 915
50 575
50 929
50 571
50 597
50 310
50 705
50 550
50 787
50 262
50 727
50 131
50 439
50 898
50 177
50 212
50 706
50 214
50 428
50 462
50 137
50 132
50 246
50 329
50 157
50 763
50 669
50 541
50 585
50 988
50 223
50 714
50 284
50 827
50 811
50 518
51 73
51 946
51 197
51 832
51 814
51 827
51 813
51 386
51 605
51 307
51 570
51 238
51 326
51 740
51 777
51 402
51 815
51 693
51 355
51 134
51 727
51 85
51 666
52 903
52 835
52 519
52 541
52 546
52 601
52 438
52 712
52 677
52 313
52 371
52 76
52 721
52 319
52 909
52 919
52 413
52 176
52 836
52 331
52 432
52 957
52 813
53 800
53 487
53 593
53 692
53 640
53 209
53 336
53 795
53 438
53 989
53 961
53 888
53 304
53 954
53 632
53 994
53 773
53 987
53 548
53 264
53 105
53 502
53 674
53 567
53 206
53 699
53 508
53 422
53 350
53 583
53 73
53 903
53 627
53 142
53 830
53 867
53 473
53 485
53 546
53 157
53 464
53 755
53 358
53 658
53 646
54 442
54 969
54 614
54 631
54 276
54 692
54 901
54 124
54 569
54 623
54 100
54 797
54 281
54 683
54 891
54 834
54 397
54 823
54 632
54 698
54 195
54 209
54 738
54 786
54 371
54 890
54 927
54 935
54 519
54 366
54 988
54 87
54 348
54 454
54 415
54 176
54 756
54 298
54 313
54 752
54 926
55 121
55 631
55 777
55 387
55 151
55 864
55 744
55 824
55 245
55 617
55 79
55 750
55 426
55 677
55 464
55 414
55 85
55 646
56 530
56 513
56 788
56 533
56 311
56 88
56 564
56 537
56 329
56 617
56 741
56 466
56 159
56 399
56 413
56 136
56 778
56 669
56 370
56 414
56 375
56 105
56 256
56 140
56 909
56 636
56 433
56 740
56 301
56 447
56 274
56 824
56 906
57 382
57 339
57 407
57 876
57 240
57 686
57 347
57 98
57 864
57 202
57 467
57 338
57 826
57 209
57 588
57 117
57 445
57 785
57 586
57 144
57 151
57 165
57 384
57 437
57 501
57 234
57 341
57 310
57 252
58 179
58 195
58 371
58 908
58 193
58 427
58 781
58 687
58 665
58 320
58 98
58 894
58 68
58 624
58 726
58 189
58 644
58 995
58 754
58 408
58 744
58 761
58 925
58 102
58 66
58 731
58 370
59 72
59 902
59 311
59 105
59 485
59 439
59 296
59 193
59 94
59 306
59 852
59 929
59 383
59 503
59 302
59 638
59 644
59 659
59 705
59 995
59 743
59 544
59 87
59 606
59 621
59 492
59 268
60 425
60 519
60 244
60 746
60 108
60 787
60 507
60 339
60 303
60 493
60 651
60 795
60 913
60 192
60 336
60 666
60 968
60 778
60 947
60 95
60 428
60 410
60 76
60 861
60 721
60 128
60 449
60 722
60 724
60 838
60 103
60 66
60 78
60 813
60 818
60 310
61 105
61 119
61 830
61 244
61 841
61 322
61 860
61 458
61 514
61 613
61 582
61 478
61 132
61 450
61 577
61 146
61 406
61 975
61 139
61 369
61 684
61 960
61 914
61 813
61 106
61 723
61 862
62 270
62 79
62 632
62 671
62 689
62 197
62 431
62 633
62 366
62 260
62 644
62 245
62 544
62 690
62 756
62 451
62 532
62 986
62 221
62 622
62 428
62 788
62 764
62 592
62 811
62 462
62 85
63 800
63 121
63 777
63 270
63 536
63 564
63 822
63 311
63 570
63 675
63 165
63 143
63 234
63 146
63 565
63 67
63 329
63 79
63 850
63 88
63 105
63 118
63 215
63 864
63 551
63 555
63 93
63 809
63 826
63 736
64 83
64 153
64 777
64 271
64 531
64 547
64 804
64 537
64 603
64 564
64 513
64 856
64 79
64 311
64 601
64 570
64 105
64 615
64 822
64 329
64 788
64 289
64 573
64 911
64 800
64 104
64 721
64 958
64 252
64 355
64 683
64 845
64 873
64 968
64 792
64 321
64 198
64 326
64 990
64 798
64 966
64 453
64 949
64 149
64 168
64 784
64 658
64 606
64 134
64 67
64 850
64 88
64 839
64 559
64 829
64 520
64 480
64 367
64 722
64 234
64 922
64 549
64 981
65 975
65 903
65 771
65 708
65 569
65 371
65 485
65 897
65 953
65 134
65 176
65 472
65 824
65 349
65 471
65 475
65 102
65 777
65 961
65 940
65 528
65 725
65 693
65 423
65 466
65 479
65 715
65 990
65 515
65 895
65 538
65 550
65 995
65 821
65 601
65 949
65 378
65 637
65 191
66 72
66 854
66 351
66 76
66 598
66 241
66 467
66 91
66 223
66 395
66 938
66 662
66 702
66 403
66 792
66 222
66 134
66 380
66 664
66 845
66 236
66 767
66 696
66 582
66 972
67 572
67 584
67 777
67 522
67 531
67 533
67 564
67 822
67 311
67 834
67 804
67 79
67 603
67 591
67 617
67 537
67 271
67 114
67 88
67 118
67 362
67 289
67 570
67 850
67 615
67 788
67 116
67 329
67 547
67 105
67 100
67 326
67 833
67 339
67 565
67 330
67 980
67 352
67 936
67 504
67 803
67 381
67 606
67 585
67 313
67 714
67 786
67 557
67 284
67 191
67 589
67 916
67 754
67 854
67 429
67 987
67 440
67 580
67 652
67 706
67 305
67 367
67 217
67 204
67 474
67 503
67 129
67 432
67 811
68 247
68 105
68 142
68 730
68 256
68 900
68 398
68 147
68 815
68 755
68 821
68 140
68 285
68 511
68 909
68 415
68 391
68 711
68 797
68 992
68 710
68 853
68 141
68 128
68 374
68 267
68 608
68 157
68 944
68 226
68 422
68 800
68 628
68 342
68 919
68 249
68 838
68 933
68 494
68 231
68 191
69 619
69 199
69 195
69 371
69 807
69 484
69 830
69 769
69 395
69 628
69 480
69 420
69 266
69 541
69 451
69 593
69 627
69 119
69 640
69 698
69 209
69 730
69 867
69 927
69 935
69 486
69 507
69 967
69 140
69 990
69 465
69 452
69 602
69 146
69 401
69 666
70 975
70 956
70 665
70 903
70 963
70 713
70 512
70 397
70 528
70 917
70 617
70 691
70 898
70 756
70 227
70 280
70 727
70 841
70 286
70 269
70 318
70 376
70 327
70 105
70 698
70 927
70 479
70 241
70 391
70 568
70 979
70 668
70 847
70 348
70 761
70 814
70 813
71 770
71 261
71 793
71 269
71 247
71 424
71 974
71 619
71 577
71 758
71 506
71 382
71 179
71 73
71 121
71 833
71 75
71 571
71 813
71 362
71 521
71 352
71 354
71 557
71 759
71 80
71 746
71 754
71 77
71 83
71 175
71 199
71 975
71 671
71 769
71 109
71 635
71 918
71 743
71 454
71 370
72 272
72 619
72 648
72 550
72 203
72 594
72 399
72 361
72 597
72 328
72 505
72 616
72 842
72 289
72 519
72 853
72 642
72 844
72 366
72 744
72 925
72 457
72 461
72 717
72 736
72 553
72 122
73 770
73 805
73 800
73 675
73 964
73 121
73 382
73 255
73 183
73 175
73 619
73 766
73 272
73 662
73 503
73 840
73 484
73 291
73 601
73 251
73 913
73 848
73 820
73 734
73 77
73 83
73 404
73 179
73 199
73 975
73 505
73 921
73 928
73 407
73 672
73 718
73 774
73 616
73 301
73 886
74 376
74 233
74 946
74 840
74 142
74 670
74 738
74 935
74 742
74 490
74 850
74 123
74 314
74 416
74 141
74 322
74 981
74 111
74 209
74 779
74 882
74 371
74 927
74 913
74 933
74 494
74 658
74 160
74 682
74 745
74 405
74 545
75 565
75 800
75 77
75 105
75 157
75 908
75 379
75 523
75 507
75 613
75 621
75 629
75 151
75 686
75 919
75 953
75 722
75 885
75 761
75 814
75 346
76 121
76 964
76 564
76 519
76 787
76 729
76 493
76 598
76 148
76 339
76 407
76 108
76 303
76 499
76 541
76 971
76 861
76 721
76 159
76 244
76 507
76 574
76 426
76 416
76 546
76 120
76 684
76 753
76 527
76 436
76 673
76 344
76 280
76 627
76 821
76 589
76 291
76 105
76 316
76 506
76 197
76 635
76 552
76 634
76 723
76 918
76 478
76 327
76 318
76 850
76 651
76 137
76 841
76 508
76 639
76 384
76 180
76 87
76 207
76 259
76 920
76 836
76 358
76 824
76 229
76 462
77 770
77 805
77 404
77 675
77 758
77 382
77 261
77 619
77 766
77 572
77 793
77 506
77 179
77 183
77 577
77 269
77 975
77 175
77 247
77 964
77 421
77 904
77 703
77 442
77 314
77 272
77 199
77 121
77 463
77 974
77 255
77 83
77 800
77 530
77 505
77 347
77 746
77 249
77 590
77 278
77 431
77 897
77 811
77 497
77 823
77 396
77 417
77 135
77 893
77 184
77 254
77 334
77 719
77 777
77 384
77 944
77 372
77 237
77 999
77 141
77 767
77 393
77 757
77 547
77 308
77 132
77 832
77 568
77 928
77 459
77 124
77 901
77 927
77 853
77 749
77 891
77 398
77 262
77 433
77 744
77 980
77 752
77 849
77 288
77 85
78 577
78 199
78 519
78 236
78 131
78 951
78 480
78 687
78 433
78 174
78 814
78 775
78 136
78 432
78 538
78 152
78 421
78 557
78 733
78 622
78 483
78 154
78 849
78 731
78 268
78 401
79 527
79 522
79 271
79 564
79 570
79 311
79 591
79 615
79 537
79 850
79 100
79 513
79 536
79 284
79 168
79 377
79 463
79 244
79 781
79 218
79 226
79 672
79 147
79 635
79 813
79 346
79 691
79 614
79 298
79 367
79 185
79 664
79 998
79 312
79 370
79 462
79 586
79 646
80 961
80 485
80 244
80 642
80 448
80 301
80 420
80 651
80 814
80 925
80 998
80 229
81 822
81 591
81 426
81 900
81 501
81 274
81 977
81 101
81 125
81 669
81 848
81 94
81 651
81 645
81 751
81 156
81 457
81 449
81 794
81 337
81 307
81 786
81 856
81 462
81 642
81 508
81 956
81 504
81 278
81 381
81 478
81 216
81 178
81 406
82 941
82 438
82 749
82 244
82 841
82 297
82 994
82 445
82 872
82 286
82 653
82 687
82 785
82 412
82 661
82 468
82 228
82 304
82 506
82 427
82 156
82 174
82 223
82 301
82 885
82 920
82 922
82 809
82 925
82 960
82 102
82 478
82 84
83 663
83 272
83 793
83 800
83 770
83 179
83 732
83 183
83 421
83 619
83 269
83 703
83 175
83 314
83 382
83 255
83 758
83 506
83 805
83 577
83 261
83 572
83 766
83 121
83 199
83 505
83 424
83 463
83 904
83 675
83 247
83 975
83 442
83 389
83 240
83 992
83 831
83 418
83 105
83 830
83 430
83 860
83 142
83 317
83 554
83 433
83 458
83 303
83 459
83 884
83 655
83 157
83 775
83 431
83 923
83 943
83 415
83 134
83 201
83 361
83 818
83 374
83 516
83 373
83 964
83 788
83 537
83 486
83 707
83 369
83 899
83 985
83 919
83 143
83 174
83 722
83 325
83 205
83 475
83 646
84 689
84 730
84 661
84 718
84 241
84 328
84 369
84 575
84 712
84 220
84 178
84 586
84 271
84 300
84 340
84 489
84 656
84 295
84 170
84 783
84 832
84 567
84 544
84 85
84 646
84 666
85 338
85 547
85 882
85 901
85 869
85 905
85 659
85 207
85 885
85 744
85 761
85 826
85 440
85 739
85 586
85 307
85 122
85 581
85 278
85 706
85 308
85 865
85 252
85 563
85 161
85 184
85 599
85 177
85 259
85 451
85 745
85 209
85 330
85 219
85 667
85 929
85 636
85 633
85 540
85 903
85 507
85 383
85 783
85 660
85 583
85 831
85 121
85 368
85 245
85 874
85 475
85 323
85 828
85 267
85 377
85 966
85 816
85 541
85 646
86 442
86 854
86 519
86 546
86 574
86 853
86 159
86 683
86 108
86 339
86 765
86 787
86 649
86 979
86 178
86 247
86 491
86 391
86 728
86 390
86 443
86 597
86 679
86 359
86 407
86 446
86 244
86 369
86 568
86 754
86 669
86 284
86 136
86 534
86 719
86 321
86 278
86 586
87 854
87 627
87 198
87 117
87 137
87 668
87 555
87 622
87 618
87 589
87 234
87 768
87 913
87 495
87 286
87 681
87 965
87 301
87 223
87 141
87 920
87 290
87 156
87 413
87 414
87 187
87 420
87 243
87 724
87 526
87 139
87 886
87 253
87 482
87 259
87 297
87 502
87 678
87 376
87 203
87 481
87 525
87 222
87 153
87 756
87 93
87 149
87 753
87 826
87 967
87 478
87 962
87 208
87 389
87 687
87 385
87 226
87 699
87 760
87 996
87 171
87 359
87 399
87 672
87 813
87 472
87 209
87 737
87 721
87 846
87 190
87 722
87 325
87 838
87 775
87 378
87 957
87 590
88 800
88 255
88 533
88 536
88 591
88 105
88 214
88 486
88 879
88 854
88 405
88 226
88 129
88 839
88 363
88 769
88 195
88 867
88 935
88 244
88 366
88 644
88 659
88 995
88 97
88 555
88 234
88 812
89 850
89 742
89 487
89 642
89 985
89 523
89 571
89 575
89 585
89 109
89 696
89 192
89 804
89 165
89 384
89 919
89 988
89 659
89 920
89 447
89 690
89 714
89 461
89 981
89 321
90 96
90 163
90 289
90 564
90 558
90 487
90 684
90 715
90 293
90 932
90 995
90 504
90 142
90 698
90 233
90 779
90 867
90 376
90 890
90 927
90 519
90 749
90 128
90 154
90 157
90 369
90 674
90 597
90 644
90 733
90 885
90 454
90 656
90 123
90 321
90 877
90 419
91 698
91 511
91 844
91 166
91 852
91 695
91 624
91 860
91 374
91 734
91 171
91 453
91 97
91 996
91 133
91 904
91 746
91 855
91 537
91 886
91 983
91 479
91 982
91 691
91 911
91 534
91 809
91 367
91 595
91 223
91 913
91 920
91 312
91 229
91 762
91 321
92 280
92 956
92 236
92 575
92 585
92 990
92 606
92 816
92 561
92 228
92 725
92 312
92 151
92 165
92 215
92 864
92 988
92 501
92 299
92 695
92 618
92 582
92 264
92 790
93 640
93 262
93 919
93 782
93 638
93 171
93 606
93 669
93 225
93 415
93 610
93 481
93 630
93 505
93 727
93 291
93 895
93 338
93 914
93 360
93 744
93 401
93 609
94 854
94 522
94 564
94 276
94 760
94 668
94 995
94 267
94 348
94 669
94 415
94 418
94 977
94 155
94 712
94 313
94 465
94 132
94 877
94 579
95 623
95 339
95 598
95 400
95 575
95 915
95 481
95 421
95 994
95 146
95 452
95 895
95 256
95 332
95 785
95 888
95 699
95 165
95 215
95 366
95 953
95 988
95 501
95 433
95 722
95 645
95 115
95 103
96 279
96 550
96 221
96 648
96 892
96 341
96 755
96 560
96 899
96 826
96 559
96 102
96 226
96 483
96 921
96 670
96 738
96 351
96 486
96 846
96 409
96 589
96 817
97 513
97 834
97 100
97 867
97 398
97 571
97 860
97 734
97 257
97 673
97 996
97 171
97 624
97 299
97 348
97 248
97 176
97 342
97 953
97 160
97 768
97 665
97 744
97 789
97 568
97 848
97 563
97 245
97 174
97 885
97 460
97 727
97 465
97 471
98 758
98 513
98 533
98 698
98 927
98 246
98 801
98 511
98 398
98 562
98 583
98 913
98 869
98 365
98 991
98 543
98 151
98 864
98 953
98 576
98 259
98 756
98 933
98 812
98 401
98 428
98 553
99 800
99 484
99 557
99 164
99 763
99 610
99 256
99 620
99 268
99 288
99 105
99 952
99 918
99 764
99 894
99 236
99 841
99 427
99 606
99 847
99 920
100 777
100 522
100 788
100 533
100 536
100 564
100 311
100 428
100 738
100 901
100 473
100 654
100 157
100 628
100 728
100 813
101 506
101 850
101 995
101 669
101 418
101 145
101 723
101 436
101 135
101 202
101 694
101 577
101 349
101 807
101 838
101 933
101 478
101 719
101 405
101 419
102 421
102 941
102 128
102 241
102 246
102 841
102 899
102 398
102 874
102 571
102 156
102 690
102 284
102 824
102 103
102 475
102 529
102 263
102 452
102 607
102 741
102 227
102 135
102 522
102 806
102 127
102 170
102 474
102 376
102 608
102 919
102 836
102 486
102 251
102 277
102 247
102 925
102 777
102 202
102 746
102 863
102 158
102 362
102 909
102 390
102 378
103 964
103 963
103 533
103 867
103 377
103 568
103 523
103 567
103 712
103 312
103 933
103 443
103 775
103 452
103 702
103 757
103 135
103 491
103 534
103 267
103 413
103 861
103 587
103 164
103 290
103 478
103 289
103 875
103 540
103 124
103 107
103 951
103 957
103 696
103 196
103 378
103 288
103 401
103 419
104 793
104 834
104 779
104 484
104 359
104 244
104 254
104 801
104 109
104 523
104 988
104 126
104 986
104 868
104 775
104 136
104 475
104 436
104 786
104 378
104 637
104 972
104 646
105 777
105 547
105 804
105 822
105 311
105 573
105 834
105 329
105 850
105 114
105 543
105 362
105 289
105 271
105 522
105 513
105 537
105 615
105 531
105 118
105 189
105 270
105 570
105 564
105 533
105 617
105 591
105 856
105 788
105 116
105 462
105 997
105 510
105 438
105 992
105 430
105 728
105 348
105 352
105 181
105 674
105 482
105 663
105 917
105 428
105 128
105 802
105 589
105 163
105 567
105 841
105 717
105 328
105 488
105 560
105 416
105 678
105 816
105 738
105 639
105 159
105 135
105 251
105 691
105 400
105 489
105 124
105 133
105 661
105 147
105 193
105 379
105 299
105 542
105 223
105 418
105 515
105 838
105 252
106 964
106 665
106 854
106 738
106 438
106 212
106 137
106 523
106 584
106 475
106 933
106 971
106 817
106 774
106 165
106 686
106 366
106 919
106 953
106 988
106 501
106 408
106 993
106 229
106 310
107 780
107 653
107 425
107 280
107 663
107 947
107 565
107 912
107 706
107 315
107 360
107 363
107 227
107 536
107 295
107 480
107 669
107 284
107 406
107 586
108 311
108 615
108 233
108 519
108 797
108 861
108 749
108 721
108 426
108 148
108 339
108 507
108 683
108 672
108 729
108 765
108 416
108 499
108 493
108 159
108 303
108 446
108 787
108 359
108 746
108 127
108 821
108 562
108 535
108 206
108 780
108 606
108 817
108 602
108 348
108 280
108 139
108 563
108 520
108 972
108 466
108 217
108 956
108 281
108 291
108 757
108 747
108 625
108 660
108 411
108 682
108 386
108 528
108 985
108 407
108 244
108 356
108 919
108 452
108 341
109 671
109 371
109 890
109 470
109 398
109 262
109 639
109 193
109 356
109 942
109 368
109 767
109 391
109 521
109 874
109 568
109 876
109 642
109 880
109 268
109 945
109 528
109 871
109 644
109 169
109 790
109 882
109 519
109 903
109 930
109 344
109 422
109 412
109 441
109 726
109 555
109 185
109 379
109 575
109 690
109 937
110 536
110 591
110 928
110 867
110 124
110 302
110 627
110 884
110 532
110 298
110 714
110 469
110 208
110 119
110 142
110 698
110 192
110 195
110 209
110 738
110 779
110 371
110 328
110 193
110 165
110 342
110 918
110 449
110 234
110 836
110 331
110 790
110 646
111 221
111 233
111 351
111 927
111 485
111 640
111 195
111 172
111 858
111 470
111 133
111 486
111 928
111 487
111 490
111 730
111 769
111 588
111 496
111 830
111 499
111 409
111 784
111 455
111 404
111 201
111 416
111 645
111 224
111 687
111 143
111 869
111 883
111 802
111 827
111 532
111 436
111 205
111 115
111 119
111 142
111 151
111 427
111 783
111 494
111 229
112 593
112 640
112 336
112 371
112 438
112 197
112 391
112 722
112 454
112 460
112 933
112 658
113 536
113 573
113 591
113 484
113 841
113 137
113 379
113 165
113 756
113 582
113 972
113 717
114 777
114 533
114 536
114 547
114 311
114 570
114 560
114 696
114 949
114 197
114 942
114 676
114 498
114 126
114 454
114 960
114 229
114 419
115 780
115 772
115 211
115 355
115 266
115 887
115 608
115 803
115 666
115 335
115 530
115 699
115 562
115 756
115 814
115 312
115 358
115 417
115 428
116 758
116 777
116 522
116 533
116 536
116 547
116 564
116 311
116 570
116 834
116 329
116 452
116 209
116 914
116 946
116 485
116 519
116 165
116 743
116 567
116 298
116 312
116 868
116 494
116 926
116 122
117 221
117 771
117 195
117 890
117 959
117 642
117 391
117 568
117 363
117 186
117 647
117 791
117 880
117 674
117 639
117 876
117 262
117 368
117 942
117 664
117 767
117 760
117 545
117 712
117 156
117 389
117 695
117 646
117 601
117 831
117 124
117 269
117 806
117 618
117 780
117 254
117 685
117 587
117 418
117 392
117 270
117 465
117 347
117 932
117 211
117 259
117 454
117 220
117 160
118 513
118 536
118 564
118 573
118 617
118 845
118 489
118 647
118 437
118 209
118 343
118 251
118 138
118 154
118 170
118 429
118 575
118 979
118 659
118 348
118 838
118 201
119 627
119 172
119 640
119 209
119 959
119 302
119 928
119 181
119 473
119 540
119 593
119 786
119 233
119 830
119 871
119 805
119 921
119 543
119 732
119 707
119 916
119 725
119 657
119 553
119 898
119 221
119 974
119 536
119 751
119 521
119 590
119 654
119 696
119 759
119 488
119 629
119 427
119 659
119 918
119 838
119 135
119 264
119 579
120 951
120 782
120 433
120 257
120 722
120 348
120 866
120 492
120 502
120 645
120 669
120 415
120 894
120 184
120 378
120 290
120 900
120 725
120 129
120 526
120 458
120 151
120 871
120 295
120 754
120 220
120 790
120 586
121 770
121 261
121 800
121 964
121 793
121 703
121 463
121 675
121 433
121 355
121 539
121 450
121 585
121 132
121 309
121 214
121 251
121 604
121 421
121 175
121 179
121 199
121 975
121 758
121 399
121 892
121 547
121 786
121 867
121 890
121 691
121 523
121 474
122 564
122 850
122 652
122 458
122 756
122 457
122 216
122 609
122 739
122 943
122 647
122 425
122 435
122 430
122 754
122 761
122 604
122 398
122 666
123 921
123 170
123 174
123 872
123 875
123 949
123 798
123 331
123 561
123 824
123 227
123 775
123 135
123 471
123 220
123 529
123 607
123 637
123 702
123 757
123 443
123 991
123 539
123 378
123 752
123 323
123 893
123 509
123 733
123 681
123 520
123 599
123 903
123 913
123 645
123 840
123 461
123 827
123 216
123 369
123 265
123 807
123 808
123 842
123 301
123 933
123 134
123 366
123 185
123 287
123 720
123 718
123 484
123 504
123 873
124 770
124 804
124 573
124 601
124 540
124 627
124 192
124 588
124 795
124 835
124 820
124 376
124 348
124 703
124 218
124 853
124 338
124 534
124 649
124 281
124 527
124 661
124 222
124 488
124 317
124 172
124 698
124 195
124 779
124 479
124 679
124 647
124 523
124 722
124 325
124 637
124 590
124 191
124 370
124 401
125 130
125 154
125 369
125 508
125 555
125 143
125 156
125 223
125 847
125 274
125 669
125 977
125 801
125 158
125 933
125 794
125 502
125 151
125 695
125 478
125 704
125 716
126 527
126 189
126 779
126 152
126 464
126 897
126 187
126 872
126 286
126 609
126 337
126 181
126 191
126 839
126 702
126 364
126 156
126 174
126 722
126 301
126 866
126 885
126 920
126 408
126 497
126 415
126 360
126 809
126 298
126 868
126 494
127 179
127 648
127 399
127 279
127 226
127 483
127 150
127 603
127 568
127 147
127 396
127 566
127 621
127 738
127 487
127 407
127 801
127 755
127 851
127 497
127 809
127 452
127 288
128 393
128 671
128 678
128 296
128 343
128 238
128 273
128 157
128 831
128 324
128 326
128 654
128 152
128 829
128 254
128 138
128 194
128 827
128 314
128 303
128 460
128 451
128 545
128 687
128 729
128 915
128 631
128 909
128 154
128 369
128 488
128 832
128 217
128 295
128 523
128 995
128 299
128 555
128 814
129 777
129 834
129 591
129 274
129 205
129 301
129 863
129 404
129 452
129 752
129 637
130 527
130 317
130 200
130 625
130 153
130 394
130 631
130 353
130 760
130 647
130 586
130 365
130 557
130 921
130 854
130 611
130 876
130 589
130 348
130 875
130 460
130 378
130 796
130 813
130 877
131 572
131 611
131 172
131 486
131 154
131 157
131 296
131 821
131 398
131 634
131 377
131 755
131 257
131 820
131 161
131 824
131 317
131 581
131 370
131 816
131 418
131 177
131 900
131 909
131 147
131 217
131 361
131 659
131 301
131 651
131 476
131 136
131 752
131 288
132 565
132 941
132 908
132 876
132 301
132 434
132 492
132 284
132 465
132 993
132 362
132 748
132 202
132 617
132 445
132 812
132 553
133 964
133 540
133 558
133 627
133 989
133 835
133 952
133 539
133 710
133 572
133 661
133 720
133 495
133 718
133 446
133 671
133 698
133 786
133 867
133 935
133 407
133 464
133 988
133 480
133 733
133 754
133 348
133 497
133 775
133 957
133 877
133 790
134 850
134 593
134 510
134 642
134 521
134 988
134 544
134 281
134 542
134 842
134 240
134 516
134 462
134 533
134 559
134 214
134 338
134 888
134 174
134 230
134 234
134 259
134 886
134 920
134 408
134 413
134 669
134 365
134 849
134 268
135 525
135 425
135 442
135 892
135 564
135 858
135 371
135 928
135 967
135 488
135 511
135 544
135 578
135 234
135 205
135 298
135 467
135 658
135 651
135 819
135 164
135 284
135 518
135 487
135 230
135 281
135 369
135 601
135 824
135 452
135 378
136 627
136 507
136 774
136 296
136 905
136 836
136 637
136 752
136 491
136 494
136 753
136 448
136 939
136 379
136 885
136 222
136 512
136 672
136 808
136 218
136 621
136 549
136 685
136 229
136 898
136 926
136 579
137 623
137 698
137 470
137 841
137 398
137 185
137 844
137 177
137 242
137 966
137 875
137 575
137 648
137 319
137 971
137 350
137 943
137 295
137 284
137 358
137 939
137 981
137 349
137 736
138 530
138 442
138 573
138 233
138 867
138 407
138 869
138 326
138 488
138 300
138 786
138 320
138 327
138 467
138 416
138 759
138 859
138 724
138 243
138 767
138 819
138 157
138 254
138 296
138 151
138 207
138 283
138 401
138 428
138 563
139 163
139 564
139 786
139 523
139 366
139 979
139 644
139 317
139 429
139 636
139 390
139 437
139 926
139 259
139 301
139 885
139 920
139 922
139 413
139 454
139 458
139 492
139 497
139 977
139 298
139 365
139 704
139 818
140 730
140 403
140 900
140 934
140 147
140 832
140 821
140 217
140 674
140 885
140 712
140 889
140 275
140 909
140 398
140 755
140 511
140 705
140 995
140 709
140 494
140 264
140 790
141 703
141 593
141 839
141 721
141 157
141 193
141 754
141 852
141 556
141 578
141 606
141 847
141 348
141 885
141 886
141 454
141 492
141 669
141 602
141 716
142 527
142 850
142 569
142 807
142 890
142 820
142 840
142 627
142 928
142 935
142 871
142 858
142 294
142 941
142 496
142 689
142 989
142 837
142 588
142 779
142 786
142 992
142 549
142 212
142 383
142 194
142 261
142 365
142 659
142 552
142 602
142 356
142 432
142 335
142 450
142 722
142 153
142 378
142 252
142 373
142 974
142 245
142 253
142 592
142 607
142 788
142 521
142 167
142 289
142 670
142 671
142 698
142 233
142 901
142 230
142 354
142 744
142 457
142 813
142 646
143 758
143 730
143 738
143 867
143 368
143 555
143 589
143 606
143 621
143 735
143 922
143 556
143 217
143 488
143 412
143 265
143 451
143 470
143 440
143 752
143 935
143 596
143 672
143 759
143 902
143 722
143 290
143 354
143 884
143 413
143 454
143 458
143 145
143 838
143 960
143 824
143 637
143 736
143 352
143 877
143 609
144 175
144 200
144 573
144 692
144 779
144 970
144 426
144 557
144 654
144 152
144 254
144 953
144 223
144 814
144 939
144 662
144 178
144 229
144 811
144 406
145 969
145 670
145 954
145 215
145 366
145 978
145 325
145 645
145 970
145 544
145 716
145 415
145 977
145 360
145 939
145 378
145 160
146 195
146 464
146 488
146 361
146 390
146 571
146 551
146 224
146 976
146 410
146 716
146 288
146 784
146 898
146 559
146 276
146 450
146 299
146 494
146 643
146 603
146 205
146 398
146 821
146 521
146 858
146 457
146 382
146 160
146 178
146 811
146 812
146 386
146 401
147 424
147 975
147 399
147 569
147 398
147 883
147 755
147 344
147 634
147 219
147 636
147 202
147 488
147 599
147 348
147 517
147 165
147 607
147 931
147 351
147 548
147 987
147 960
147 646
147 930
147 380
147 936
147 330
147 830
147 439
147 862
147 217
147 193
147 897
147 966
147 501
147 782
147 576
147 290
147 744
147 826
147 370
148 371
148 485
148 486
148 519
148 787
148 861
148 444
148 440
148 460
148 603
148 551
148 407
148 426
148 446
148 244
148 154
148 785
148 363
148 368
148 864
148 427
148 468
148 578
148 669
148 809
149 689
149 927
149 638
149 659
149 322
149 776
149 782
149 296
149 606
149 879
149 312
149 573
149 166
149 632
149 538
149 668
149 468
149 728
149 995
149 754
149 645
149 517
150 269
150 665
150 533
150 593
150 890
150 446
150 846
150 900
150 366
150 555
150 595
150 259
150 454
150 756
150 794
150 586
151 575
151 585
151 694
151 347
151 480
151 469
151 240
151 509
151 864
151 437
151 597
151 335
151 998
151 481
151 915
151 951
151 215
151 726
151 501
151 412
151 929
151 342
151 808
151 523
151 997
151 364
151 381
151 897
151 337
151 384
151 990
151 953
151 633
151 979
151 394
151 655
151 789
151 948
151 351
151 291
151 669
151 237
151 304
151 787
151 462
151 850
151 363
151 581
151 705
151 400
151 959
151 819
151 751
151 265
151 255
151 349
151 593
151 667
151 941
151 527
151 214
151 943
151 625
151 528
151 977
151 641
151 652
151 727
151 882
151 758
151 473
151 831
151 620
151 720
151 366
151 187
151 234
151 419
152 560
152 168
152 841
152 678
152 559
152 661
152 464
152 700
152 198
152 277
152 190
152 819
152 757
152 414
152 548
152 427
152 844
152 515
152 947
152 155
152 197
152 241
152 328
152 846
152 369
152 165
152 919
152 315
152 544
152 555
152 259
152 290
152 592
152 798
152 809
152 475
152 191
152 893
152 818
153 385
153 771
153 902
153 921
153 527
153 251
153 795
153 878
153 358
153 468
153 311
153 196
153 200
153 338
153 854
153 779
153 750
153 900
153 215
153 501
153 995
153 621
153 239
153 413
153 744
153 868
154 530
154 788
154 547
154 603
154 157
154 436
154 324
154 343
154 718
154 841
154 508
154 707
154 464
154 214
154 799
154 510
154 678
154 532
154 833
154 774
154 190
154 700
154 488
154 400
154 654
154 238
154 198
154 652
154 916
154 934
154 865
154 572
154 347
154 630
154 505
154 752
154 260
154 824
154 195
154 569
154 474
154 961
154 624
154 358
154 302
154 342
154 922
154 734
154 830
154 339
154 693
154 524
154 905
154 947
154 822
154 657
154 169
154 197
154 296
154 300
154 328
154 364
154 412
154 659
154 259
154 783
154 690
154 810
155 698
155 233
155 371
155 785
155 409
155 995
155 234
155 535
155 284
155 393
155 835
155 624
155 222
155 812
155 582
155 631
155 720
155 342
155 255
155 744
155 756
155 814
155 838
155 331
155 358
155 405
156 541
156 377
156 356
156 295
156 366
156 576
156 630
156 243
156 544
156 492
156 681
156 474
156 920
156 454
156 286
156 458
156 230
156 253
156 885
156 287
156 460
156 348
156 982
156 434
156 913
156 924
156 654
156 806
156 848
156 309
156 321
156 533
156 616
156 226
156 220
156 221
156 381
156 865
156 425
156 731
156 732
156 677
156 410
156 834
156 228
156 527
156 323
156 767
156 784
156 259
156 301
156 866
156 949
156 688
156 465
156 893
156 405
156 817
157 463
157 758
157 304
157 541
157 559
157 707
157 459
157 343
157 841
157 652
157 292
157 488
157 720
157 212
157 792
157 532
157 369
157 324
157 300
157 429
157 908
157 319
157 277
157 450
157 831
157 899
157 846
157 241
157 679
157 333
157 190
157 254
157 527
157 572
157 503
157 543
157 520
157 948
157 522
157 453
157 745
157 901
157 390
157 355
157 435
157 713
157 933
157 628
157 638
157 849
157 243
157 210
157 398
157 674
157 981
157 426
157 662
157 906
157 949
157 863
157 605
157 905
157 818
157 744
157 436
157 464
157 193
157 644
157 918
157 207
157 348
157 331
157 378
157 229
157 877
158 179
158 640
158 559
158 942
158 363
158 366
158 526
158 872
158 283
158 430
158 502
158 160
158 370
159 641
159 280
159 594
159 192
159 901
159 519
159 797
159 546
159 339
159 407
159 502
159 438
159 762
159 176
159 773
159 385
159 895
159 850
159 308
159 526
159 426
159 721
159 256
159 368
159 312
159 582
159 386
160 964
160 788
160 850
160 601
160 901
160 486
160 642
160 363
160 669
160 220
160 637
160 590
160 462
160 704
160 250
160 206
160 906
160 745
160 341
160 401
160 178
160 398
160 912
160 495
160 189
160 255
160 565
160 799
160 349
160 468
160 675
160 518
160 883
160 589
160 806
160 376
160 239
160 722
160 264
160 813
160 321
160 877
160 406
161 182
161 217
161 636
161 356
161 918
161 621
161 234
161 298
161 814
161 813
161 401
161 783
161 623
161 515
161 174
161 184
162 505
162 707
162 328
162 575
162 364
162 676
162 408
162 497
162 312
162 185
162 348
162 794
162 397
162 229
162 926
162 419
163 175
163 512
163 963
163 969
163 665
163 213
163 727
163 578
163 849
163 956
163 271
163 302
163 867
163 510
163 900
163 368
163 165
163 458
163 838
163 962
163 658
163 704
163 811
163 877
163 401
164 329
164 350
164 610
164 691
164 439
164 231
164 801
164 516
164 492
164 660
164 858
164 365
164 236
164 891
164 193
164 542
165 547
165 523
165 979
165 929
165 897
165 990
165 215
165 509
165 915
165 966
165 427
165 998
165 384
165 726
165 501
165 213
165 988
165 585
165 481
165 437
165 686
165 629
165 694
165 905
165 364
165 808
165 448
165 919
165 575
165 951
165 480
165 342
165 335
165 347
165 366
165 434
165 811
165 627
165 907
165 599
165 248
165 727
165 365
165 321
165 376
165 352
165 711
165 462
165 935
165 420
165 257
165 199
165 428
165 316
165 271
165 959
165 955
165 369
165 577
165 280
165 818
165 401
165 784
165 564
165 255
165 949
165 678
165 611
165 650
165 489
165 693
165 749
165 773
165 804
165 354
165 457
165 972
166 369
166 996
166 948
166 819
166 285
166 931
166 749
166 526
166 620
166 498
166 735
166 860
166 188
166 281
166 331
166 933
166 818
167 464
167 217
167 347
167 919
167 551
167 996
167 207
167 223
167 757
167 478
167 938
167 502
167 830
167 550
167 669
167 620
167 229
167 811
167 341
167 898
167 401
168 921
168 671
168 507
168 532
168 559
168 747
168 262
168 877
168 533
168 241
168 785
168 296
168 300
168 328
168 846
168 869
168 967
168 488
168 589
168 646
169 175
169 505
169 830
169 829
169 273
169 504
169 718
169 508
169 296
169 305
169 699
169 792
169 400
169 654
169 326
169 774
169 388
169 700
169 785
169 324
169 678
169 869
169 422
169 246
169 661
169 831
169 254
169 846
169 827
169 569
169 261
169 885
169 522
169 777
169 529
169 413
169 834
169 641
169 541
169 766
169 788
169 423
169 854
169 818
169 339
169 389
169 705
169 676
169 607
169 912
169 170
169 376
169 961
169 547
169 893
169 907
169 841
169 369
169 967
169 876
169 951
169 659
169 996
169 630
169 497
169 690
169 602
169 873
169 906
169 419
169 646
170 569
170 540
170 914
170 928
170 871
170 632
170 558
170 970
170 353
170 696
170 927
170 496
170 670
170 972
170 495
170 812
170 480
170 466
170 764
170 773
170 899
170 778
170 513
170 299
170 698
170 730
170 233
170 779
170 786
170 867
170 941
170 961
170 519
170 328
170 488
170 864
170 884
170 885
170 592
170 893
171 703
171 842
171 485
171 407
171 610
171 691
171 464
171 629
171 412
171 978
171 699
171 872
171 860
171 245
171 681
171 731
171 417
171 419
172 505
172 513
172 573
172 558
172 769
172 709
172 750
172 492
172 668
172 516
172 943
172 399
172 203
172 698
172 233
172 747
172 786
172 867
172 508
172 638
172 754
172 722
172 413
172 360
172 656
172 331
172 264
172 609
173 800
173 536
173 453
173 535
173 283
173 873
173 682
173 851
173 284
173 806
173 245
173 253
173 892
173 455
173 264
173 321
173 406
173 926
173 428
173 666
174 963
174 854
174 730
174 486
174 891
174 909
174 571
174 595
174 608
174 243
174 345
174 354
174 589
174 223
174 768
174 332
174 580
174 884
174 578
174 267
174 886
174 556
174 281
174 482
174 445
174 413
174 414
174 913
174 497
174 408
174 194
174 935
174 410
174 640
174 803
174 741
174 382
174 898
174 364
174 344
174 687
174 832
174 757
174 830
174 607
174 227
174 853
174 950
174 590
174 421
174 545
174 448
174 513
174 443
174 814
174 676
174 504
174 494
174 549
174 259
174 301
174 495
174 838
174 191
174 428
175 800
175 904
175 424
175 314
175 505
175 183
175 269
175 247
175 675
175 619
175 577
175 199
175 179
175 255
175 506
175 668
175 191
175 264
175 449
175 484
175 940
175 242
175 636
175 955
175 726
175 229
175 738
175 547
175 888
175 346
175 667
175 442
175 758
175 208
175 298
175 933
175 288
175 440
175 307
176 786
176 835
176 928
176 464
176 342
176 919
176 638
176 753
176 860
176 535
176 868
176 500
176 423
176 656
176 693
176 489
176 937
176 744
176 712
176 960
176 714
176 794
176 993
176 472
176 992
176 293
176 340
176 943
176 925
176 604
176 231
176 478
176 212
176 235
176 497
176 723
176 571
176 792
176 276
176 396
176 691
176 729
176 208
176 527
176 941
176 308
176 904
176 533
176 986
176 507
176 513
176 250
176 950
176 271
176 806
176 337
176 335
176 598
176 756
176 761
176 809
176 312
176 838
176 358
176 465
177 777
177 209
177 867
177 774
177 295
177 878
177 844
177 520
177 616
177 390
177 227
177 219
177 959
177 460
177 271
177 264
177 633
177 642
177 594
177 628
177 943
177 992
177 509
177 695
177 408
177 452
177 201
178 777
178 484
178 254
178 324
178 883
178 897
178 953
178 293
178 810
178 462
178 677
178 396
178 316
178 811
178 232
178 573
178 448
178 676
178 652
178 867
178 924
178 390
178 244
178 515
178 932
178 469
178 447
178 190
178 895
178 928
178 366
178 913
178 489
178 264
178 877
178 406
178 307
179 653
179 770
179 530
179 269
179 314
179 619
179 261
179 505
179 800
179 703
179 255
179 732
179 382
179 904
179 404
179 463
179 766
179 506
179 572
179 974
179 421
179 675
179 793
179 936
179 948
179 453
179 331
179 446
179 582
179 706
179 623
179 637
179 206
179 564
179 982
179 226
179 733
179 852
179 402
179 807
179 291
179 251
179 218
179 689
179 188
179 792
179 776
179 640
179 742
179 442
179 975
179 758
179 956
179 830
179 371
179 919
180 850
180 755
180 919
180 988
180 659
180 245
180 374
180 367
180 290
180 651
180 671
180 345
180 459
180 414
180 974
180 756
180 752
181 522
181 850
181 593
181 627
181 484
181 987
181 357
181 756
181 674
181 495
181 869
181 841
181 738
181 742
181 371
181 901
181 914
181 927
181 485
181 436
181 575
181 886
181 690
181 809
181 838
181 321
181 906
181 579
181 599
182 663
182 385
182 317
182 611
182 614
182 342
182 364
182 596
182 776
182 654
182 187
182 338
182 854
182 407
182 763
182 215
182 744
182 298
182 838
182 358
182 395
182 660
183 770
183 269
183 800
183 572
183 314
183 463
183 460
183 478
183 223
183 208
183 961
183 907
183 743
183 518
183 716
183 983
183 442
183 964
183 199
183 974
183 975
183 505
183 625
183 797
183 900
183 377
183 544
183 224
183 234
183 454
183 813
183 370
183 926
183 428
183 548
184 221
184 200
184 570
184 329
184 438
184 507
184 504
184 880
184 234
184 514
184 205
184 748
184 794
184 405
184 646
184 666
184 818
184 348
184 321
184 510
184 489
184 588
184 480
184 675
184 840
184 615
184 656
184 547
184 868
184 851
184 213
184 399
184 454
184 444
184 319
184 737
185 779
185 485
185 324
185 242
185 616
185 618
185 965
185 235
185 252
185 623
185 844
185 228
185 575
185 585
185 629
185 872
185 920
185 408
185 432
185 321
186 255
186 797
186 241
186 967
186 387
186 791
186 674
186 568
186 362
186 441
186 359
186 193
186 356
186 368
186 347
186 864
186 469
186 501
186 973
186 722
186 458
186 794
186 803
186 877
186 818
187 569
187 883
187 427
187 448
187 555
187 657
187 318
187 624
187 970
187 722
187 735
187 301
187 885
187 920
187 949
187 454
187 458
187 492
187 495
187 395
187 810
188 805
188 652
188 197
188 215
188 257
188 555
188 611
188 871
188 208
188 769
188 855
188 970
188 722
188 224
188 259
188 301
188 866
188 884
188 885
188 949
188 458
188 756
188 981
188 811
188 873
188 877
189 631
189 513
189 788
189 533
189 536
189 564
189 834
189 850
189 203
189 700
189 497
189 552
189 364
189 599
189 351
189 371
189 841
189 846
189 734
189 595
189 492
189 535
189 736
189 370
190 675
190 421
190 777
190 593
190 867
190 484
190 507
190 496
190 928
190 419
190 514
190 625
190 971
190 408
190 285
190 331
190 241
190 369
190 488
190 844
190 481
190 659
190 978
190 544
190 291
190 458
190 592
190 714
190 298
190 306
190 824
190 926
191 770
191 698
191 464
191 949
191 925
191 600
191 684
191 396
191 813
191 323
191 796
191 357
191 405
191 896
191 894
191 536
191 297
191 778
191 552
191 741
191 511
191 314
191 280
191 500
191 518
191 903
191 239
191 642
191 256
191 736
191 264
191 811
191 321
191 790
191 646
192 698
192 871
192 928
192 711
192 820
192 195
192 490
192 888
192 423
192 648
192 396
192 873
192 290
192 695
192 851
192 245
192 831
192 209
192 742
192 276
192 867
192 371
192 935
192 438
192 470
192 797
192 861
192 236
192 523
192 990
192 918
192 460
192 669
192 714
192 816
192 993
192 862
193 909
193 568
193 874
193 612
193 880
193 674
193 639
193 664
193 760
193 237
193 262
193 642
193 356
193 942
193 647
193 387
193 876
193 767
193 554
193 538
193 363
193 391
193 492
193 606
193 801
193 859
193 425
193 380
193 289
193 560
193 689
193 872
193 268
193 680
193 976
193 383
193 978
193 837
193 297
193 345
193 328
193 673
193 350
193 368
193 743
193 949
193 761
193 312
193 933
193 428
194 261
194 805
194 424
194 729
194 664
194 301
194 535
194 756
194 836
194 331
194 849
194 229
194 811
194 321
194 893
194 818
194 307
195 758
195 698
195 560
195 692
195 375
195 486
195 989
195 837
195 840
195 807
195 640
195 890
195 759
195 830
195 914
195 786
195 209
195 946
195 670
195 479
195 632
195 233
195 540
195 569
195 484
195 403
195 747
195 682
195 764
195 386
195 808
195 327
195 603
195 572
195 784
195 346
195 286
195 213
195 843
195 507
195 898
195 410
195 977
195 667
195 207
195 900
195 660
195 712
195 202
195 240
195 920
195 430
195 865
195 931
195 222
195 738
195 820
195 927
195 935
195 861
195 634
195 897
195 618
195 224
195 868
195 925
195 264
195 401
195 646
196 394
196 921
196 708
196 317
196 771
196 611
196 221
196 949
196 878
196 991
196 811
196 854
196 573
196 574
196 598
196 197
196 369
196 388
196 918
196 981
197 974
197 506
197 777
197 487
197 661
197 699
197 801
197 984
197 400
197 678
197 296
197 464
197 333
197 198
197 889
197 388
197 829
197 436
197 277
197 831
197 254
197 799
197 869
197 324
197 823
197 899
197 305
197 626
197 412
197 451
197 542
197 613
197 437
197 243
197 957
197 739
197 935
197 828
197 579
197 978
197 211
197 359
197 754
197 516
197 837
197 855
197 405
197 803
197 857
197 718
197 241
197 246
197 967
197 942
197 509
197 208
197 468
197 690
197 201
197 229
197 906
197 545
198 800
198 732
198 692
198 888
198 446
198 532
198 699
198 241
198 869
198 967
198 347
198 864
198 556
198 592
198 727
198 756
198 685
199 653
199 770
199 904
199 261
199 530
199 964
199 703
199 577
199 314
199 506
199 732
199 404
199 463
199 421
199 975
199 572
199 758
199 974
199 272
199 337
199 673
199 559
199 995
199 868
199 297
199 397
199 534
199 393
199 714
199 748
199 204
199 740
199 589
199 657
199 378
199 410
199 313
199 478
199 765
199 588
199 613
199 549
199 890
199 991
199 277
199 631
199 537
199 329
199 874
199 207
199 432
199 405
199 310
200 771
200 902
200 921
200 552
200 879
200 261
200 896
200 562
200 408
200 492
200 584
200 854
200 611
200 593
200 779
200 786
200 837
200 473
200 945
200 829
200 433
200 468
200 722
200 290
200 497
200 933
200 264
200 545
200 563
200 579
201 800
201 835
201 718
201 259
201 454
201 306
201 824
201 455
201 478
201 750
201 519
201 896
201 459
201 742
201 743
201 504
201 726
201 895
201 294
201 745
201 883
201 731
202 879
202 296
202 821
202 295
202 242
202 204
202 578
202 606
202 884
202 885
202 205
202 744
202 794
202 312
202 731
202 877
202 462
203 619
203 648
203 399
203 279
203 550
203 892
203 563
203 215
203 517
203 269
203 524
203 453
203 420
203 210
203 221
203 327
203 807
203 841
203 949
203 435
204 261
204 867
204 749
204 668
204 433
204 516
204 260
204 728
204 887
204 934
204 280
204 671
204 572
204 430
204 255
204 208
204 468
204 995
204 754
204 555
204 809
204 306
205 804
205 711
205 707
205 413
205 651
205 535
205 744
205 435
205 931
205 912
205 870
205 355
205 761
205 925
205 500
205 457
205 604
205 809
205 709
205 939
205 688
205 863
205 592
205 980
205 657
205 549
205 838
205 617
205 541
205 273
205 357
205 470
205 921
205 858
205 670
205 797
205 853
205 940
205 302
205 594
205 851
205 785
205 416
205 370
205 632
205 612
205 341
205 867
205 484
205 720
205 359
205 284
205 826
205 358
205 465
205 372
206 975
206 861
206 464
206 909
206 242
206 629
206 384
206 453
206 515
206 701
206 704
206 665
206 712
206 388
206 399
206 229
206 288
206 341
206 419
207 376
207 361
207 380
207 567
207 606
207 608
207 886
207 982
207 259
207 857
207 458
207 580
207 614
207 432
207 985
207 605
207 225
207 212
207 832
207 780
207 590
207 984
207 234
207 413
207 949
207 454
207 492
207 748
207 756
207 284
207 682
207 812
208 902
208 698
208 236
208 718
208 967
208 918
208 433
208 687
208 409
208 978
208 659
208 292
208 712
208 554
208 710
208 538
208 565
208 896
208 666
208 479
208 343
208 614
208 749
208 468
208 728
208 995
208 367
208 814
208 752
208 401
208 586
209 272
209 698
209 946
209 901
209 438
209 588
209 923
209 858
209 890
209 744
209 828
209 963
209 317
209 874
209 843
209 544
209 990
209 539
209 659
209 971
209 236
209 343
209 730
209 779
209 867
209 485
209 486
209 322
209 249
209 578
209 798
209 993
209 704
209 417
210 927
210 763
210 246
210 629
210 676
210 884
210 922
210 631
210 635
210 761
210 284
210 798
210 814
210 826
210 838
210 358
210 925
210 494
210 682
210 609
211 854
211 627
211 698
211 782
211 551
211 638
211 644
211 659
211 918
211 753
211 668
211 409
211 760
211 280
211 364
211 323
211 891
211 216
211 635
211 787
211 915
211 589
211 977
211 430
211 800
211 986
211 219
211 234
211 866
211 497
211 814
211 803
212 473
212 519
212 499
212 464
212 343
212 409
212 764
212 497
212 950
212 354
212 334
212 841
212 342
212 301
212 986
212 395
212 637
212 813
213 708
213 531
213 311
213 698
213 795
213 422
213 510
213 628
213 571
213 347
213 953
213 988
213 501
213 433
213 852
213 556
213 886
213 933
213 972
213 444
214 506
214 351
214 792
214 279
214 426
214 901
214 353
214 250
214 599
214 801
214 296
214 300
214 841
214 369
214 889
214 488
214 427
214 481
214 886
214 447
214 472
214 378
214 950
214 849
215 550
215 786
215 626
215 254
215 942
215 571
215 585
215 915
215 448
215 726
215 979
215 509
215 501
215 384
215 240
215 686
215 342
215 532
215 710
215 759
215 844
215 250
215 409
215 579
215 386
215 738
215 676
215 839
215 855
215 970
215 982
215 434
215 911
215 576
215 969
215 702
215 577
215 454
215 864
215 919
215 348
215 458
215 312
215 906
216 519
216 446
216 520
216 549
216 761
216 814
216 283
216 844
216 981
216 352
216 716
216 745
216 862
217 424
217 398
217 285
217 832
217 772
217 628
217 900
217 755
217 634
217 219
217 265
217 361
217 909
217 934
217 821
217 636
217 815
217 344
217 377
217 899
217 649
217 534
217 272
217 940
217 625
217 816
217 228
217 222
217 337
217 540
217 754
217 279
217 459
217 820
217 313
217 589
217 551
217 652
217 248
217 854
217 812
217 985
217 883
217 673
217 860
217 875
217 658
217 811
217 406
218 255
218 564
218 350
218 979
218 988
218 260
218 453
218 578
218 608
218 847
218 492
218 993
218 972
218 915
218 638
218 731
218 666
219 904
219 679
219 785
219 909
219 398
219 285
219 832
219 779
219 662
219 780
219 330
219 631
219 427
219 700
219 425
219 933
219 755
219 348
219 690
219 312
219 370
220 574
220 446
220 244
220 763
220 984
220 664
220 973
220 367
220 301
220 495
220 645
220 727
220 824
220 452
220 475
220 752
220 775
220 712
220 264
220 576
220 424
220 481
220 514
220 474
220 477
220 797
220 236
220 248
220 334
220 795
220 378
220 637
220 321
220 401
220 419
221 279
221 550
221 842
221 399
221 408
221 697
221 958
221 646
221 805
221 683
221 226
221 777
221 692
221 304
221 438
221 446
221 256
221 841
221 973
221 949
221 809
221 435
221 248
221 658
221 873
221 405
222 272
222 424
222 479
222 546
222 241
222 369
222 880
222 918
222 668
222 223
222 267
222 281
222 348
222 535
222 461
222 685
223 917
223 536
223 820
223 484
223 541
223 967
223 260
223 705
223 578
223 618
223 667
223 724
223 958
223 243
223 413
223 297
223 886
223 968
223 348
223 458
223 414
223 589
223 408
223 460
223 281
223 434
223 920
223 781
223 880
223 560
223 990
223 295
223 367
223 352
223 772
223 862
223 811
223 432
223 531
223 804
223 280
223 794
223 964
223 911
223 570
223 787
223 325
223 454
223 358
223 855
223 410
223 252
224 892
224 470
224 720
224 544
224 243
224 282
224 297
224 413
224 886
224 667
224 454
224 940
224 434
224 884
224 253
224 920
224 445
224 857
224 608
224 414
224 722
224 576
224 633
224 673
224 635
224 367
224 465
224 952
224 880
224 666
224 453
224 929
224 441
224 323
224 868
224 690
224 779
224 642
224 546
224 294
224 415
224 770
224 399
224 619
224 234
224 354
224 885
224 922
224 702
224 704
225 505
225 399
225 536
225 569
225 698
225 867
225 763
225 899
225 995
225 325
225 913
225 669
225 415
225 977
225 372
225 614
225 291
225 560
225 852
225 317
225 582
225 704
225 754
225 426
225 472
225 917
225 271
225 944
225 736
225 865
225 914
225 812
225 873
225 370
225 419
225 599
226 279
226 483
226 552
226 535
226 659
226 396
226 867
226 671
226 311
226 426
226 628
226 575
226 580
226 722
226 354
226 360
227 570
227 671
227 935
227 254
227 878
227 951
227 501
227 630
227 259
227 824
227 378
227 662
227 432
227 813
227 386
228 280
228 485
228 295
228 844
228 985
228 390
228 379
228 467
228 466
228 635
228 520
228 616
228 297
228 973
228 533
228 409
228 475
228 613
228 307
228 897
228 574
228 387
228 793
228 650
228 651
228 597
228 835
228 531
228 605
228 263
228 534
228 666
229 353
229 431
229 876
229 466
229 920
229 408
229 690
229 756
229 349
229 684
229 716
229 392
229 352
229 813
229 810
229 719
229 896
229 428
229 658
229 893
229 983
229 976
229 417
229 264
229 926
229 660
229 873
229 907
229 704
229 316
229 232
229 444
229 784
229 796
229 557
229 713
229 580
229 840
229 919
229 244
229 247
229 918
229 943
229 820
229 889
229 520
229 269
229 362
229 257
229 513
229 544
229 331
229 351
229 535
229 510
229 327
229 380
229 296
229 364
229 583
229 402
229 283
229 421
229 623
229 468
229 288
229 811
229 321
230 572
230 376
230 787
230 300
230 576
230 413
230 253
230 544
230 580
230 282
230 724
230 859
230 537
230 645
230 410
230 480
230 688
230 729
230 384
230 911
230 531
230 327
230 596
230 928
230 949
230 454
231 800
231 436
231 832
231 356
231 501
231 544
231 731
231 289
231 961
231 476
231 566
232 758
232 956
232 351
232 484
232 485
232 300
232 555
232 857
232 958
232 259
232 354
232 465
232 724
232 535
232 762
232 877
232 386
232 518
233 964
233 569
233 627
233 698
233 738
233 970
233 353
233 835
233 671
233 946
233 840
233 336
233 858
233 376
233 486
233 558
233 928
233 487
233 351
233 470
233 830
233 779
233 670
233 923
233 952
233 484
233 913
233 731
233 550
233 990
233 474
233 298
233 594
233 597
233 247
233 827
233 325
233 579
233 548
233 331
233 349
233 637
233 488
233 491
233 476
233 444
233 330
233 997
233 617
233 856
233 507
233 389
233 303
233 562
233 759
233 820
233 867
233 436
233 501
233 259
233 309
233 824
233 401
234 854
234 807
234 901
234 774
234 504
234 398
234 523
234 578
234 618
234 606
234 454
234 281
234 414
234 325
234 576
234 595
234 495
234 497
234 986
234 884
234 286
234 297
234 413
234 354
234 885
234 944
234 965
234 287
234 345
234 445
234 544
234 282
234 267
234 783
234 621
234 859
234 763
234 841
234 700
234 302
234 918
234 372
234 957
234 509
234 974
234 734
234 960
234 280
234 984
234 349
234 760
234 399
234 851
234 533
234 328
234 535
234 634
234 316
234 614
234 899
234 463
234 370
234 978
234 869
234 301
234 866
234 458
234 826
234 937
234 685
235 623
235 861
235 984
235 909
235 636
235 919
235 932
235 380
235 644
235 485
235 754
235 722
235 949
235 937
235 877
235 818
235 252
236 601
236 256
236 350
236 763
236 557
236 992
236 940
236 375
236 517
236 690
236 869
236 883
236 728
236 995
236 595
236 920
236 925
236 478
236 719
237 969
237 528
237 522
237 507
237 916
237 464
237 647
237 942
237 356
237 876
237 293
237 381
237 761
237 368
237 988
237 998
237 740
237 630
237 884
237 298
237 275
238 975
238 531
238 738
238 779
238 353
238 507
238 913
238 402
238 629
238 328
238 333
238 369
238 628
238 642
238 756
238 825
239 665
239 584
239 882
239 467
239 409
239 257
239 618
239 347
239 791
239 640
239 259
239 301
239 920
239 922
239 474
239 395
239 428
240 787
240 523
240 383
240 971
240 345
240 692
240 410
240 864
240 412
240 374
240 809
240 925
240 465
240 849
240 401
240 566
240 599
241 963
241 961
241 899
241 431
241 799
241 343
241 436
241 654
241 831
241 846
241 300
241 510
241 464
241 833
241 869
241 388
241 450
241 326
241 652
241 718
241 324
241 829
241 246
241 504
241 273
241 559
241 400
241 319
241 823
241 488
241 678
241 333
241 426
241 266
241 965
241 621
241 379
241 407
241 489
241 656
241 524
241 295
241 766
241 404
241 456
241 574
241 624
241 795
241 852
241 851
241 492
241 850
241 351
241 682
241 800
241 915
241 576
241 713
241 583
241 960
241 516
241 467
241 494
241 383
241 774
241 841
241 967
241 934
241 361
241 979
241 735
241 535
241 298
241 812
241 790
241 307
242 533
242 324
242 436
242 295
242 317
242 609
242 828
242 835
242 379
242 644
242 618
242 949
242 761
242 939
242 252
243 371
243 927
243 935
243 861
243 785
243 575
243 347
243 905
243 301
243 885
243 413
243 497
243 977
243 535
243 756
243 938
243 926
244 671
244 519
244 546
244 598
244 407
244 721
244 541
244 787
244 765
244 971
244 426
244 446
244 416
244 749
244 574
244 861
244 359
244 672
244 499
244 339
244 853
244 746
244 797
244 753
244 251
244 834
244 315
244 771
244 681
244 370
244 844
244 431
244 614
244 705
244 783
244 612
244 513
244 581
244 605
244 408
244 321
244 560
244 699
244 908
244 325
244 514
244 766
244 422
244 659
244 676
244 944
244 761
244 341
244 406
244 609
245 927
245 721
245 296
245 369
245 257
245 367
245 299
245 374
245 734
245 999
245 860
245 673
245 830
245 251
245 499
245 532
245 795
245 540
245 646
245 524
245 769
245 750
245 426
245 941
245 730
245 782
245 445
245 826
245 961
245 593
245 621
245 798
246 584
246 850
246 304
246 882
246 407
246 699
246 718
246 510
246 801
246 300
246 812
246 314
246 618
246 347
246 688
246 439
246 939
246 282
246 634
246 554
246 296
246 841
246 967
246 468
246 743
246 860
246 734
246 358
246 405
247 770
247 800
247 404
247 442
247 758
247 316
247 525
247 920
247 435
247 755
247 273
247 839
247 765
247 532
247 720
247 464
247 636
247 985
247 988
247 782
247 638
247 744
247 762
247 812
247 873
248 425
248 675
248 512
248 834
248 730
248 371
248 546
248 841
248 951
248 509
248 857
248 535
248 582
248 620
248 994
248 809
248 948
248 851
248 351
248 895
248 508
248 405
248 790
248 563
249 854
249 560
249 820
249 927
249 350
249 841
249 427
249 501
249 638
249 659
249 953
249 735
249 885
249 663
249 457
249 277
249 313
249 415
249 465
250 421
250 505
250 558
250 782
250 492
250 497
250 457
250 349
250 517
250 813
250 321
250 877
251 732
251 558
251 935
251 801
251 521
251 705
251 318
251 618
251 497
251 312
251 310
252 270
252 536
252 591
252 371
252 901
252 628
252 635
252 885
252 826
252 811
252 790
252 666
252 739
252 377
252 600
252 619
252 279
252 747
252 688
252 324
252 287
252 836
252 867
252 583
252 998
252 349
252 996
252 827
253 867
253 488
253 953
253 705
253 555
253 608
253 618
253 722
253 885
253 413
253 756
253 761
253 814
253 752
253 401
254 881
254 376
254 707
254 720
254 459
254 273
254 319
254 510
254 422
254 799
254 388
254 899
254 833
254 841
254 823
254 429
254 559
254 326
254 829
254 300
254 742
254 627
254 269
254 664
254 812
254 725
254 653
254 855
254 313
254 784
254 442
254 549
254 482
254 673
254 344
254 880
254 420
254 819
254 577
254 973
254 743
254 785
254 869
254 464
254 755
254 628
254 686
254 988
254 676
254 986
255 425
255 770
255 530
255 800
255 805
255 442
255 964
255 758
255 393
255 412
255 863
255 604
255 672
255 989
255 657
255 936
255 697
255 380
255 296
255 508
255 755
255 876
255 826
255 827
255 925
255 813
256 854
256 867
256 598
256 626
256 945
256 610
256 936
256 259
256 363
256 350
256 869
256 437
256 920
256 690
256 744
256 518
257 820
257 801
257 743
257 860
257 999
257 318
257 713
257 769
257 326
257 599
257 320
257 690
257 367
257 938
257 620
257 321
257 609
258 584
258 909
258 635
258 953
258 988
258 644
258 885
258 944
258 714
258 744
258 756
258 761
258 294
258 659
258 511
258 284
258 814
258 925
258 529
259 627
259 446
259 746
259 369
259 908
259 400
259 377
259 722
259 497
259 578
259 986
259 595
259 866
259 267
259 287
259 420
259 940
259 724
259 958
259 618
259 982
259 526
259 414
259 576
259 608
259 408
259 482
259 667
259 589
259 458
259 949
259 817
259 882
259 826
259 925
259 551
259 948
259 808
259 524
259 271
259 711
259 928
259 819
259 878
259 697
259 863
259 650
259 476
259 896
259 854
259 493
259 605
259 780
259 557
259 705
259 894
259 311
259 774
259 950
259 437
259 952
259 543
259 301
259 348
259 920
259 454
259 690
259 298
259 637
260 777
260 359
260 718
260 801
260 391
260 575
260 412
260 638
260 338
260 347
260 543
260 365
260 722
260 598
260 481
260 782
260 644
260 705
260 995
260 743
260 809
260 637
260 813
260 926
260 646
261 619
261 732
261 272
261 766
261 800
261 675
261 617
261 540
261 763
261 999
261 782
261 613
261 269
261 793
261 424
261 442
261 974
261 758
261 902
261 632
261 671
261 795
261 371
261 427
261 953
261 608
261 348
261 354
261 977
261 690
261 993
261 545
261 579
262 488
262 568
262 880
262 642
262 963
262 497
262 789
262 529
262 600
262 356
262 368
262 686
262 306
262 613
262 877
262 428
263 964
263 867
263 941
263 325
263 913
263 592
263 773
263 933
263 545
263 994
263 587
263 629
263 824
263 494
263 602
263 406
264 804
264 888
264 971
264 967
264 412
264 427
264 885
264 494
264 896
264 784
264 745
264 419
264 441
264 862
264 417
264 796
264 392
264 716
264 323
264 877
264 658
264 976
264 444
264 288
264 881
264 434
264 956
264 617
264 313
264 649
264 481
264 431
264 720
264 606
264 402
264 820
264 700
264 958
264 549
264 290
264 537
264 880
264 856
264 496
264 989
264 604
264 468
264 492
264 578
264 744
264 858
264 620
264 401
265 786
265 438
265 429
265 900
265 883
265 908
265 500
265 369
265 304
265 375
265 969
265 278
265 909
265 832
265 368
265 743
265 413
265 826
265 836
265 465
265 517
265 976
266 975
266 570
266 841
266 755
266 714
266 744
266 756
266 303
266 950
266 890
266 363
266 847
266 809
266 298
266 358
266 933
266 465
266 898
267 793
267 698
267 786
267 610
267 841
267 555
267 589
267 503
267 637
267 962
267 579
267 697
267 763
267 529
267 325
267 458
267 497
267 794
267 939
268 640
268 774
268 295
268 905
268 448
268 380
268 454
268 492
268 981
268 455
268 670
268 952
268 836
268 869
268 506
268 832
268 621
268 777
268 695
268 805
268 635
268 320
268 876
268 811
268 401
268 579
269 793
269 572
269 314
269 770
269 530
269 904
269 404
269 272
269 668
269 674
269 715
269 477
269 952
269 408
269 860
269 631
269 741
269 764
269 800
269 442
269 964
269 758
269 625
269 774
269 523
269 676
269 578
269 735
269 325
269 360
269 714
269 756
270 653
270 382
270 404
270 777
270 850
270 536
270 378
270 806
270 893
270 654
270 523
270 634
270 938
270 426
270 307
270 547
270 804
270 564
270 822
270 311
270 834
270 329
270 407
270 326
270 328
270 436
270 618
270 413
270 454
270 690
270 455
271 382
271 531
271 573
271 289
271 547
271 869
271 595
271 714
271 379
271 295
271 899
271 536
271 564
271 311
271 570
271 329
271 850
271 351
271 438
271 721
271 750
271 427
271 630
271 420
271 497
271 757
271 685
271 877
271 843
272 770
272 530
272 404
272 904
272 505
272 307
272 528
272 831
272 588
272 442
272 975
272 758
272 501
272 728
272 658
272 717
272 813
272 563
272 586
272 646
273 397
273 945
273 699
273 381
273 357
273 565
273 369
273 889
273 488
273 995
273 408
273 482
273 495
273 684
273 321
274 777
274 807
274 829
274 398
274 645
274 955
274 529
274 827
274 930
274 308
274 541
274 895
274 669
274 360
274 688
274 401
274 553
274 818
275 653
275 974
275 329
275 830
275 501
275 682
275 308
275 675
275 301
275 850
275 347
275 956
275 522
275 335
275 666
276 442
276 671
276 935
276 351
276 807
276 871
276 970
276 742
276 714
276 828
276 334
276 506
276 905
276 800
276 706
276 826
276 657
276 867
276 371
276 901
276 861
276 832
276 756
276 378
276 906
276 310
277 314
277 774
277 785
277 854
277 793
277 690
277 767
277 596
277 804
277 991
277 869
277 488
277 356
277 448
277 948
277 374
277 542
277 332
277 477
277 802
277 586
278 536
278 632
278 927
278 295
278 635
278 676
278 743
278 555
278 814
278 309
278 684
278 877
278 735
278 917
278 818
278 609
278 646
278 666
279 648
279 399
279 594
279 892
279 832
279 815
279 781
279 438
279 323
279 843
279 893
279 818
279 731
279 555
279 642
279 653
279 483
279 927
279 721
279 374
279 735
279 884
279 656
279 868
279 475
279 803
279 716
279 370
279 666
280 780
280 525
280 663
280 881
280 653
280 565
280 610
280 599
280 961
280 948
280 979
280 469
280 425
280 921
280 728
280 618
280 288
280 811
280 873
281 805
281 718
281 781
281 743
281 555
281 576
281 618
281 722
281 318
281 996
281 418
281 352
281 531
281 790
281 631
281 772
281 824
281 830
281 885
281 514
281 669
281 592
281 378
281 957
282 921
282 311
282 507
282 909
282 575
282 606
282 695
282 340
282 370
282 516
282 301
282 325
282 354
282 408
282 949
282 454
282 515
282 826
282 321
282 586
283 883
283 628
283 445
283 298
283 395
283 477
283 655
283 320
283 620
283 685
283 562
283 600
283 365
283 812
283 969
283 954
283 538
283 735
283 970
283 452
283 798
283 953
283 921
284 765
284 521
284 356
284 979
284 325
284 395
284 690
284 451
284 489
284 355
284 535
284 709
284 472
284 340
284 656
284 693
284 943
284 358
284 933
284 465
284 457
284 993
284 809
284 960
284 911
284 604
284 756
284 712
284 930
284 863
284 500
284 936
284 827
284 951
284 864
284 821
284 684
284 682
284 706
284 536
284 843
284 502
284 871
284 507
284 803
284 687
284 602
284 475
284 394
284 518
284 902
284 576
284 343
284 437
284 663
284 671
284 791
284 752
284 614
284 410
284 444
284 987
284 460
284 650
284 984
284 608
284 370
284 826
284 838
284 981
284 477
284 599
285 541
285 900
285 398
285 377
285 909
285 996
285 925
285 806
285 477
285 342
285 850
285 958
285 470
285 309
285 712
285 832
285 755
285 883
285 824
285 658
286 505
286 569
286 627
286 485
286 841
286 431
286 953
286 556
286 722
286 920
286 933
286 993
286 452
286 811
287 653
287 758
287 329
287 294
287 835
287 486
287 705
287 995
287 735
287 484
287 462
287 289
287 794
287 966
287 891
287 355
287 886
287 920
287 413
287 454
287 539
288 543
288 329
288 632
288 640
288 446
288 750
288 846
288 368
288 953
288 695
288 756
288 472
288 704
288 717
288 419
288 389
288 937
288 794
288 881
288 820
288 374
288 652
288 585
288 649
288 920
288 360
288 748
288 815
288 391
288 312
288 835
288 740
288 812
289 777
289 533
289 536
289 745
289 977
289 885
289 444
289 505
289 329
289 850
289 942
289 644
289 293
289 838
289 811
289 926
289 462
290 565
290 777
290 698
290 755
290 686
290 576
290 722
290 497
290 719
290 307
290 514
290 535
290 973
290 545
290 766
290 775
290 505
290 843
290 641
290 322
290 884
290 811
290 586
291 540
291 990
291 638
291 754
291 595
291 606
291 318
291 302
291 765
291 884
291 454
291 458
291 495
291 497
291 756
291 826
291 331
291 370
292 758
292 627
292 632
292 888
292 721
292 765
292 504
292 357
292 730
292 327
292 585
292 348
292 530
292 729
292 296
292 841
292 488
292 864
292 563
293 989
293 721
293 832
293 325
293 592
293 756
293 489
293 470
293 543
293 801
293 686
293 624
293 360
293 507
293 365
293 809
293 312
293 838
293 331
293 873
293 563
294 442
294 834
294 569
294 640
294 779
294 807
294 470
294 747
294 711
294 302
294 696
294 786
294 588
294 389
294 439
294 917
294 562
294 998
294 549
294 678
294 842
294 428
294 362
294 949
294 894
294 526
294 830
294 867
294 774
294 464
294 571
294 736
294 321
295 964
295 393
295 513
295 698
295 479
295 383
295 844
295 520
295 616
295 466
295 390
295 828
295 826
295 362
295 781
295 932
295 399
295 322
295 485
295 969
295 782
295 468
295 335
295 467
295 919
295 695
295 348
295 977
296 513
296 564
296 436
296 328
296 343
296 699
296 916
296 333
296 679
296 559
296 400
296 833
296 652
296 388
296 510
296 799
296 431
296 987
296 899
296 720
296 464
296 823
296 846
296 326
296 785
296 680
296 562
296 789
296 810
296 945
296 599
296 434
296 455
296 411
296 693
296 361
296 809
296 438
296 498
296 376
296 900
296 689
296 814
296 364
296 539
296 608
296 417
296 500
296 465
296 546
296 551
296 967
296 520
296 866
296 727
296 395
296 716
296 873
297 692
297 801
297 942
297 571
297 659
297 676
297 578
297 606
297 618
297 301
297 348
297 885
297 920
297 454
297 497
297 977
297 637
297 323
297 419
297 586
298 371
298 333
298 492
298 515
298 535
298 592
298 744
298 756
298 809
298 334
298 925
298 690
298 960
298 680
298 435
298 868
298 451
298 748
298 761
298 331
298 503
298 549
298 764
298 472
298 657
298 794
298 943
298 402
298 312
298 543
298 527
298 755
298 741
298 801
298 488
298 382
298 337
298 339
298 433
298 706
298 612
298 691
298 562
298 979
298 502
298 491
298 516
298 571
298 412
298 605
298 875
298 826
298 395
298 933
298 983
299 506
299 338
299 593
299 375
299 923
299 909
299 673
299 455
299 476
299 569
299 989
299 968
299 453
299 367
299 606
299 645
299 592
299 358
299 475
300 425
300 805
300 528
300 921
300 652
300 774
300 801
300 799
300 833
300 654
300 916
300 305
300 718
300 650
300 317
300 998
300 629
300 442
300 414
300 871
300 688
300 945
300 321
300 491
300 729
300 790
300 744
300 581
300 423
300 452
300 787
300 839
300 869
300 369
300 967
300 832
300 377
300 754
300 349
301 953
301 979
301 555
301 567
301 606
301 434
301 332
301 872
301 965
301 886
301 492
301 885
301 544
301 994
301 866
301 847
301 621
301 526
301 388
301 937
301 387
301 725
301 545
301 553
301 559
301 993
301 507
301 306
301 328
301 723
301 713
301 512
301 457
301 740
301 640
301 483
301 320
301 700
301 862
301 841
301 733
301 933
301 399
301 568
301 368
301 884
301 922
301 949
301 418
301 592
301 406
302 329
302 850
302 795
302 989
302 962
302 949
302 361
302 967
302 439
302 645
302 927
302 473
302 559
302 612
302 585
302 789
302 315
302 576
302 826
302 452
303 530
303 975
303 533
303 807
303 484
303 519
303 797
303 546
303 636
303 666
303 407
303 721
303 832
303 523
303 686
303 491
303 701
304 442
304 788
304 540
304 627
304 640
304 698
304 711
304 839
304 375
304 444
304 401
304 849
304 306
304 530
304 320
304 867
304 927
304 935
304 484
304 485
304 486
304 986
304 346
304 931
304 465
304 811
305 641
305 805
305 732
305 777
305 484
305 749
305 532
305 652
305 661
305 718
305 785
305 841
305 967
305 488
305 990
305 998
305 973
305 630
306 564
306 376
306 571
306 988
306 884
306 454
306 688
306 756
306 360
306 427
306 903
306 626
306 465
306 440
307 904
307 956
307 671
307 820
307 861
307 407
307 718
307 844
307 608
307 773
307 814
307 475
307 536
307 577
307 568
307 485
307 802
307 369
307 725
307 514
307 510
307 469
307 980
307 634
307 622
307 897
307 972
307 566
307 646
308 770
308 611
308 822
308 834
308 329
308 593
308 841
308 361
308 948
308 360
308 814
308 666
309 969
309 804
309 850
309 601
309 479
309 488
309 523
309 644
309 918
309 860
309 576
309 756
309 814
309 960
309 688
309 416
309 548
309 386
309 846
309 471
309 999
309 825
309 533
309 322
309 332
309 409
309 586
309 777
309 792
309 358
310 908
310 368
310 860
310 618
310 949
310 386
310 563
310 566
310 872
310 420
310 434
310 798
310 646
311 442
311 921
311 513
311 777
311 533
311 564
311 362
311 788
311 536
311 547
311 570
311 522
311 543
311 834
311 537
311 603
311 804
311 850
311 822
311 617
311 573
311 591
311 615
311 555
311 611
311 721
311 628
311 538
311 936
311 931
311 367
311 436
311 399
311 619
311 518
311 583
311 972
311 612
311 378
311 605
311 643
311 717
311 748
311 348
311 443
311 462
311 356
311 961
311 679
311 939
311 411
311 374
311 372
311 796
311 329
311 438
311 446
311 369
311 568
311 606
311 838
311 980
311 906
312 642
312 384
312 953
312 408
312 688
312 690
312 712
312 756
312 814
312 451
312 992
312 656
312 816
312 714
312 925
312 457
312 912
312 798
312 981
312 748
312 827
312 809
312 936
312 657
312 931
312 938
312 476
312 629
312 425
312 625
312 915
312 637
312 982
312 780
312 867
312 883
312 600
312 378
312 459
312 994
312 976
312 328
312 541
312 314
312 815
312 514
312 909
312 649
312 332
312 733
312 511
312 875
312 469
312 405
312 826
312 933
312 898
312 818
313 935
313 821
313 664
313 366
313 325
313 688
313 756
313 794
313 814
313 658
313 891
313 857
313 421
313 861
313 826
313 838
313 465
313 817
313 586
314 770
314 530
314 800
314 964
314 904
314 563
314 623
314 798
314 441
314 975
314 758
314 505
314 350
314 356
314 367
314 576
314 885
314 592
314 809
314 331
314 457
314 993
314 370
315 903
315 591
315 738
315 749
315 782
315 727
315 327
315 659
315 705
315 995
315 740
315 349
315 563
315 609
316 412
316 606
316 913
316 937
316 752
316 517
316 736
316 813
316 659
317 565
317 805
317 902
317 527
317 921
317 552
317 497
317 701
317 431
317 377
317 595
318 369
318 488
318 624
318 722
318 912
318 652
318 868
318 910
318 320
318 860
318 656
318 358
318 993
318 957
318 736
318 893
318 386
319 758
319 648
319 854
319 547
319 351
319 661
319 785
319 936
319 467
319 841
319 369
319 967
319 488
319 900
319 330
319 866
319 920
319 727
319 868
319 925
319 561
319 566
320 527
320 878
320 868
320 811
321 559
321 785
321 356
321 744
321 824
321 719
321 811
321 845
321 405
321 736
321 386
321 906
321 762
321 440
321 983
321 658
321 976
321 716
321 898
321 855
321 784
321 352
321 392
321 683
321 942
321 971
321 821
321 808
321 757
321 431
321 962
321 689
321 853
321 948
321 723
321 400
321 876
321 669
321 738
321 333
321 612
321 734
321 854
321 403
321 897
321 877
321 926
322 572
322 390
322 782
322 551
322 823
322 644
322 659
322 433
322 995
322 378
322 877
322 548
323 800
323 512
323 569
323 765
323 864
323 988
323 955
323 495
323 756
323 684
323 811
323 813
323 877
323 906
323 401
324 564
324 671
324 747
324 749
324 707
324 774
324 326
324 899
324 504
324 333
324 844
324 525
324 997
324 870
324 350
324 971
324 685
324 425
324 918
324 746
324 482
324 605
324 427
324 644
324 714
324 727
324 457
324 378
324 745
325 975
325 531
325 867
325 755
325 715
325 606
325 722
325 589
325 502
325 492
325 460
325 580
325 958
325 445
325 542
325 345
325 982
325 576
325 809
325 977
325 650
325 838
325 824
325 396
325 364
325 605
325 807
325 888
325 611
325 391
325 953
325 360
325 348
325 454
325 458
326 917
326 698
326 830
326 774
326 785
326 801
326 968
326 724
326 369
326 967
326 998
326 618
326 744
326 814
326 911
326 925
326 529
326 341
326 646
327 512
327 903
327 963
327 956
327 665
327 812
327 330
327 871
327 410
327 528
327 917
327 611
327 671
327 883
327 523
327 575
327 944
327 714
327 838
327 457
327 341
327 406
327 428
327 462
327 983
328 770
328 890
328 438
328 707
328 450
328 459
328 333
328 889
328 678
328 700
328 718
328 641
328 673
328 330
328 887
328 824
328 386
328 945
328 599
328 500
328 808
328 657
328 581
328 841
328 846
328 369
328 464
328 642
328 585
328 409
328 676
328 794
328 736
329 531
329 536
329 573
329 601
329 856
329 513
329 522
329 834
329 591
329 547
329 777
329 603
329 822
329 615
329 533
329 570
329 617
329 524
329 490
329 740
329 408
329 630
329 628
329 655
329 627
329 869
329 407
329 470
329 792
329 857
329 510
329 880
329 931
329 330
329 821
329 897
329 831
329 544
329 691
329 850
329 951
329 331
329 666
330 707
330 869
330 368
330 472
330 354
330 408
330 447
330 462
330 818
331 407
331 841
331 488
331 636
331 686
331 864
331 621
331 535
331 690
331 756
331 761
331 794
331 809
331 814
331 451
331 465
331 931
331 764
331 933
331 838
331 346
331 922
331 591
331 595
331 594
331 875
331 422
331 927
331 848
331 840
331 634
331 923
331 518
331 662
331 718
331 446
331 633
331 395
331 849
331 517
331 666
332 854
332 431
332 361
332 755
332 575
332 644
332 978
332 555
332 567
332 578
332 589
332 348
332 354
332 885
332 922
332 454
332 497
333 718
333 987
333 532
333 520
333 493
333 796
333 404
333 942
333 479
333 929
333 494
333 749
333 586
333 869
333 967
333 585
333 852
333 735
333 495
333 744
333 877
334 588
334 369
334 511
334 368
334 645
334 761
334 525
334 925
334 933
335 512
335 921
335 591
335 446
335 439
335 523
335 571
335 575
335 988
335 501
335 454
335 933
335 849
335 906
336 536
336 569
336 671
336 738
336 343
336 572
336 359
336 362
336 867
336 371
336 785
336 979
336 492
336 838
336 762
336 812
336 898
337 530
337 964
337 804
337 834
337 759
337 485
337 679
337 707
337 400
337 571
337 347
337 366
337 384
337 988
337 754
337 838
337 378
337 736
338 904
338 385
338 902
338 527
338 921
338 708
338 584
338 387
338 748
338 756
338 712
338 382
338 703
338 493
338 854
338 611
338 591
338 407
338 889
338 427
338 814
338 491
339 371
339 519
339 797
339 407
339 700
339 648
339 638
339 520
339 931
339 853
339 598
339 861
339 721
339 571
339 998
339 589
339 744
339 817
340 758
340 522
340 834
340 469
340 735
340 949
340 977
340 690
340 798
340 826
340 838
340 983
340 533
341 777
341 426
341 718
341 450
341 488
341 391
341 544
341 809
341 684
341 811
341 813
341 796
341 745
341 440
341 893
341 462
341 716
341 660
341 392
341 717
341 719
341 941
341 910
341 980
341 452
341 407
341 735
341 512
341 472
341 520
341 867
341 642
341 519
341 924
341 903
341 942
341 456
341 943
341 558
341 493
341 616
341 937
342 663
342 708
342 522
342 490
342 721
342 554
342 523
342 571
342 442
342 658
342 961
342 937
342 473
342 939
342 738
342 348
342 598
342 868
342 366
342 919
342 953
342 979
342 595
342 413
342 458
343 631
343 777
343 627
343 670
343 774
343 785
343 801
343 869
343 369
343 431
343 488
343 988
343 555
343 454
343 938
344 771
344 558
344 698
344 772
344 909
344 398
344 832
344 613
344 883
344 363
344 448
344 734
344 886
344 415
344 933
344 443
344 494
344 456
344 478
345 820
345 546
345 568
345 722
345 699
345 871
345 884
345 413
345 836
346 531
346 788
346 591
346 954
346 369
346 900
346 995
346 885
346 415
346 418
346 690
346 744
346 756
346 838
346 400
346 412
346 372
346 639
346 556
346 358
346 877
346 444
346 553
347 964
347 610
347 899
347 523
347 575
347 384
347 468
347 446
347 613
347 487
347 934
347 391
347 745
347 564
347 664
347 702
347 773
347 366
347 412
347 427
347 501
347 843
347 599
348 648
348 779
348 628
348 726
348 606
348 618
348 722
348 408
348 622
348 940
348 420
348 578
348 492
348 544
348 482
348 434
348 735
348 667
348 413
348 859
348 994
348 982
348 884
348 458
348 768
348 833
348 564
348 734
348 423
348 641
348 751
348 543
348 536
348 518
348 954
348 487
348 524
348 970
348 727
348 952
348 828
348 903
348 375
348 586
348 604
348 511
348 467
348 527
348 924
348 597
348 888
348 975
348 941
348 474
348 712
348 826
348 838
348 957
349 787
349 909
349 642
349 458
349 824
349 775
349 475
349 675
349 804
349 772
349 474
349 860
349 385
349 433
349 494
349 378
350 591
350 945
350 496
350 461
350 888
350 565
350 604
350 610
350 626
350 763
350 398
350 509
350 555
350 920
350 937
350 736
350 352
350 406
350 462
351 708
351 593
351 627
351 696
351 738
351 839
351 486
351 487
351 970
351 540
351 747
351 560
351 989
351 982
351 575
351 905
351 930
351 475
351 610
351 790
351 700
351 901
351 490
351 507
351 439
351 699
351 754
351 555
351 360
351 579
352 954
352 485
352 707
352 792
352 966
352 458
352 998
352 877
352 401
352 405
352 419
353 640
353 698
353 738
353 820
353 485
353 688
353 700
353 844
353 768
353 503
353 867
353 961
353 763
353 369
353 388
353 589
354 923
354 412
354 589
354 606
354 722
354 994
354 872
354 886
354 847
354 986
354 879
354 508
354 470
354 394
354 880
354 780
354 361
354 411
354 688
354 990
354 386
354 985
354 734
354 885
354 454
354 458
354 492
354 977
354 395
354 925
354 824
354 811
354 813
354 419
355 883
355 636
355 998
355 501
355 592
355 744
355 756
356 394
356 927
356 642
356 942
356 568
356 874
356 760
356 880
356 639
356 368
356 674
356 647
356 664
356 391
356 387
356 538
356 629
356 633
356 959
356 503
356 708
356 997
356 731
356 448
356 581
356 579
356 984
356 659
356 422
356 423
356 772
356 396
356 524
356 634
356 876
356 467
356 919
356 443
357 698
357 730
357 779
357 626
357 967
357 420
357 949
357 736
357 526
357 748
357 881
357 434
357 980
357 873
357 926
358 800
358 536
358 696
358 488
358 554
358 542
358 885
358 592
358 688
358 814
358 838
358 535
358 748
358 423
358 712
358 764
358 836
358 863
358 937
358 744
358 938
358 515
358 709
358 714
358 727
358 402
358 472
358 794
358 870
358 887
358 395
358 485
358 394
358 791
358 633
358 940
358 749
358 667
358 649
358 956
358 676
358 769
358 548
358 505
358 655
358 723
358 921
358 436
358 725
358 404
358 481
358 994
358 552
358 717
358 897
358 917
358 511
358 498
358 883
358 459
358 665
358 812
358 704
358 852
358 715
358 465
358 365
358 818
358 646
359 573
359 519
359 797
359 546
359 493
359 426
359 961
359 980
359 755
359 539
359 390
359 924
359 626
359 407
359 467
359 413
359 492
359 809
359 933
360 774
360 674
360 942
360 990
360 735
360 884
360 447
360 669
360 415
360 723
360 751
360 848
360 372
360 600
360 923
360 952
360 795
360 461
360 441
360 457
360 639
360 810
360 384
360 814
360 637
361 909
361 832
361 755
361 821
361 377
361 900
361 636
361 815
361 628
361 883
361 476
361 746
361 798
361 412
361 736
361 619
361 576
361 588
361 720
361 994
361 651
361 674
361 585
361 686
361 497
361 514
361 457
361 877
361 818
362 758
362 777
362 522
362 536
362 804
362 850
362 641
362 941
362 470
362 721
362 998
362 644
362 995
362 754
362 420
362 798
362 933
362 666
363 557
363 642
363 391
363 674
363 942
363 534
363 620
363 817
363 386
363 618
363 690
363 824
364 522
364 738
364 523
364 709
364 676
364 530
364 850
364 710
364 765
364 919
364 932
364 427
364 988
364 501
364 744
364 937
364 432
364 658
365 397
365 552
365 951
365 576
365 606
365 722
365 645
365 960
365 724
365 890
365 823
365 544
366 921
366 603
366 698
366 742
366 464
366 523
366 575
366 571
366 633
366 966
366 929
366 905
366 501
366 448
366 979
366 988
366 919
366 481
366 726
366 990
366 997
366 509
366 897
366 490
366 479
366 794
366 888
366 444
366 926
366 526
366 512
366 621
366 976
366 943
366 558
366 408
366 534
366 814
366 613
366 524
366 815
366 410
366 703
366 736
366 724
366 659
366 774
366 386
366 932
366 953
366 555
366 595
366 630
366 497
366 836
366 582
367 850
367 403
367 791
367 874
367 575
367 860
367 673
367 852
367 996
367 440
367 369
367 932
367 736
367 863
367 562
367 848
367 584
367 662
367 470
367 419
367 412
367 776
367 845
367 684
367 933
367 824
368 391
368 647
368 568
368 664
368 791
368 612
368 642
368 674
368 639
368 554
368 485
368 400
368 626
368 849
368 564
368 829
368 831
368 878
368 818
368 768
368 884
368 838
369 505
369 830
369 661
369 846
369 431
369 532
369 774
369 700
369 908
369 654
369 699
369 488
369 504
369 510
369 679
369 987
369 707
369 916
369 801
369 720
369 831
369 718
369 889
369 967
369 400
369 450
369 847
369 698
369 859
369 636
369 418
369 370
369 906
369 822
369 871
369 491
369 940
369 386
369 587
369 790
369 706
369 722
369 897
369 752
369 929
369 827
369 783
369 932
369 556
369 895
369 905
369 918
369 886
369 977
369 993
369 637
369 462
370 371
370 438
370 488
370 919
370 885
370 408
370 497
370 432
370 736
370 811
370 813
370 877
370 396
370 373
370 658
370 958
370 439
370 633
370 866
370 483
370 558
370 809
370 498
370 604
370 572
370 401
370 406
371 758
371 671
371 839
371 959
371 438
371 593
371 375
371 759
371 786
371 496
371 954
371 946
371 403
371 640
371 632
371 484
371 490
371 858
371 698
371 623
371 738
371 901
371 927
371 888
371 795
371 989
371 665
371 378
371 622
371 410
371 879
371 695
371 566
371 804
371 739
371 482
371 785
371 379
371 452
371 387
371 477
371 620
371 624
371 735
371 860
371 578
371 589
371 606
371 857
371 408
371 761
371 586
372 523
372 408
372 460
372 474
372 637
372 684
372 736
372 873
372 634
372 797
372 653
372 775
372 428
372 548
372 586
373 696
373 691
373 488
373 398
373 639
373 585
373 411
373 756
373 637
373 811
373 813
373 877
374 758
374 511
374 523
374 453
374 860
374 948
374 819
374 673
374 510
374 813
374 770
374 723
374 584
374 987
374 910
374 911
374 527
374 516
374 608
374 606
374 886
375 703
375 558
375 593
375 698
375 738
375 786
375 867
375 604
375 927
375 484
375 785
375 551
375 452
375 478
376 627
376 671
376 820
376 890
376 724
376 662
376 446
376 904
376 629
376 381
376 901
376 485
376 889
376 897
376 687
376 740
376 555
376 576
376 515
376 690
376 925
377 564
377 569
377 507
377 398
377 883
377 772
377 909
377 815
377 865
377 776
377 487
377 955
377 648
377 583
377 551
377 383
377 509
377 709
377 756
377 794
377 798
377 811
377 877
377 666
378 747
378 532
378 686
378 576
378 824
378 637
378 452
378 529
378 524
378 423
378 811
378 718
378 546
378 871
378 846
378 449
378 781
378 792
378 898
378 548
378 994
378 411
378 542
378 737
378 894
379 522
379 627
379 671
379 520
379 616
379 953
379 906
379 452
379 587
379 720
379 523
379 686
379 722
379 933
380 703
380 593
380 438
380 642
380 427
380 484
380 645
380 394
380 783
380 637
380 902
380 474
380 525
380 748
380 468
380 728
380 995
380 567
380 949
381 565
381 770
381 956
381 625
381 507
381 642
381 568
381 523
381 575
381 427
381 885
381 809
381 465
381 862
382 675
382 404
382 964
382 505
382 726
382 384
382 991
382 749
382 975
382 758
382 557
382 699
382 905
382 427
382 816
382 838
382 962
383 619
383 404
383 867
383 484
383 721
383 507
383 720
383 785
383 390
383 777
383 433
383 589
383 949
383 669
383 712
383 931
383 417
383 579
384 956
384 523
384 571
384 575
384 585
384 988
384 919
384 694
384 509
384 979
384 396
384 746
384 734
384 407
384 555
384 527
384 813
384 706
384 859
384 986
384 656
384 387
384 483
384 992
384 890
384 591
384 501
384 782
384 688
384 761
385 425
385 505
385 614
385 631
385 921
385 597
385 443
385 816
385 398
385 969
385 477
385 393
385 394
385 708
385 584
385 854
385 611
385 879
385 696
385 763
385 998
385 995
385 885
385 406
386 527
386 426
386 971
386 433
386 775
386 478
386 736
386 873
386 877
386 983
386 419
386 392
386 417
386 762
386 812
386 769
386 510
386 412
386 468
386 703
386 638
386 973
386 448
386 408
386 622
386 575
386 951
386 700
386 839
386 696
386 990
386 578
386 648
386 530
386 418
386 899
386 698
386 926
386 428
387 570
387 538
387 879
387 510
387 823
387 601
387 978
387 391
387 942
387 390
387 988
387 501
387 688
387 761
388 801
388 497
388 716
388 967
388 464
388 488
388 568
388 629
388 932
388 949
388 494
388 637
388 602
389 795
389 935
389 479
389 967
389 809
389 816
389 717
390 964
390 627
390 470
390 554
390 895
390 751
390 867
390 970
390 979
390 673
390 692
390 613
390 616
390 595
390 920
390 497
391 678
391 841
391 908
391 880
391 876
391 664
391 612
391 984
391 953
391 780
391 997
391 631
391 730
391 895
391 481
391 708
391 509
391 878
391 639
391 674
391 568
391 413
391 794
391 620
392 522
392 588
392 485
392 598
392 412
392 783
392 744
392 826
392 716
392 812
392 813
392 877
392 926
392 545
393 708
393 631
393 605
393 829
393 736
393 880
393 548
393 414
393 680
393 394
393 921
393 552
393 854
393 879
393 786
393 920
393 563
393 609
394 902
394 614
394 921
394 527
394 984
394 873
394 649
394 992
394 955
394 767
394 708
394 786
394 867
394 422
394 791
394 466
394 413
394 773
394 826
394 868
394 620
394 401
395 902
395 686
395 953
395 576
395 447
395 592
395 690
395 744
395 761
395 809
395 814
395 549
395 657
395 503
395 461
395 930
395 714
395 911
395 712
395 827
395 442
395 906
395 762
395 830
395 682
395 544
395 606
395 687
395 607
395 497
395 864
395 444
395 770
395 741
395 976
395 771
395 726
395 730
395 594
395 419
396 974
396 759
396 446
396 869
396 754
396 920
396 408
396 413
396 418
396 972
396 736
396 406
397 904
397 483
397 512
397 963
397 713
397 969
397 796
397 642
397 436
397 528
397 665
397 788
397 431
397 523
397 722
397 656
397 688
398 536
398 954
398 900
398 832
398 821
398 511
398 755
398 934
398 815
398 772
398 636
398 410
398 497
398 759
398 679
398 544
398 512
398 720
398 635
398 649
398 471
398 739
398 579
398 442
398 508
398 623
398 867
398 883
398 628
398 478
399 648
399 842
399 742
399 669
399 485
399 550
399 483
399 622
399 492
399 688
399 566
400 774
400 986
400 401
400 553
400 431
400 436
400 967
400 464
400 756
400 836
401 525
401 867
401 519
401 772
401 647
401 409
401 454
401 794
401 811
401 877
401 796
401 896
401 893
401 684
401 658
401 862
401 682
401 813
401 976
401 419
401 873
401 406
401 719
401 405
401 428
401 410
401 906
401 802
401 983
401 784
401 677
401 894
401 430
401 998
401 553
401 712
401 671
401 889
401 557
401 404
401 593
401 758
401 480
401 599
401 823
401 852
401 808
401 940
401 505
401 988
401 616
401 992
401 803
401 646
401 993
401 624
401 564
401 826
401 689
401 897
401 952
401 818
401 926
402 713
402 665
402 533
402 642
402 523
402 728
402 622
402 690
402 814
402 925
402 518
403 627
403 671
403 730
403 742
403 578
403 526
403 462
403 499
403 935
403 485
403 433
403 886
403 920
403 413
403 972
403 660
403 898
404 530
404 800
404 805
404 619
404 675
404 766
404 642
404 686
404 471
404 405
404 560
404 977
404 479
404 790
404 442
404 975
404 758
404 954
404 846
404 932
404 481
404 621
404 877
405 468
405 589
405 413
405 704
405 642
405 593
405 950
405 428
406 698
406 742
406 901
406 927
406 504
406 705
406 544
406 884
406 684
406 717
406 812
406 877
406 762
406 462
406 428
406 725
406 677
406 719
406 658
406 736
406 784
406 976
406 894
406 907
406 855
406 983
406 682
406 679
406 791
406 467
406 497
406 650
406 408
406 925
406 589
406 714
406 715
406 706
406 671
406 595
406 654
406 769
406 766
406 974
406 474
406 889
406 863
406 982
406 904
406 840
406 775
406 961
406 870
406 542
407 904
407 591
407 738
407 519
407 861
407 746
407 971
407 721
407 541
407 546
407 729
407 499
407 672
407 446
407 493
407 416
407 797
407 749
407 683
407 750
407 765
407 426
407 598
407 844
407 767
407 922
407 814
407 445
407 482
407 851
407 719
407 549
407 601
407 921
407 820
407 456
407 981
407 864
407 882
407 698
407 879
407 551
407 892
407 722
407 507
407 909
407 579
408 696
408 924
408 606
408 885
408 542
408 965
408 595
408 544
408 495
408 442
408 690
408 521
408 817
408 581
408 579
408 449
408 917
408 933
408 635
408 480
408 680
408 864
408 770
408 661
408 454
408 553
409 770
409 777
409 546
409 883
409 554
409 864
409 987
409 575
409 744
409 836
409 712
409 452
409 982
409 995
409 754
409 555
409 886
409 497
410 536
410 698
410 830
410 470
410 490
410 801
410 869
410 510
410 755
410 523
410 998
410 884
410 798
410 811
410 522
410 548
410 563
411 483
411 470
411 485
411 523
411 575
411 922
411 906
411 926
411 932
411 953
411 988
411 884
411 497
411 937
411 752
412 696
412 698
412 971
412 523
412 575
412 997
412 480
412 915
412 979
412 905
412 609
412 887
412 766
412 462
412 851
412 778
412 679
412 630
412 781
412 759
412 685
412 664
412 427
412 705
412 618
412 949
412 561
412 452
413 921
413 631
413 522
413 507
413 876
413 542
413 606
413 884
413 965
413 414
413 847
413 783
413 922
413 458
413 722
413 904
413 508
413 501
413 504
413 673
413 906
413 821
413 895
413 827
413 892
413 817
413 753
413 530
413 455
413 671
413 759
413 633
413 838
413 597
413 648
413 949
414 800
414 904
414 842
414 522
414 844
414 589
414 606
414 630
414 866
414 920
414 592
414 744
414 609
415 525
415 611
415 738
415 797
415 635
415 453
415 999
415 669
415 977
415 848
415 751
415 428
415 792
415 540
415 802
415 538
415 677
415 741
415 926
415 605
415 959
415 588
415 433
415 745
415 744
415 872
415 756
416 975
416 614
416 519
416 787
416 546
416 598
416 446
416 721
416 749
416 654
416 464
416 571
416 585
416 501
416 644
416 922
416 949
416 977
417 565
417 573
417 850
417 738
417 795
417 890
417 927
417 967
417 556
417 811
417 857
417 697
417 881
417 614
417 891
418 732
418 669
418 848
418 806
418 464
418 691
418 818
418 844
418 725
418 780
418 524
418 567
418 712
418 475
419 861
419 967
419 521
419 673
419 458
419 529
419 762
419 725
419 704
419 855
419 736
419 877
419 671
419 889
419 905
419 447
419 478
419 577
419 742
419 541
419 977
419 927
419 911
419 505
419 695
420 935
420 488
420 437
420 995
420 555
420 735
420 920
420 453
420 762
420 862
420 643
420 949
420 690
420 933
420 824
421 793
421 800
421 805
421 758
421 876
421 825
421 657
421 442
421 975
421 777
421 672
421 951
421 743
421 986
421 993
421 428
422 641
422 854
422 533
422 707
422 718
422 649
422 646
422 568
422 604
422 458
422 967
422 571
422 781
422 918
422 977
422 592
422 906
422 983
423 527
423 990
423 728
423 995
423 606
423 735
423 922
423 592
423 925
423 509
423 849
423 873
424 770
424 577
424 766
424 703
424 463
424 619
424 870
424 836
424 706
424 723
424 618
424 715
424 490
424 964
424 975
424 758
424 648
424 540
424 446
424 510
424 895
424 498
424 852
424 606
424 690
424 455
425 641
425 780
425 653
425 663
425 525
425 947
425 881
425 624
425 664
425 779
425 459
425 940
425 772
425 565
425 527
425 533
425 867
425 935
425 970
425 979
425 659
425 646
426 484
426 519
426 787
426 861
426 499
426 765
426 971
426 507
426 541
426 683
426 853
426 524
426 737
426 860
426 788
426 870
426 782
426 449
426 562
426 591
426 615
426 446
426 721
426 846
426 967
426 998
426 756
426 868
426 553
427 547
427 730
427 867
427 568
427 523
427 864
427 919
427 897
427 509
427 575
427 480
427 929
427 951
427 571
427 726
427 953
427 633
427 454
427 578
427 632
427 591
427 447
427 783
427 451
427 754
427 605
427 922
427 708
427 985
427 717
427 530
427 819
427 988
427 501
427 827
427 465
427 719
427 802
428 588
428 945
428 832
428 988
428 990
428 608
428 475
428 517
428 873
428 926
428 677
428 822
428 443
428 479
428 849
428 759
428 549
428 754
428 975
428 612
428 519
428 895
428 772
428 442
428 453
428 798
429 800
429 627
429 698
429 750
429 679
429 707
429 718
429 846
429 572
429 967
429 488
429 686
430 703
430 505
430 506
430 512
430 436
430 791
430 674
430 942
430 753
430 589
430 922
430 824
430 736
430 813
431 653
431 570
431 839
431 787
431 797
431 774
431 785
431 801
431 504
431 468
431 475
431 886
431 683
431 446
431 878
431 964
431 977
431 671
431 863
431 728
431 744
431 873
432 738
432 446
432 765
432 700
432 538
432 981
432 596
432 962
432 950
432 650
432 573
432 581
432 572
432 569
432 464
432 681
432 829
432 817
433 780
433 528
433 611
433 786
433 867
433 932
433 638
433 715
433 687
433 924
433 498
433 449
433 743
433 845
433 774
433 764
433 855
433 678
433 509
433 982
433 657
433 515
433 745
433 667
433 873
433 762
433 787
433 728
433 995
433 457
433 862
433 563
433 666
434 771
434 730
434 867
434 927
434 488
434 437
434 995
434 630
434 734
434 653
434 458
434 981
434 757
434 762
435 867
435 970
435 568
435 509
435 735
435 886
435 761
435 798
435 814
435 933
435 868
435 925
435 514
435 805
435 829
435 477
435 889
435 983
435 726
435 904
435 978
435 845
435 694
435 648
435 558
435 457
436 975
436 671
436 519
436 774
436 780
436 483
436 778
436 594
436 810
436 766
436 848
436 464
436 667
436 744
436 809
436 925
436 684
437 738
437 699
437 523
437 571
437 985
437 547
437 693
437 918
437 624
437 567
437 684
437 501
437 659
437 886
437 482
437 582
437 545
438 793
438 703
438 974
438 879
438 777
438 593
438 711
438 730
438 786
438 795
438 927
438 807
438 473
438 479
438 914
438 952
438 469
438 541
438 783
438 903
438 799
438 598
438 771
438 637
438 817
438 658
438 961
438 485
438 754
438 578
439 904
439 505
439 777
439 730
439 574
439 897
439 637
439 826
439 634
439 828
439 891
439 841
439 722
439 724
439 937
440 777
440 820
440 448
440 687
440 812
440 877
440 906
440 629
440 587
440 494
440 702
440 826
441 882
441 924
441 728
441 606
441 722
441 884
441 690
441 838
441 704
441 762
441 906
442 770
442 800
442 572
442 577
442 974
442 964
442 619
442 675
442 975
442 815
442 645
442 745
442 843
442 655
442 484
442 810
442 725
442 919
442 507
442 691
442 758
442 631
442 742
442 647
442 660
442 898
443 854
443 555
443 458
443 492
443 535
443 736
443 773
443 494
444 770
444 696
444 946
444 967
444 934
444 592
444 690
444 731
444 812
444 813
444 877
444 906
444 953
444 965
444 656
445 904
445 527
445 627
445 914
445 568
445 575
445 469
445 754
445 722
445 885
445 920
445 758
445 537
445 713
445 830
445 458
445 592
446 564
446 546
446 519
446 749
446 574
446 750
446 746
446 499
446 683
446 777
446 486
446 912
446 968
446 696
446 721
446 507
446 718
446 589
446 454
446 736
446 518
447 758
447 593
447 699
447 578
447 606
447 722
447 667
447 990
447 822
447 896
447 739
447 901
447 669
447 744
447 813
447 666
448 523
448 575
448 919
448 571
448 511
448 548
448 828
448 988
448 646
449 665
449 961
449 720
449 705
449 504
449 995
449 866
449 838
450 758
450 785
450 801
450 869
450 908
450 739
450 742
450 462
450 934
450 773
450 511
450 967
450 488
450 988
450 955
450 502
450 818
451 470
451 459
451 608
451 949
451 756
451 814
451 933
451 465
451 602
451 684
452 963
452 771
452 867
452 923
452 836
452 824
452 539
452 529
452 491
452 471
452 506
452 778
452 993
452 801
452 704
452 454
452 684
452 503
452 550
452 709
452 913
452 966
452 637
453 777
453 689
453 841
453 459
453 585
453 851
453 996
453 655
453 494
453 690
453 547
453 829
453 483
453 730
453 880
453 674
453 503
453 618
453 944
453 457
453 790
454 974
454 506
454 730
454 488
454 932
454 885
454 922
454 630
454 460
454 589
454 544
454 994
454 608
454 875
454 944
454 722
454 949
454 968
454 482
454 542
454 871
454 877
454 925
454 841
454 802
454 584
454 634
454 485
454 801
454 725
454 977
454 776
454 837
454 835
454 898
454 643
454 500
454 494
454 823
454 546
454 698
454 894
454 610
454 530
454 902
454 472
454 492
454 684
455 463
455 749
455 801
455 841
455 616
455 575
455 585
455 864
455 618
455 826
455 582
455 583
455 743
456 641
456 961
456 729
456 791
456 575
456 986
456 656
456 981
457 779
457 928
457 488
457 953
457 542
457 744
457 798
457 814
457 887
457 656
457 936
457 981
457 993
457 773
457 967
457 881
457 759
457 698
457 872
457 767
457 898
457 977
457 840
457 924
457 970
457 595
458 640
458 909
458 942
458 523
458 932
458 578
458 735
458 847
458 913
458 681
458 460
458 872
458 922
458 827
458 933
458 684
458 775
458 786
458 656
458 702
458 778
458 478
458 743
458 881
458 540
458 481
458 774
458 651
458 936
458 716
458 554
458 696
458 964
458 614
458 535
458 981
458 906
458 462
459 841
459 639
459 882
459 904
459 911
459 501
459 756
460 568
460 988
460 884
460 681
460 904
460 736
460 883
460 583
460 503
460 472
460 612
460 660
460 602
460 533
460 825
460 518
460 817
461 770
461 640
461 578
461 866
461 535
461 744
461 868
461 775
461 877
461 509
462 881
462 486
462 979
462 920
462 492
462 684
462 968
462 689
462 622
462 534
462 798
462 680
462 814
462 540
462 518
462 818
463 530
463 793
463 800
463 964
463 878
463 940
463 975
463 758
463 550
463 527
463 921
463 927
463 516
463 745
464 703
464 558
464 867
464 610
464 699
464 718
464 801
464 916
464 652
464 508
464 869
464 707
464 841
464 661
464 785
464 567
464 611
464 676
464 812
464 552
464 990
464 922
464 668
464 938
464 964
464 794
464 806
464 488
464 864
464 469
464 551
464 744
464 962
464 877
465 892
465 614
465 591
465 920
465 482
465 756
465 761
465 809
465 838
465 937
465 931
465 863
465 604
465 909
465 689
465 850
465 833
465 950
465 545
465 521
465 820
465 721
465 560
465 974
465 732
465 512
465 658
466 698
466 867
466 520
466 853
466 953
466 690
467 946
467 635
467 616
467 962
467 719
467 661
467 569
467 990
467 580
467 735
467 744
467 925
467 534
467 824
467 685
467 762
467 666
468 835
468 484
468 808
468 644
468 705
468 551
468 955
468 978
468 574
468 930
468 560
468 727
468 500
468 899
468 576
468 861
468 650
468 975
468 544
468 995
468 743
468 754
468 860
468 868
469 473
469 634
469 942
469 523
469 571
469 585
469 616
469 712
469 679
469 501
469 814
469 824
470 805
470 758
470 506
470 527
470 564
470 779
470 786
470 927
470 941
470 783
470 849
470 945
470 794
470 556
470 729
470 814
470 582
471 758
471 512
471 914
471 763
471 791
471 920
471 824
471 965
471 909
471 975
471 710
471 637
471 898
471 818
472 593
472 815
472 659
472 705
472 886
472 920
472 756
472 761
472 925
472 777
472 581
472 621
472 587
472 882
472 874
472 972
473 779
473 820
473 890
473 807
473 506
473 557
473 866
473 872
473 523
473 501
473 492
473 744
473 756
473 637
473 813
473 873
474 779
474 830
474 532
474 575
474 753
474 555
474 606
474 885
474 968
474 797
474 501
474 592
474 776
474 643
474 821
474 771
474 865
474 656
474 907
474 492
475 770
475 850
475 571
475 637
475 495
475 973
475 982
475 788
475 843
475 969
475 717
476 801
476 555
476 690
476 809
476 838
476 599
477 935
477 897
477 940
477 835
477 727
477 784
477 682
477 745
477 945
478 671
478 837
478 890
478 785
478 869
478 635
478 690
478 794
478 925
478 972
478 679
478 565
478 516
478 979
478 987
478 825
478 906
478 586
479 758
479 698
479 867
479 890
479 569
479 670
479 703
479 949
479 734
479 978
479 683
479 984
479 616
479 824
479 637
479 812
480 523
480 575
480 953
480 979
480 818
480 825
480 640
480 501
480 595
480 606
480 794
480 809
480 925
480 491
481 975
481 533
481 546
481 574
481 864
481 919
481 979
481 988
481 556
481 715
481 503
481 557
481 867
481 570
481 925
481 499
481 552
481 776
481 817
481 927
481 981
481 666
482 577
482 758
482 749
482 832
482 995
482 555
482 606
482 618
482 735
482 885
482 920
482 949
482 838
482 507
482 988
483 525
483 975
483 648
483 550
483 594
483 892
483 847
483 500
483 937
483 732
483 778
483 870
483 988
483 610
483 894
483 522
483 573
483 954
483 559
483 510
483 827
483 813
484 593
484 627
484 698
484 738
484 867
484 935
484 747
484 830
484 671
484 840
484 692
484 744
484 974
484 824
484 797
484 700
484 641
484 687
484 523
484 919
484 838
484 658
484 906
485 675
485 921
485 593
485 671
485 698
485 730
485 738
485 867
485 890
485 935
485 627
485 830
485 914
485 839
485 692
485 882
485 711
485 820
485 769
485 928
485 946
485 560
485 923
485 927
485 540
485 696
485 498
485 699
485 617
485 942
485 656
485 746
485 706
485 863
485 783
485 590
485 998
485 764
485 974
485 798
485 977
485 723
485 608
485 677
485 659
485 494
485 957
485 612
485 772
485 953
485 885
486 788
486 627
486 696
486 698
486 867
486 569
486 760
486 702
486 592
486 556
486 525
486 491
486 750
486 754
486 958
486 812
487 564
487 569
487 593
487 698
487 730
487 738
487 531
487 549
487 967
487 754
487 886
487 972
487 950
487 957
488 770
488 707
488 718
488 841
488 801
488 559
488 508
488 792
488 774
488 833
488 700
488 984
488 846
488 829
488 678
488 654
488 504
488 592
488 646
488 771
488 783
488 818
488 802
488 986
488 926
488 542
488 821
488 997
488 778
488 993
488 819
488 491
488 570
488 880
488 994
488 974
488 563
488 983
488 567
488 701
489 675
489 989
489 707
489 523
489 644
489 690
489 868
489 925
489 933
489 590
489 609
490 698
490 730
490 759
490 627
490 713
490 597
490 791
490 968
490 667
490 868
490 847
490 491
490 693
490 555
490 492
490 727
490 931
490 873
491 917
491 854
491 815
491 509
491 728
491 775
491 825
491 699
491 995
491 832
491 813
491 990
491 800
491 705
491 637
491 877
491 599
492 506
492 892
492 854
492 765
492 508
492 909
492 628
492 878
492 555
492 608
492 872
492 495
492 875
492 949
492 735
492 866
492 861
492 787
492 952
492 675
492 706
492 694
492 888
492 898
492 635
492 629
492 887
492 889
492 838
492 518
492 810
492 679
492 804
492 822
492 592
492 646
493 800
493 670
493 519
493 787
493 721
493 771
493 750
493 749
493 507
493 889
493 953
493 555
493 949
493 756
493 803
494 903
494 759
494 501
494 734
494 999
494 814
494 741
494 529
494 534
494 841
494 652
494 606
494 856
494 942
494 922
494 655
494 637
494 717
494 926
495 890
495 914
495 774
495 510
495 668
495 555
495 884
495 886
495 994
495 576
495 504
495 762
495 531
495 764
495 639
495 514
495 848
495 970
495 910
495 564
495 575
495 674
495 586
495 760
495 601
495 727
495 812
495 817
496 663
496 947
496 564
496 593
496 692
496 696
496 698
496 711
496 738
496 779
496 867
497 850
497 738
497 935
497 792
497 616
497 542
497 618
497 722
497 922
497 944
497 526
497 982
497 940
497 502
497 555
497 761
497 853
497 933
497 664
497 970
497 612
497 674
497 637
497 614
497 842
497 912
497 932
497 870
497 987
497 992
497 669
498 963
498 902
498 640
498 782
498 644
498 659
498 918
498 668
498 995
498 743
498 754
498 990
498 952
498 760
498 910
498 909
499 569
499 519
499 787
499 784
499 900
499 511
499 781
499 886
499 744
499 761
499 736
499 811
499 906
500 692
500 901
500 721
500 691
500 707
500 801
500 886
500 690
500 814
500 838
500 925
500 775
500 812
500 666
501 800
501 919
501 990
501 905
501 571
501 633
501 897
501 629
501 915
501 575
501 988
501 998
501 979
501 997
501 541
501 756
501 739
501 517
501 934
501 574
501 851
501 993
501 761
501 681
501 549
501 843
501 653
501 648
501 832
501 890
501 772
501 774
501 978
501 860
501 826
501 602
501 812
501 666
502 512
502 864
502 728
502 555
502 735
502 949
502 611
502 658
502 607
502 736
503 698
503 779
503 568
503 526
503 535
503 690
503 838
503 891
503 518
504 795
504 557
504 695
504 755
504 687
504 978
504 886
505 770
505 793
505 800
505 904
505 964
505 975
505 758
505 732
505 577
505 766
505 675
505 662
505 784
505 994
505 912
505 754
505 658
505 739
505 561
505 733
505 637
505 774
505 788
505 593
505 797
505 659
505 608
506 770
506 530
506 805
506 904
506 964
506 758
506 858
506 950
506 528
506 869
506 716
506 592
506 814
506 736
507 770
507 800
507 738
507 795
507 519
507 541
507 797
507 546
507 729
507 721
507 749
507 971
507 750
507 746
507 683
507 574
507 725
507 628
507 758
507 614
507 600
507 539
507 657
507 633
507 735
507 718
507 708
507 747
507 588
507 606
507 722
507 925
507 993
508 800
508 765
508 967
508 700
508 909
508 939
508 923
508 647
508 874
508 919
508 995
508 734
508 886
508 515
508 637
509 523
509 575
509 953
509 651
509 721
509 912
509 794
510 881
510 917
510 627
510 786
510 961
510 679
510 707
510 718
510 869
510 889
510 967
510 678
510 829
510 573
510 944
510 974
510 606
510 794
510 590
510 677
510 552
510 830
510 579
510 537
510 795
510 941
510 906
510 531
510 782
510 542
510 986
510 561
510 684
511 822
511 519
511 832
511 900
511 934
511 772
511 841
511 838
511 725
511 969
511 516
511 885
511 535
511 582
512 903
512 528
512 665
512 969
512 917
512 730
512 777
512 601
512 698
512 970
512 610
512 791
512 551
512 754
512 986
512 736
513 533
513 758
513 807
513 547
513 564
513 570
513 573
513 834
513 591
513 970
513 760
513 735
513 529
513 736
513 762
513 976
514 631
514 721
514 895
514 659
514 542
514 618
514 783
514 822
514 824
514 813
514 861
514 823
514 645
514 977
514 814
515 901
515 787
515 707
515 621
515 838
515 756
515 656
515 971
515 710
515 642
515 928
515 951
515 652
515 592
515 688
515 744
515 814
515 933
515 563
516 698
516 743
516 879
516 823
516 871
516 859
516 730
516 785
516 644
516 705
516 995
516 518
516 818
517 927
517 704
517 658
517 802
517 783
517 678
517 935
517 698
517 977
517 705
517 928
517 716
517 736
517 811
517 877
517 926
518 703
518 917
518 807
518 718
518 575
518 624
518 751
518 572
518 670
518 743
518 563
518 609
518 646
519 698
519 729
519 765
519 541
519 750
519 971
519 672
519 721
519 797
519 861
519 853
519 746
519 749
519 587
519 859
519 913
519 538
519 873
519 706
519 727
519 604
519 663
519 594
519 908
519 599
519 543
519 970
519 714
519 781
519 658
519 843
519 967
519 612
519 575
520 971
520 878
520 635
520 573
520 565
520 685
520 795
520 992
520 616
520 618
520 722
520 922
521 665
521 570
521 738
521 721
521 679
521 981
521 527
521 646
521 942
522 842
522 777
522 615
522 570
522 547
522 591
522 617
522 603
522 573
522 537
522 854
522 792
522 704
522 982
522 833
522 576
522 564
522 935
522 699
522 998
522 589
522 690
522 529
523 867
523 628
523 864
523 633
523 575
523 915
523 979
523 990
523 919
523 932
523 629
523 998
523 726
523 929
523 953
523 597
523 808
523 694
523 571
523 988
523 572
523 656
523 893
523 844
523 622
523 901
523 734
523 714
523 830
523 601
523 570
523 627
523 956
523 768
523 839
523 606
523 547
523 710
523 610
523 961
523 678
523 782
523 621
524 975
524 777
524 570
524 540
524 730
524 561
525 641
525 947
525 780
525 565
525 570
525 653
525 663
525 841
525 889
525 998
525 918
526 867
526 557
526 699
526 688
526 711
526 708
526 606
526 722
526 920
526 922
526 949
527 770
527 854
527 631
527 614
527 625
527 902
527 764
527 975
527 921
527 552
527 559
527 568
527 555
527 669
527 814
528 963
528 903
528 713
528 969
528 588
528 829
528 936
528 779
528 839
528 790
528 743
528 956
528 846
528 571
528 860
528 960
528 824
528 877
529 540
529 861
529 635
529 728
529 951
529 824
529 637
529 957
530 881
530 770
530 675
530 572
530 758
530 974
530 703
530 577
530 760
530 804
530 683
530 962
530 714
530 930
530 635
530 992
530 726
530 664
530 531
530 800
530 805
530 964
530 975
530 671
530 988
530 838
530 981
531 777
531 736
531 682
531 574
531 543
531 547
531 564
531 573
531 967
531 535
531 773
531 666
532 730
532 792
532 700
532 720
532 705
532 622
532 897
532 588
532 762
532 861
532 886
532 926
533 758
533 777
533 788
533 591
533 834
533 617
533 603
533 543
533 564
533 547
533 803
533 748
533 551
533 579
533 604
533 654
533 630
533 623
533 770
533 910
533 559
533 806
533 673
533 850
533 546
533 925
534 663
534 841
534 629
534 578
534 827
534 848
534 660
534 754
534 809
534 620
534 590
535 779
535 935
535 715
535 995
535 938
535 827
535 992
535 680
535 549
535 939
535 756
535 761
535 727
535 592
535 863
535 604
535 625
535 725
535 702
535 694
535 751
535 724
535 963
535 584
535 601
535 681
535 685
535 556
535 573
535 651
535 966
535 670
535 974
535 981
535 775
536 777
536 804
536 788
536 537
536 834
536 564
536 591
536 603
536 614
536 978
536 791
536 584
536 794
536 735
536 581
536 616
536 748
536 850
536 846
536 897
536 567
536 922
536 704
537 594
537 611
537 777
537 599
537 779
537 772
537 591
537 850
537 989
537 978
537 920
537 949
538 742
538 867
538 647
538 987
538 934
538 955
538 876
538 578
538 669
538 731
539 626
539 900
539 568
539 656
539 811
540 593
540 970
540 737
540 662
540 671
540 689
540 738
540 779
540 820
540 927
540 935
540 674
540 743
540 595
540 712
541 565
541 975
541 787
541 871
541 618
541 647
541 721
541 967
541 885
541 736
541 811
541 563
542 547
542 623
542 551
542 965
542 722
542 578
542 866
542 600
542 591
542 879
542 555
542 606
542 735
542 920
542 741
543 758
543 777
543 856
543 845
543 576
543 558
543 816
543 707
543 547
543 564
543 591
543 601
543 740
543 920
544 603
544 747
544 830
544 575
544 772
544 998
544 626
544 555
544 722
544 735
544 818
545 758
545 549
545 981
545 926
545 916
545 870
545 546
545 818
545 666
546 964
546 713
546 564
546 588
546 730
546 787
546 598
546 765
546 683
546 794
546 617
546 916
546 790
546 820
546 612
546 677
546 754
546 793
546 980
546 721
546 785
546 832
546 575
546 932
546 949
546 563
546 666
547 975
547 854
547 777
547 788
547 804
547 856
547 564
547 615
547 673
547 790
547 868
547 671
547 920
547 944
547 915
547 933
547 575
547 902
547 873
547 948
547 822
547 834
547 591
547 909
547 740
547 609
548 820
548 699
548 674
548 864
548 922
548 669
548 684
548 907
548 632
548 610
548 818
548 566
548 646
548 666
549 573
549 927
549 774
549 785
549 841
549 639
549 554
549 990
549 629
549 756
549 761
550 648
550 842
550 594
550 892
550 899
550 885
550 557
550 553
550 639
550 701
550 863
550 766
550 935
550 626
550 763
550 794
550 736
551 861
551 575
551 781
551 995
551 924
551 754
551 918
551 756
551 873
551 678
551 828
551 965
551 915
551 684
551 792
551 660
551 999
551 793
551 777
551 644
551 731
552 780
552 771
552 854
552 598
552 801
552 768
552 752
552 926
552 658
552 708
552 953
552 608
552 618
552 677
552 813
553 756
553 862
553 906
553 843
553 605
553 599
553 923
553 598
553 881
553 578
553 755
553 586
553 609
554 974
554 850
554 927
554 598
554 639
554 674
554 676
554 605
554 776
554 570
554 568
554 864
554 978
555 795
555 909
555 958
555 622
555 667
555 681
555 982
555 783
555 662
555 762
555 725
555 571
555 778
555 648
555 588
555 607
555 737
555 817
555 722
556 867
556 575
556 740
556 946
556 785
556 614
556 953
556 618
556 714
557 671
557 742
557 782
558 696
558 742
558 952
558 759
558 560
558 764
558 850
558 791
558 930
558 583
558 640
558 698
558 738
558 786
558 927
558 846
558 926
559 654
559 720
559 926
559 801
559 841
559 967
559 571
559 659
560 914
560 578
560 929
560 713
560 894
560 593
560 627
560 698
560 786
560 864
560 953
560 714
560 983
560 790
561 964
561 648
561 614
561 967
561 668
561 761
561 838
561 637
561 920
561 984
561 997
561 592
561 673
561 797
561 745
561 693
561 824
561 719
561 790
562 640
562 927
562 608
562 872
562 685
563 956
563 593
563 901
563 691
563 922
563 744
563 809
563 981
563 818
563 817
563 739
563 609
563 915
563 835
563 627
563 589
563 681
563 731
563 620
563 819
563 784
563 693
563 666
564 788
564 804
564 850
564 615
564 856
564 822
564 591
564 601
564 568
564 670
564 860
564 871
564 647
564 930
564 956
564 713
564 791
564 951
564 622
564 993
564 869
564 570
564 834
564 759
564 911
564 931
564 731
565 641
565 653
565 663
565 881
565 780
565 618
565 794
565 639
565 993
565 599
565 595
565 571
565 575
565 885
565 922
565 838
565 933
566 770
566 804
566 718
566 618
566 873
566 609
566 996
566 887
566 850
566 877
566 916
566 961
566 645
567 822
567 721
567 942
567 885
567 944
567 667
567 820
567 727
567 657
567 641
567 770
567 957
567 703
567 693
567 722
567 735
567 920
568 674
568 942
568 612
568 791
568 664
568 639
568 642
568 966
568 740
568 889
568 574
568 781
568 914
568 919
568 851
568 688
569 770
569 840
569 830
569 858
569 696
569 892
569 908
569 824
569 965
569 640
569 671
569 698
569 779
569 867
569 678
569 578
570 804
570 777
570 788
570 858
570 838
570 663
570 978
570 984
570 881
570 806
570 717
570 750
570 686
570 905
570 866
570 582
570 812
570 898
571 738
571 652
571 597
571 966
571 951
571 979
571 997
571 932
571 864
571 585
571 594
571 702
571 807
571 752
571 746
571 671
571 968
571 850
571 709
571 919
571 606
571 645
571 931
571 736
571 646
572 770
572 800
572 805
572 964
572 758
572 886
572 945
572 991
572 906
572 975
572 665
572 948
572 734
572 606
572 885
572 592
572 824
573 777
573 617
573 834
573 856
573 850
573 737
573 891
573 811
573 671
573 698
573 864
573 868
574 779
574 786
574 820
574 797
574 749
574 986
574 636
574 956
574 861
574 721
574 846
574 590
575 964
575 902
575 627
575 807
575 839
575 585
575 897
575 966
575 686
575 915
575 629
575 932
575 905
575 988
575 808
575 953
575 919
575 694
575 929
575 790
575 936
575 794
575 836
575 702
575 854
575 721
575 601
575 992
575 930
575 986
575 821
575 924
575 912
575 816
575 723
575 777
575 607
575 743
575 637
576 648
576 668
576 920
576 958
576 884
576 915
576 642
576 864
576 745
576 851
576 707
576 589
576 761
576 814
576 704
577 770
577 800
577 974
577 675
577 796
577 775
577 622
577 644
577 964
577 758
577 585
577 735
577 877
578 935
578 869
578 919
578 857
578 884
578 667
578 940
578 621
578 982
578 644
578 843
578 663
578 992
578 991
578 616
578 631
578 743
578 984
578 650
578 822
578 595
578 618
578 885
578 688
578 790
579 889
579 948
579 735
579 838
579 741
579 707
579 898
579 903
579 705
579 995
580 947
580 974
580 837
580 901
580 995
580 585
580 617
580 628
580 606
580 885
580 920
580 922
580 656
581 588
581 627
581 718
581 832
581 760
581 644
581 886
581 898
581 926
581 894
581 586
581 666
582 703
582 598
582 869
582 798
582 697
582 586
582 702
582 946
582 805
582 871
582 605
582 932
582 972
582 620
582 599
583 881
583 884
583 826
583 813
583 877
584 902
584 921
584 854
584 773
584 979
584 947
584 698
584 919
584 606
584 622
584 920
584 838
585 698
585 769
585 997
585 932
585 915
585 982
585 708
585 786
585 676
585 748
585 610
585 900
585 754
585 812
585 644
585 999
585 977
585 712
586 908
586 918
586 885
586 920
586 736
586 817
586 843
586 643
586 649
586 605
586 733
586 757
586 929
586 905
586 668
586 965
586 892
586 956
586 646
586 666
587 878
587 932
587 851
587 885
587 778
588 837
588 941
588 632
588 993
588 951
588 627
588 671
588 730
588 786
588 901
588 883
588 608
588 723
588 712
588 658
589 800
589 593
589 782
589 918
589 754
589 965
589 968
589 681
589 775
589 844
589 690
589 987
589 817
589 798
589 697
589 701
589 744
589 608
589 722
589 735
589 886
589 920
589 843
590 615
590 951
590 860
590 886
590 794
590 868
590 828
590 650
590 670
590 643
590 892
590 966
590 771
590 598
590 865
590 770
590 704
590 719
590 813
591 834
591 804
591 822
591 777
591 726
591 737
591 964
591 894
591 614
591 772
591 978
591 756
591 809
591 836
592 879
592 899
592 936
592 816
592 688
592 863
592 794
592 712
592 938
592 773
592 933
592 680
592 760
592 784
592 745
592 835
592 663
592 700
592 783
592 779
592 613
592 840
592 744
592 838
592 925
592 666
593 786
593 627
593 640
593 839
593 632
593 671
593 698
593 769
593 954
593 858
593 941
593 711
593 730
593 887
593 889
593 801
593 672
593 922
593 806
593 877
593 706
593 957
593 875
593 738
593 935
593 967
593 885
593 660
594 904
594 648
594 842
594 881
594 982
594 726
594 740
594 724
594 875
594 949
594 677
595 832
595 979
595 789
595 847
595 735
595 913
595 920
595 965
595 875
595 608
595 886
595 597
595 741
595 911
595 748
595 877
595 606
595 885
595 922
595 933
595 646
596 854
596 696
596 769
596 889
596 897
596 644
596 933
596 637
596 830
596 635
596 928
596 798
597 777
597 873
597 864
597 932
597 988
597 722
597 688
597 752
598 738
598 890
598 721
598 765
598 854
598 640
598 842
598 801
598 772
598 623
598 693
598 861
598 913
598 838
599 964
599 615
599 999
599 920
599 704
599 790
599 877
599 904
599 939
599 703
599 919
599 980
599 832
599 646
599 666
600 892
600 601
600 681
600 884
600 922
600 736
601 777
601 834
601 850
601 859
601 721
601 763
601 883
601 995
601 814
601 877
602 975
602 869
602 761
602 685
602 774
602 862
602 818
603 788
603 834
603 798
603 960
603 841
603 779
603 871
603 984
603 688
603 761
603 719
604 964
604 902
604 850
604 801
604 967
604 883
604 612
604 918
604 735
604 690
604 712
604 756
605 652
605 622
605 816
605 898
605 790
605 818
605 666
606 780
606 788
606 671
606 935
606 687
606 622
606 724
606 913
606 735
606 885
606 986
606 618
606 946
606 773
606 792
606 787
606 907
606 643
606 707
606 680
606 628
606 645
606 961
606 814
606 805
606 835
606 631
606 686
606 613
606 937
606 960
606 789
606 672
606 677
606 653
606 972
606 884
606 838
607 648
607 901
607 801
607 841
607 642
607 618
607 925
607 775
607 824
607 736
608 779
608 724
608 857
608 982
608 984
608 855
608 936
608 811
608 705
608 983
608 991
608 786
609 923
609 971
609 791
609 629
609 847
609 913
609 977
609 811
609 818
609 649
609 925
609 972
609 760
609 655
609 696
609 845
609 962
609 762
609 837
609 666
610 830
610 763
610 750
610 758
610 674
610 951
610 933
610 849
611 771
611 921
611 708
611 902
611 629
611 687
611 646
611 779
611 820
611 749
611 652
611 967
611 705
611 838
612 698
612 971
612 762
612 737
613 627
613 755
613 744
613 824
613 615
613 830
613 695
613 666
614 780
614 758
614 771
614 902
614 854
614 859
614 657
614 879
614 850
614 698
614 935
614 707
614 972
614 811
614 666
615 777
615 788
615 687
615 832
615 995
615 949
616 713
616 691
616 943
616 913
616 817
616 771
616 972
616 978
616 783
616 690
616 773
616 925
616 684
617 788
617 834
617 850
617 837
617 882
617 899
617 920
617 655
618 982
618 920
618 958
618 818
618 915
618 757
618 771
618 834
618 620
618 839
618 722
618 885
618 809
619 770
619 800
619 977
619 697
619 964
619 786
619 927
619 861
619 721
619 705
619 938
619 737
620 738
620 954
620 808
620 920
620 803
620 643
620 641
620 976
620 713
620 979
620 898
620 682
620 806
620 893
620 906
621 627
621 940
621 764
621 881
621 866
621 920
621 922
621 761
621 868
621 962
621 813
621 893
622 640
622 932
622 644
622 705
622 660
622 848
622 689
622 821
622 866
622 884
622 949
623 793
623 842
623 665
623 625
623 696
623 867
623 935
623 869
623 967
623 953
623 722
623 645
624 758
624 777
624 696
624 820
624 953
624 860
624 734
624 656
625 770
625 758
625 921
625 854
625 631
625 771
625 964
625 723
625 760
625 979
625 933
626 975
626 891
626 945
626 763
626 973
626 636
626 958
626 794
626 809
626 957
627 834
627 890
627 888
627 730
627 632
627 820
627 711
627 692
627 840
627 935
627 670
627 952
627 835
627 741
627 757
627 653
627 714
627 872
627 655
627 693
627 939
627 912
627 897
627 937
627 732
627 698
627 779
627 867
627 901
627 721
627 869
627 932
627 754
627 847
627 920
627 838
627 933
627 813
628 721
628 654
628 900
628 909
628 832
628 821
628 755
628 847
628 817
628 845
628 913
628 956
628 644
628 919
628 858
628 695
628 988
628 925
628 741
629 921
629 901
629 774
629 844
629 899
629 675
629 950
629 987
629 795
629 864
629 953
629 722
629 662
630 964
630 679
630 952
630 793
630 895
630 920
631 771
631 921
631 708
631 854
631 981
631 895
631 662
631 954
631 984
631 684
632 921
632 653
632 698
632 742
632 901
632 927
632 661
632 919
632 818
633 800
633 901
633 795
633 937
633 686
633 919
633 932
633 814
633 813
634 785
634 832
634 755
634 731
634 838
634 919
634 659
634 812
635 974
635 763
635 642
635 919
635 665
635 827
635 864
636 834
636 909
636 832
636 755
636 883
636 966
637 793
637 732
637 648
637 707
637 998
637 885
637 752
637 741
637 775
637 757
637 825
637 821
637 804
637 907
637 835
637 924
637 667
637 886
637 668
637 823
637 866
637 880
637 829
637 950
638 974
638 668
638 699
638 878
638 959
638 804
638 755
638 899
638 644
638 659
638 728
638 995
638 743
638 754
638 736
638 926
639 880
639 876
639 647
639 865
639 872
639 687
639 685
639 893
639 672
639 913
639 826
639 803
640 769
640 888
640 689
640 959
640 970
640 835
640 890
640 860
640 985
640 949
640 909
640 809
640 692
640 839
640 867
640 901
640 885
640 922
640 714
641 663
641 645
641 900
641 653
641 779
641 832
641 919
641 924
641 688
642 842
642 713
642 767
642 791
642 647
642 880
642 874
642 664
642 969
642 832
642 942
642 712
642 727
642 926
643 839
643 888
643 971
643 707
643 718
643 743
643 920
643 645
643 646
644 672
644 821
644 659
644 754
644 728
644 955
644 743
644 782
644 776
644 668
644 724
644 947
644 836
644 935
644 819
644 932
644 671
644 925
644 995
644 744
644 773
644 812
645 844
645 751
645 669
645 887
645 998
645 999
645 943
646 854
646 696
646 712
646 739
646 865
646 869
646 791
646 922
646 744
646 931
646 779
646 932
646 950
646 666
647 972
647 915
647 954
647 816
647 942
647 836
647 981
647 697
647 906
648 842
648 892
648 841
648 856
648 779
648 718
648 801
649 786
649 981
649 862
649 877
649 818
649 666
650 921
650 730
650 889
650 988
650 990
650 824
651 707
651 846
651 897
651 680
651 813
651 818
652 822
652 935
652 829
652 759
652 997
652 801
652 869
652 967
652 877
653 780
653 947
653 823
653 944
653 688
653 922
653 903
653 663
653 671
653 779
653 691
653 873
653 893
654 969
654 779
654 786
654 961
654 718
654 774
654 967
654 690
654 868
654 685
654 962
655 756
655 809
655 735
656 788
656 832
656 755
656 922
656 912
656 887
656 844
656 875
656 679
656 954
656 690
656 756
656 838
656 736
656 877
656 926
657 800
657 779
657 890
657 744
657 836
657 933
657 813
658 730
658 923
658 995
658 722
658 838
658 849
658 990
658 899
658 863
658 758
658 736
658 877
659 733
659 782
659 789
659 973
659 668
659 715
659 781
659 753
659 995
659 955
659 754
659 913
659 839
659 786
659 791
659 904
659 712
659 724
659 884
659 816
659 993
659 818
660 722
660 872
660 805
660 926
661 799
661 957
661 939
661 751
661 822
661 995
661 841
661 934
661 898
662 671
662 832
662 756
662 838
662 757
662 874
662 833
662 862
662 972
663 780
663 696
663 841
663 896
663 921
663 881
663 738
663 935
663 944
663 794
664 820
664 927
664 935
664 785
664 898
664 702
664 709
664 990
664 824
665 969
665 903
665 963
665 713
665 917
665 678
665 984
665 792
665 956
665 721
665 967
665 752
665 762
666 964
666 786
666 761
666 838
666 925
666 706
666 818
666 739
666 843
666 790
666 862
666 722
666 864
666 939
666 735
666 721
666 948
666 863
666 757
666 725
666 887
666 998
666 675
666 714
666 916
666 771
666 919
666 719
667 903
667 791
667 995
667 920
668 901
668 712
668 933
668 878
668 670
668 707
668 923
668 728
668 995
668 743
668 783
668 794
669 878
669 806
669 977
669 848
669 751
669 849
669 880
669 694
669 783
669 891
669 954
669 872
669 873
670 820
670 835
670 675
670 717
670 786
670 867
670 927
670 935
670 718
670 977
670 809
670 868
671 834
671 927
671 786
671 730
671 840
671 923
671 952
671 692
671 689
671 867
671 882
671 820
671 756
671 727
671 895
671 966
671 991
671 823
671 963
671 937
671 935
671 900
671 925
672 800
672 758
672 879
672 820
672 787
672 797
672 808
672 778
672 775
672 824
672 762
672 926
672 818
673 988
673 740
673 835
673 728
673 712
673 741
673 873
674 755
674 767
674 751
674 836
674 701
674 954
674 953
674 942
674 920
675 800
675 904
675 993
675 763
675 710
675 867
675 964
675 974
675 975
675 758
675 774
675 851
675 884
675 933
676 800
676 964
676 918
676 995
676 789
676 973
676 715
676 832
676 887
676 739
676 908
676 975
676 818
676 705
676 740
676 814
677 917
677 841
677 920
677 827
677 803
677 741
677 874
677 704
678 888
678 944
678 889
678 967
678 884
679 800
679 801
679 908
679 778
679 738
679 785
679 841
679 794
679 826
680 758
680 742
680 927
680 831
680 744
680 761
681 785
681 919
681 883
681 885
681 949
681 972
681 862
682 742
682 807
682 839
682 772
682 920
682 809
682 826
682 838
682 714
682 923
682 931
682 811
682 813
683 738
683 867
683 935
683 853
683 861
683 721
683 750
683 831
683 791
683 789
683 722
683 898
684 942
684 722
684 868
684 784
684 896
684 749
684 958
684 911
684 695
684 879
684 886
684 737
684 821
684 835
684 988
684 754
684 820
684 704
684 813
684 877
685 698
685 801
685 734
685 814
685 803
685 932
685 770
685 839
685 901
685 748
685 806
685 732
685 962
685 812
686 841
686 966
686 905
686 988
686 953
686 808
686 929
686 711
686 687
686 959
686 932
686 918
686 860
686 712
687 883
687 981
687 705
687 995
687 736
687 893
688 905
688 986
688 863
688 993
688 714
688 756
688 980
688 809
688 964
688 811
688 812
688 777
688 867
688 961
688 824
688 784
688 978
688 761
689 952
689 929
689 698
689 738
689 927
689 935
689 833
689 942
689 722
689 898
690 730
690 861
690 919
690 995
690 734
690 863
690 993
690 910
690 931
690 943
690 836
690 826
690 709
690 870
690 798
690 963
690 991
690 985
690 903
690 818
690 701
690 732
690 886
690 744
690 756
690 809
691 692
691 970
691 710
691 988
691 752
692 738
692 909
692 919
692 932
692 918
692 796
693 891
693 918
693 744
693 809
693 814
693 826
693 838
693 868
693 812
693 898
694 974
694 696
694 795
694 890
694 830
694 962
694 953
694 809
695 777
695 914
695 927
695 715
695 943
695 873
695 860
695 722
696 989
696 871
696 959
696 840
696 726
696 790
696 788
696 730
696 738
696 867
696 765
696 967
696 735
697 699
697 900
697 715
697 783
697 761
697 972
698 837
698 952
698 954
698 901
698 742
698 730
698 807
698 959
698 941
698 882
698 839
698 786
698 970
698 946
698 725
698 848
698 931
698 734
698 864
698 884
698 940
698 874
698 915
698 867
698 869
698 953
698 925
698 824
698 906
699 890
699 718
699 984
699 919
699 744
699 964
699 851
699 774
699 801
699 967
699 953
700 850
700 961
700 721
700 718
700 883
700 962
701 780
701 901
701 927
701 869
701 967
701 900
701 985
701 905
701 744
701 827
702 839
702 905
702 919
702 705
702 866
702 761
702 838
703 793
703 800
703 974
703 776
703 948
703 964
703 975
703 758
703 932
703 995
703 872
703 922
703 824
704 961
704 922
704 744
704 983
704 906
704 725
704 893
704 745
704 730
704 890
704 854
704 820
704 918
704 860
704 836
704 940
704 804
704 812
705 867
705 883
705 995
705 955
705 924
705 733
705 935
705 857
705 991
705 881
705 732
705 784
705 706
705 728
705 740
705 743
705 885
705 761
705 933
705 810
706 738
706 927
706 841
706 955
706 814
706 962
706 812
707 820
707 799
707 801
707 829
707 831
707 774
707 960
707 918
707 806
707 726
707 945
707 716
707 718
707 841
707 846
707 979
707 995
707 753
708 921
708 820
708 746
708 739
708 854
708 979
708 735
709 874
709 978
709 743
709 744
709 809
709 814
709 933
710 902
710 718
710 774
710 801
710 782
710 868
711 780
711 852
711 918
711 831
711 738
711 927
711 787
711 829
712 754
712 794
712 994
712 966
712 823
712 744
712 814
712 716
713 963
713 768
713 838
713 795
713 956
713 837
713 998
713 789
713 754
713 809
713 962
714 754
714 900
714 872
714 934
714 852
714 744
714 756
714 868
715 902
715 867
715 941
715 908
715 760
715 995
715 716
716 986
716 756
716 849
716 841
716 881
716 993
716 735
716 970
716 906
717 756
717 855
717 893
717 945
717 814
717 849
717 847
717 751
717 973
717 811
718 903
718 786
718 935
718 829
718 720
718 801
718 987
718 841
718 869
718 784
718 977
718 895
718 994
718 812
718 931
718 858
718 874
718 967
718 761
718 816
719 812
719 857
719 913
719 906
720 964
720 779
720 797
720 891
720 765
720 813
720 902
720 900
720 919
720 920
720 838
720 933
720 818
721 861
721 797
721 853
721 729
721 971
721 746
721 787
721 923
721 931
721 936
721 907
721 833
721 802
721 989
721 791
721 879
721 963
721 859
721 868
721 773
722 902
722 755
722 913
722 965
722 847
722 859
722 886
722 982
722 884
722 968
722 994
722 986
722 938
722 850
722 851
722 747
722 727
722 798
722 895
722 864
722 948
722 763
722 787
722 885
723 935
723 797
723 889
723 988
724 788
724 737
724 937
724 920
724 925
724 933
724 813
725 815
725 756
726 932
726 885
727 770
727 786
727 734
727 885
727 870
727 821
727 841
727 964
727 888
727 749
727 918
727 759
727 736
727 744
727 756
727 826
727 838
727 775
728 927
728 918
728 776
728 754
728 920
728 818
728 755
728 966
728 743
728 977
728 873
728 906
729 842
729 834
729 797
729 767
729 806
729 762
730 738
730 786
730 959
730 970
730 788
730 938
730 873
730 839
730 773
730 926
731 755
731 849
731 950
731 838
731 958
731 813
732 770
732 800
732 805
732 904
732 964
732 975
732 903
732 829
732 959
732 758
733 801
733 782
733 918
733 785
733 995
733 743
733 754
733 898
734 881
734 941
734 860
734 996
734 783
734 993
734 738
734 761
734 773
734 906
735 904
735 964
735 869
735 967
735 953
735 884
735 968
735 859
735 885
735 860
735 896
735 839
735 831
735 870
735 757
735 848
735 930
735 933
735 920
735 906
736 780
736 867
736 927
736 868
736 898
736 906
736 896
736 877
736 796
736 907
736 862
736 755
736 950
736 870
736 901
736 948
736 813
737 795
737 801
737 925
737 884
737 907
737 784
737 877
738 935
738 747
738 795
738 923
738 954
738 952
738 959
738 888
738 764
738 751
738 884
738 775
738 745
738 831
738 887
738 919
738 786
738 867
738 927
738 909
738 832
738 953
738 782
738 949
738 761
738 794
738 827
739 867
739 841
739 979
739 884
740 927
740 967
740 782
740 995
740 816
740 804
740 895
740 964
740 743
740 756
740 773
740 931
741 935
741 755
741 744
741 993
741 791
741 895
741 913
742 989
742 901
742 837
742 746
742 900
742 794
742 814
742 925
742 790
743 919
743 918
743 753
743 782
743 776
743 978
743 822
743 809
743 876
743 912
743 771
743 792
743 969
743 835
743 892
743 763
743 885
743 920
744 951
744 995
744 885
744 838
744 870
744 863
744 939
744 910
744 826
744 756
744 794
744 980
744 887
744 827
744 836
744 933
744 868
744 962
744 915
744 913
744 765
744 983
744 766
744 865
744 862
744 945
744 979
744 791
744 994
744 869
744 890
744 925
744 926
745 959
745 980
745 877
746 820
746 899
746 845
746 890
746 985
746 750
746 749
746 967
746 953
746 949
746 798
746 818
747 975
747 777
747 927
747 982
747 940
747 867
747 801
747 922
748 779
748 901
748 900
748 829
748 995
748 756
748 809
748 838
748 925
749 805
749 861
749 971
749 772
749 860
749 768
749 866
749 877
750 830
750 861
750 893
750 816
750 926
751 961
751 937
751 938
752 770
752 909
752 864
752 824
752 754
752 802
752 892
752 906
753 995
753 832
753 829
754 956
754 919
754 995
754 789
754 924
754 766
754 855
754 759
754 769
754 862
754 992
754 865
754 990
754 986
754 877
755 935
755 900
755 832
755 772
755 815
755 821
755 862
755 960
755 943
755 767
755 885
755 944
755 836
755 838
755 811
756 838
756 960
756 773
756 936
756 868
756 912
756 887
756 814
756 798
756 816
756 993
756 938
756 931
756 793
756 782
756 790
756 891
756 839
756 921
756 789
756 951
756 805
756 848
756 989
756 794
756 933
756 824
757 963
757 883
757 761
757 933
757 824
757 885
757 802
758 800
758 904
758 964
758 975
758 766
758 770
758 974
758 805
758 793
758 933
758 998
758 781
758 861
758 891
758 864
758 761
758 978
758 971
758 921
758 784
758 813
759 858
759 913
759 969
759 799
759 779
759 795
759 830
759 927
759 935
759 967
759 932
759 957
760 804
760 953
760 801
760 806
760 894
760 933
761 904
761 901
761 932
761 826
761 981
761 939
761 764
761 912
761 992
761 938
761 936
761 910
761 887
761 836
761 930
761 974
761 991
761 792
761 781
761 913
761 845
761 793
761 787
761 877
762 861
762 947
762 992
762 978
762 935
762 811
762 813
763 777
763 945
763 891
763 776
763 965
763 874
763 811
764 838
765 807
765 867
765 989
765 930
765 875
765 858
765 844
765 933
766 770
766 805
766 964
766 888
766 933
767 935
767 942
767 853
768 970
768 929
768 826
768 862
769 770
769 976
769 842
769 839
769 867
769 927
769 935
769 932
769 809
769 790
770 885
770 995
770 938
770 799
770 800
770 964
770 975
770 869
770 900
771 971
771 902
771 921
771 854
771 867
771 811
772 837
772 937
772 832
772 883
772 885
772 922
773 788
773 961
773 955
773 996
773 820
773 814
773 826
773 925
774 799
774 785
774 833
774 916
774 831
774 879
774 784
774 838
774 915
774 922
774 937
774 811
774 812
775 800
775 885
775 813
775 799
775 819
775 782
776 917
776 837
776 899
776 967
776 953
776 979
776 964
776 995
776 860
776 920
777 804
777 788
777 856
777 822
777 852
777 880
777 791
777 823
777 812
777 829
777 834
777 850
777 934
777 782
777 838
778 924
778 884
778 853
778 811
779 834
779 946
779 830
779 795
779 914
779 858
779 901
779 840
779 807
779 952
779 855
779 910
779 792
779 898
779 867
779 916
779 905
780 959
780 881
780 800
780 842
780 834
780 867
780 905
780 919
780 836
781 832
781 918
781 995
782 918
782 880
782 968
782 887
782 995
783 867
783 983
783 823
783 882
784 963
784 813
785 916
785 799
785 846
785 896
785 881
785 989
785 801
785 909
785 932
785 860
785 962
786 888
786 830
786 961
786 935
786 835
786 989
786 795
786 837
786 907
786 801
786 975
786 962
786 831
786 804
786 926
786 867
786 824
787 850
787 861
787 925
787 990
787 840
787 888
788 975
788 834
788 898
788 932
788 945
788 860
789 820
789 932
789 938
789 919
789 995
790 849
790 813
790 865
790 952
790 867
790 929
791 914
791 874
791 828
791 808
791 949
791 809
791 925
792 856
792 801
792 841
792 967
792 836
792 931
793 965
793 819
793 800
793 904
793 975
793 913
794 975
794 995
794 886
794 960
794 872
794 963
794 885
794 890
794 901
794 964
794 814
794 868
795 830
795 989
795 922
795 930
795 924
795 867
795 927
795 920
796 914
796 883
796 948
796 884
796 856
796 813
797 927
797 852
797 888
797 919
797 926
797 957
797 838
797 830
797 841
797 884
798 935
798 853
798 864
798 886
798 835
798 923
798 994
798 876
798 949
798 809
799 927
799 941
799 971
799 841
799 967
799 932
799 958
799 814
799 933
799 906
800 974
800 964
800 904
800 805
800 870
800 993
800 989
800 975
800 967
801 869
801 826
801 999
801 828
801 825
801 840
801 997
801 841
801 967
802 867
802 932
802 977
802 812
803 869
803 813
804 856
804 977
804 865
804 916
804 956
805 974
805 829
805 872
805 904
805 975
805 834
805 807
805 901
806 995
806 872
806 977
806 816
806 812
807 822
807 893
807 876
807 820
807 867
807 935
807 954
807 886
808 815
808 932
808 988
808 885
809 870
809 911
809 936
809 868
809 912
809 838
809 938
809 939
809 925
809 930
809 933
809 980
809 981
809 967
809 862
809 913
809 814
809 817
810 883
810 827
810 811
811 981
811 894
811 983
811 862
811 877
811 967
811 875
811 858
811 915
811 905
811 970
811 977
811 887
811 964
811 813
811 873
811 926
812 891
812 983
812 813
812 950
812 929
812 961
812 890
812 877
813 896
813 862
813 898
813 906
813 877
813 894
813 817
813 890
813 852
813 984
813 956
813 905
813 850
813 874
813 875
813 995
813 926
814 847
814 960
814 887
814 992
814 910
814 933
814 993
814 865
814 947
814 877
814 921
814 991
814 838
815 974
815 869
815 900
815 909
815 883
815 932
815 827
816 869
816 875
816 826
817 818
818 830
818 973
818 980
818 894
818 882
818 939
819 963
819 966
819 995
819 920
819 838
820 975
820 989
820 871
820 901
820 952
820 837
820 823
820 849
820 892
820 998
820 887
820 935
820 880
820 826
821 900
821 904
821 832
822 850
822 987
822 940
822 834
822 838
822 873
823 969
823 905
823 841
823 953
824 964
824 909
824 949
824 991
824 965
824 867
824 917
824 986
824 916
824 898
825 861
825 832
825 885
825 870
826 868
826 981
826 856
826 880
826 934
826 940
826 974
826 948
826 853
826 838
826 906
827 899
827 988
827 922
827 948
827 933
828 916
828 918
828 944
828 849
829 973
829 986
829 898
830 902
830 847
831 874
831 996
831 912
831 841
831 869
832 900
832 909
832 934
832 950
832 884
832 984
832 860
832 849
833 921
833 967
833 838
834 850
834 856
834 931
834 887
834 965
834 892
834 928
834 952
834 919
834 949
834 925
834 906
835 842
835 939
835 867
835 927
835 844
836 947
836 902
836 922
836 960
836 936
836 925
838 951
838 857
838 920
838 925
838 863
838 933
838 936
838 962
838 926
838 900
838 883
839 946
839 970
839 944
839 992
839 947
839 954
839 885
839 906
840 975
840 882
840 901
840 941
840 961
840 925
841 879
841 853
841 846
841 908
841 984
841 967
841 987
841 857
841 974
841 919
841 882
841 961
841 968
841 998
841 920
842 959
842 989
842 933
843 920
843 910
844 992
844 986
844 918
844 933
845 909
845 920
845 873
845 877
845 906
846 899
846 987
846 916
846 981
846 865
846 967
846 951
847 870
847 906
848 919
848 875
848 977
849 850
849 962
850 856
850 974
850 949
850 926
850 867
850 927
852 882
852 966
852 940
852 906
852 860
853 975
853 880
853 923
853 886
854 902
854 921
854 988
854 960
856 975
856 985
856 922
857 988
857 920
857 922
858 914
858 897
858 978
858 884
859 920
859 922
859 949
859 877
860 978
860 999
860 894
860 940
860 982
860 939
861 935
861 975
861 950
862 921
862 877
862 906
863 867
863 967
863 933
863 877
864 919
864 998
864 966
864 988
864 910
864 912
864 955
864 953
864 979
864 973
864 926
865 867
866 867
866 970
866 951
866 900
866 964
866 933
867 904
867 959
867 989
867 935
867 923
867 901
867 961
867 952
867 941
867 882
867 945
867 986
867 999
867 995
868 975
868 938
868 911
868 908
868 972
868 974
868 935
868 979
868 989
868 933
869 889
869 927
869 933
869 988
869 908
869 967
870 923
870 880
870 884
870 922
870 925
871 978
871 995
871 977
872 990
872 920
872 949
873 938
873 906
873 987
873 877
874 883
874 953
874 944
875 947
875 956
875 950
875 884
875 925
876 974
876 942
876 918
876 976
876 948
877 899
877 995
877 926
877 994
877 908
877 939
878 967
878 985
878 882
878 929
879 902
879 921
879 884
880 942
881 895
881 937
881 926
882 959
882 935
882 890
882 941
882 990
882 998
883 899
883 967
883 909
883 978
883 885
883 924
883 972
884 921
884 886
884 928
884 989
884 908
884 920
885 942
885 886
885 958
885 960
885 972
885 947
885 954
885 920
886 967
886 968
886 920
886 949
887 964
887 988
887 949
888 975
888 916
888 927
888 909
888 922
889 974
889 932
889 918
890 941
890 971
890 958
890 927
890 926
891 945
891 907
891 996
891 938
893 990
893 913
894 969
894 948
894 906
895 990
896 926
897 901
898 949
898 966
898 957
898 919
899 954
899 951
900 909
900 961
901 964
901 952
901 921
902 921
902 910
902 924
903 963
903 909
903 973
903 941
903 917
903 956
903 998
903 906
904 987
904 959
904 906
904 964
904 975
904 979
904 939
905 919
906 988
906 926
906 907
906 935
906 968
906 943
906 984
907 926
908 947
908 929
908 914
908 931
908 955
908 967
909 927
909 934
909 930
909 954
909 961
910 955
910 978
910 925
910 933
910 957
911 979
914 964
914 935
915 953
915 979
915 962
916 967
916 962
917 963
917 969
918 978
918 995
919 953
919 988
919 997
919 929
919 998
919 979
919 932
919 990
919 948
919 947
919 952
920 965
920 940
920 973
920 956
920 929
920 978
920 927
920 961
921 933
922 945
922 940
922 965
922 989
922 950
923 935
923 972
924 995
924 931
925 943
925 939
925 933
925 960
925 992
925 993
926 990
926 927
926 955
927 959
927 954
927 970
927 939
928 995
928 944
929 932
929 988
931 986
931 940
931 933
932 964
932 953
932 988
932 959
933 947
933 960
933 980
933 938
933 942
933 946
934 975
934 946
934 962
935 989
935 960
935 978
935 986
936 972
937 954
938 979
938 965
938 981
939 977
940 953
940 979
940 949
942 966
944 967
945 967
945 993
945 988
947 991
947 949
948 979
948 969
948 962
949 986
949 965
949 964
949 991
949 999
950 957
951 984
952 977
953 967
953 966
953 998
953 991
953 995
953 957
953 981
953 988
955 964
955 975
955 999
955 977
956 964
956 963
957 986
957 962
957 969
957 963
958 979
963 969
964 975
964 998
965 967
967 987
967 984
967 979
967 976
969 996
972 988
973 995
974 975
974 994
975 981
978 995
979 990
979 997
979 989
979 985
979 988
979 995
981 995
983 988
985 993
986 988
986 989
988 998
988 991
991 995
992 996
994 999
