0 400
0 876
0 305
0 240
0 679
0 602
0 622
0 739
0 908
0 524
0 672
0 725
0 216
0 353
0 611
0 613
0 745
0 894
1 933
1 549
1 632
1 126
1 892
1 725
1 409
1 539
1 282
1 182
1 677
1 928
1 905
1 508
1 762
1 115
1 889
1 717
1 80
1 255
1 139
1 670
1 261
1 295
1 132
1 518
1 791
1 816
1 348
2 824
2 323
2 601
2 304
2 446
2 371
2 46
2 427
2 420
2 812
2 833
2 606
2 898
2 979
2 316
2 838
2 331
2 831
2 470
2 810
2 473
2 383
2 988
2 40
2 879
2 670
2 897
2 200
2 921
2 617
2 756
2 300
2 376
2 814
2 864
2 90
2 340
2 881
2 698
2 699
2 546
2 909
2 406
2 647
2 977
2 867
2 184
2 535
2 933
2 943
2 589
2 417
2 301
2 27
2 935
2 600
2 904
2 829
2 343
2 33
2 729
2 337
2 738
2 630
2 666
2 165
2 215
2 298
2 309
2 367
2 920
2 428
2 967
2 465
2 274
2 229
2 73
2 949
3 53
3 423
3 944
3 459
3 991
3 731
3 628
3 56
3 67
3 730
3 674
3 793
3 10
3 523
3 26
3 575
3 105
3 624
3 138
3 671
3 705
3 217
3 229
3 754
3 321
3 850
3 885
3 398
3 401
3 458
3 497
3 505
4 926
4 59
4 351
4 896
4 855
4 144
4 362
4 273
4 162
4 371
4 414
4 350
4 493
4 764
5 967
5 241
5 880
5 450
5 69
5 421
5 238
5 753
5 865
5 461
5 878
5 710
5 35
5 476
5 721
5 734
5 822
5 439
5 702
5 222
6 983
6 785
6 890
6 201
6 227
6 246
6 268
6 521
6 752
6 767
6 267
6 28
6 54
6 612
6 335
6 166
6 467
6 733
6 848
6 333
6 209
6 474
6 494
6 552
6 790
6 475
6 689
6 541
6 782
6 230
6 526
6 675
6 37
6 307
6 92
6 384
6 875
6 178
6 703
6 809
6 744
6 326
6 324
7 443
7 338
7 17
7 592
7 724
7 418
7 788
7 618
7 29
7 922
7 656
7 180
7 445
7 937
7 160
7 755
7 738
7 123
7 287
7 44
7 76
7 83
7 87
7 102
7 124
7 151
7 169
7 690
7 722
7 727
7 233
7 259
7 296
7 841
7 386
7 900
7 925
7 433
7 949
7 478
7 488
8 431
8 32
8 18
8 147
8 330
8 337
8 565
8 405
8 278
8 287
8 294
8 149
8 279
8 536
8 281
8 38
8 551
8 558
8 57
8 839
8 347
8 608
8 143
8 108
8 348
8 585
8 547
9 775
9 614
9 563
9 220
9 584
9 997
9 262
9 903
9 306
9 17
9 211
9 534
9 801
9 803
9 804
9 71
9 861
9 965
9 207
9 468
9 990
9 743
9 510
10 795
10 358
10 497
10 651
10 964
10 914
10 957
10 63
10 731
10 419
10 157
10 671
10 575
10 196
10 966
10 60
10 523
10 505
10 737
10 850
10 423
10 321
10 116
10 730
10 544
10 696
10 754
10 531
10 86
10 777
10 480
10 624
10 707
10 932
10 448
10 472
10 971
10 590
10 713
10 578
10 991
10 21
10 42
10 944
10 56
10 197
10 459
10 84
10 735
10 26
10 955
10 644
10 961
10 105
10 67
10 877
10 133
10 401
10 128
10 398
10 674
10 628
10 458
10 103
10 522
10 466
10 174
10 936
10 885
10 940
10 620
10 138
10 910
10 585
10 911
10 338
10 178
10 156
10 610
10 803
10 846
10 212
10 177
10 669
10 705
10 217
10 229
11 331
11 293
11 517
11 424
11 351
11 164
11 324
11 487
11 987
11 734
11 534
11 951
11 320
11 344
11 276
11 693
11 51
11 942
11 210
11 700
11 950
11 361
11 720
11 59
11 339
11 590
11 30
11 299
11 629
11 642
11 248
12 415
12 656
12 610
12 836
12 175
12 547
12 757
12 512
12 219
12 763
12 149
12 91
12 495
12 545
12 899
12 513
12 828
12 553
12 962
12 339
12 926
12 14
12 280
12 792
12 39
12 295
12 68
12 121
12 704
13 649
13 229
13 276
13 642
13 51
13 720
13 210
13 455
13 700
13 344
13 299
13 608
13 30
13 626
13 942
13 434
13 951
13 998
14 223
14 16
14 217
14 604
14 792
14 704
14 899
14 836
14 295
14 828
14 763
14 257
14 280
14 236
14 757
14 149
14 553
14 219
14 576
14 827
14 34
14 513
14 159
14 630
14 918
14 547
14 39
14 61
14 68
14 121
14 663
14 495
15 366
15 391
15 537
15 973
15 929
15 135
15 970
15 319
15 426
15 825
15 477
15 341
15 498
15 873
15 911
15 264
15 744
15 274
15 413
15 953
15 483
15 502
15 830
15 499
15 931
15 329
15 152
15 511
15 293
15 244
15 438
15 368
15 23
15 348
15 659
15 923
15 818
15 442
15 284
15 343
15 35
15 722
15 543
15 504
15 547
15 16
15 555
15 77
15 761
15 290
15 811
15 813
15 312
15 358
15 380
15 408
15 432
15 995
16 647
16 555
16 873
16 740
16 519
16 442
16 23
16 283
16 438
16 975
16 277
16 408
16 648
16 85
16 761
16 502
16 927
16 432
16 862
16 332
16 379
16 780
16 952
16 811
16 511
16 797
16 399
16 832
16 830
16 348
16 368
16 929
16 436
16 970
16 825
16 341
16 954
16 818
16 380
16 293
16 264
16 931
16 343
16 537
16 817
16 800
16 365
16 426
16 286
16 97
16 477
16 498
16 312
16 290
16 953
16 917
16 385
16 285
16 581
16 499
16 826
16 913
16 688
16 77
16 307
16 765
16 225
16 911
16 449
16 413
16 815
16 869
16 92
16 798
16 300
16 395
16 125
16 851
16 659
16 744
16 244
16 252
16 284
16 813
16 329
16 884
16 919
16 454
16 995
16 111
17 784
17 959
17 510
17 262
17 204
17 220
17 310
17 775
17 948
17 668
17 71
17 990
17 584
17 614
17 709
17 349
17 760
17 917
17 801
17 804
17 563
17 570
17 325
17 861
17 714
17 207
17 211
17 468
17 743
17 827
18 819
18 440
18 330
18 536
18 405
18 554
18 278
18 451
18 279
18 281
18 66
18 57
18 81
18 287
18 621
18 839
18 636
18 469
18 916
18 725
18 38
18 551
18 294
18 574
18 347
18 608
18 866
18 143
18 147
18 431
18 506
18 618
19 28
19 270
19 530
19 665
19 232
19 567
19 509
19 78
19 412
19 506
19 53
19 741
19 883
19 48
19 486
19 237
19 339
19 481
19 479
19 191
19 425
19 249
19 846
19 261
19 263
19 999
19 360
19 982
19 685
19 67
19 160
19 639
19 795
19 208
19 497
19 87
20 262
20 775
20 959
20 556
20 948
20 181
20 220
20 211
20 570
20 510
20 803
20 204
20 191
20 578
20 801
20 563
20 310
20 325
20 71
20 861
20 668
20 714
20 207
20 743
20 592
20 280
21 109
21 523
21 531
21 932
21 458
21 505
21 217
21 105
21 754
21 585
21 196
21 944
21 910
21 934
21 535
21 60
21 578
21 590
21 628
21 644
21 157
21 671
21 674
21 696
21 705
21 707
21 197
21 712
21 730
21 735
21 229
21 774
21 777
21 321
21 850
21 885
21 401
21 957
21 808
21 635
21 76
21 151
21 925
22 679
22 666
22 264
22 233
22 755
22 355
22 738
22 410
22 645
22 564
22 76
22 296
22 524
22 29
22 592
22 83
22 87
22 102
22 111
22 124
22 151
22 160
22 169
22 690
22 193
22 199
22 722
22 736
22 234
22 254
22 259
22 841
22 386
22 922
22 925
22 433
22 949
22 482
22 484
22 488
22 501
23 240
23 519
23 817
23 429
23 884
23 503
23 995
23 555
23 97
23 929
23 442
23 77
23 537
23 365
23 274
23 913
23 399
23 797
23 332
23 873
23 502
23 973
23 284
23 436
23 815
23 385
23 293
23 286
23 341
23 499
23 927
23 438
23 408
23 292
23 659
23 404
23 832
23 85
23 283
23 744
23 780
23 825
23 811
23 225
23 954
23 919
23 953
23 765
23 826
23 135
23 426
23 813
23 498
23 252
23 773
23 413
23 432
23 483
23 931
23 449
23 740
23 923
23 726
23 458
23 695
23 428
23 479
23 398
23 440
23 761
23 264
23 800
23 830
23 348
23 358
23 454
24 920
24 93
24 119
24 130
24 515
24 772
24 393
24 136
24 658
24 781
24 525
24 527
24 654
24 989
24 538
24 895
24 778
24 33
24 582
24 149
24 256
24 159
24 36
24 939
24 447
24 728
24 288
24 284
24 84
25 819
25 176
25 775
25 801
25 743
25 204
25 570
25 803
25 262
25 903
25 563
25 310
25 325
25 71
25 391
25 171
25 468
25 148
25 564
26 523
26 522
26 458
26 944
26 457
26 67
26 774
26 448
26 157
26 63
26 914
26 578
26 196
26 575
26 42
26 671
26 105
26 696
26 423
26 707
26 731
26 321
26 877
26 644
26 56
26 505
26 641
26 401
26 453
26 777
26 197
26 480
26 957
26 730
26 628
26 158
26 585
26 932
26 910
26 229
26 531
26 590
26 885
26 955
26 133
26 497
26 940
26 466
26 398
26 969
26 737
26 850
26 964
26 544
26 103
26 674
26 669
26 624
26 705
26 994
26 754
26 357
26 86
26 138
26 991
26 435
26 916
26 903
26 300
26 129
26 760
26 75
26 815
26 60
26 174
26 217
26 735
27 601
27 40
27 470
27 977
27 184
27 979
27 420
27 898
27 647
27 980
27 463
27 617
27 833
27 367
27 165
27 634
27 971
27 689
27 46
27 666
27 698
27 215
27 756
27 298
27 812
27 301
27 814
27 311
27 824
27 838
27 331
27 864
27 867
27 371
27 384
27 906
27 909
27 406
27 920
27 926
27 935
27 427
27 988
27 938
27 401
27 121
28 771
28 268
28 782
28 790
28 689
28 733
28 267
28 227
28 474
28 328
28 526
28 612
28 552
28 752
28 890
28 333
28 54
28 467
28 209
28 541
28 475
28 230
28 471
28 521
28 767
28 201
28 992
28 675
28 807
28 37
28 848
28 494
28 145
28 97
28 880
28 178
28 983
28 867
28 921
28 454
28 696
28 796
29 127
29 801
29 445
29 233
29 488
29 111
29 841
29 160
29 422
29 456
29 437
29 501
29 199
29 151
29 460
29 645
29 44
29 83
29 736
29 259
29 435
29 592
29 786
29 900
29 444
29 559
29 193
29 918
29 70
29 520
29 564
29 76
29 87
29 89
29 124
29 653
29 169
29 690
29 722
29 738
29 234
29 296
29 925
29 433
29 949
29 478
30 685
30 517
30 950
30 734
30 487
30 700
30 598
30 455
30 629
30 221
30 361
30 534
30 424
30 987
30 681
30 942
30 51
30 344
30 872
30 779
30 299
30 55
30 324
30 351
30 642
30 248
30 350
31 494
31 897
31 117
31 708
31 205
31 678
31 742
31 177
31 595
31 593
31 223
31 938
31 231
31 64
31 129
31 858
31 140
31 586
31 188
31 667
31 770
31 258
31 336
31 802
31 190
31 903
31 626
31 571
31 59
31 573
31 123
31 154
31 156
31 176
31 718
31 224
31 779
31 809
31 356
31 364
31 295
32 281
32 287
32 843
32 294
32 431
32 278
32 608
32 536
32 805
32 279
32 49
32 38
32 551
32 565
32 57
32 58
32 66
32 81
32 405
32 920
32 550
32 761
32 91
33 165
33 161
33 515
33 772
33 654
33 527
33 136
33 658
33 538
33 163
33 499
33 36
33 550
33 939
33 447
33 728
33 436
33 899
34 919
34 324
34 512
34 257
34 275
34 545
34 219
34 121
34 899
34 256
34 149
34 272
34 610
34 250
34 828
34 704
34 681
34 584
34 547
34 39
34 295
34 553
34 576
34 836
34 998
34 495
35 461
35 476
35 439
35 596
35 753
35 450
35 872
35 238
35 865
35 710
35 702
35 880
35 901
35 822
36 606
36 515
36 654
36 527
36 136
36 658
36 163
36 525
36 772
36 447
36 728
36 799
36 550
36 583
36 781
36 582
36 382
36 130
36 939
36 963
36 596
36 717
36 327
36 989
36 70
36 433
37 267
37 268
37 782
37 785
37 790
37 752
37 689
37 178
37 767
37 775
37 807
37 54
37 328
37 201
37 230
37 494
37 246
37 325
37 885
38 536
38 281
38 287
38 213
38 168
38 697
38 621
38 843
38 330
38 440
38 347
38 839
38 81
38 866
38 337
38 57
38 532
38 431
38 636
38 561
38 294
38 565
38 805
38 469
38 551
38 279
38 819
38 976
38 278
38 66
38 630
38 807
38 655
38 600
38 117
38 608
38 143
38 147
38 245
38 926
38 596
38 124
38 234
39 933
39 280
39 792
39 547
39 295
39 840
39 553
39 256
39 272
39 545
39 68
39 827
39 610
39 899
39 576
39 495
39 61
39 236
39 836
39 998
39 663
39 512
39 369
39 438
39 673
39 91
39 121
39 175
39 962
40 81
40 535
40 371
40 898
40 634
40 546
40 331
40 670
40 416
40 909
40 470
40 893
40 902
40 376
40 463
40 824
40 838
40 935
40 943
40 601
40 340
40 756
40 589
40 814
40 309
40 831
40 50
40 699
40 666
40 860
40 403
40 300
40 415
40 904
40 428
40 298
40 829
40 967
40 698
40 906
40 875
40 867
40 301
40 977
40 820
40 427
40 245
40 367
40 473
40 383
40 980
40 316
40 446
40 599
40 920
40 500
40 165
40 881
40 921
40 606
40 46
40 600
40 926
40 979
40 184
40 684
40 465
40 845
40 864
40 647
40 810
40 879
40 90
40 988
40 384
40 933
40 491
40 200
40 897
40 833
40 617
40 406
40 420
40 304
40 323
40 311
40 842
40 47
40 169
40 746
40 143
40 222
40 703
40 671
40 949
40 734
40 776
40 586
41 246
41 516
41 520
41 533
41 411
41 849
41 74
41 721
41 789
41 108
41 119
41 195
41 395
41 863
41 915
41 673
41 934
41 194
41 241
41 370
41 218
41 981
41 137
41 986
41 794
41 452
41 912
41 868
41 394
41 627
41 366
41 485
41 390
41 117
41 579
41 430
41 342
41 716
41 106
41 548
41 338
41 65
41 407
41 150
41 968
41 993
41 142
41 869
41 676
41 79
41 996
41 492
41 377
41 464
41 339
41 525
41 410
41 385
41 237
41 362
41 179
41 758
41 854
41 369
41 507
41 374
42 523
42 754
42 196
42 86
42 932
42 174
42 850
42 158
42 197
42 628
42 138
42 63
42 357
42 669
42 966
42 531
42 797
42 331
42 575
42 67
42 585
42 620
42 157
42 671
42 696
42 707
42 712
42 217
42 735
42 777
42 321
42 877
42 401
42 457
43 366
43 72
43 334
43 172
43 364
43 239
43 701
43 844
43 726
43 186
43 749
43 835
43 925
43 557
43 572
43 190
43 70
43 746
43 363
43 736
43 254
43 488
44 838
44 156
44 514
44 900
44 653
44 569
44 193
44 478
44 645
44 73
44 437
44 410
44 89
44 605
44 488
44 738
44 750
44 160
44 444
44 722
44 82
44 841
44 724
44 433
44 847
44 180
44 484
44 124
44 937
44 978
44 76
44 656
44 422
44 87
44 102
44 592
44 568
44 259
44 755
44 435
44 445
44 690
44 542
44 111
44 296
44 564
44 559
44 169
44 925
44 949
44 946
44 490
44 355
44 492
44 549
44 177
44 543
44 522
44 685
44 83
44 604
44 618
44 151
44 199
44 228
44 233
44 234
44 254
44 786
44 922
44 501
45 318
45 768
45 265
45 907
45 594
45 212
45 543
45 806
45 173
45 766
45 759
45 870
45 617
45 176
46 535
46 311
46 979
46 860
46 599
46 316
46 867
46 699
46 904
46 881
46 245
46 298
46 824
46 470
46 634
46 600
46 383
46 879
46 606
46 446
46 617
46 340
46 200
46 909
46 812
46 935
46 920
46 304
46 898
46 546
46 814
46 864
46 831
46 416
46 933
46 926
46 415
46 309
46 921
46 810
46 902
46 427
46 463
46 875
46 473
46 601
46 838
46 417
46 165
46 491
46 465
46 698
46 589
46 834
46 50
46 420
46 893
46 666
46 184
46 647
46 403
46 215
46 90
46 988
46 977
46 980
46 406
46 428
46 943
46 670
46 367
46 331
46 529
46 755
46 97
46 566
46 547
46 678
46 104
46 963
46 912
46 756
46 820
46 384
46 906
47 165
47 195
47 775
47 801
47 220
47 743
47 714
47 71
47 965
47 974
47 204
47 441
47 570
47 903
47 760
47 709
47 959
47 181
47 556
47 468
47 211
47 897
47 972
47 194
47 563
47 325
47 861
47 510
47 442
47 975
47 157
47 197
48 698
48 261
48 263
48 270
48 795
48 53
48 665
48 685
48 567
48 237
48 883
48 339
48 930
48 741
48 687
48 826
48 209
48 78
48 846
48 360
48 412
48 425
48 208
48 486
48 506
48 735
49 540
49 298
49 161
49 98
49 978
49 605
49 124
49 410
49 437
49 76
49 722
49 585
49 356
49 73
49 82
49 83
49 87
49 618
49 111
49 151
49 169
49 180
49 193
49 727
49 736
49 738
49 233
49 234
49 259
49 296
49 841
49 900
49 925
49 949
49 488
49 501
50 769
50 546
50 535
50 371
50 600
50 904
50 298
50 446
50 470
50 491
50 831
50 367
50 300
50 606
50 756
50 698
50 935
50 384
50 845
50 331
50 893
50 699
50 879
50 617
50 829
50 427
50 902
50 415
50 906
50 90
50 417
50 406
50 473
50 933
50 463
50 420
50 867
50 988
50 634
50 245
50 881
50 838
50 215
50 864
50 810
50 821
50 707
50 199
50 431
50 123
50 670
50 165
50 301
50 309
50 311
50 834
50 897
50 898
50 909
50 920
50 428
50 465
50 659
50 380
50 296
51 288
51 517
51 487
51 598
51 164
51 950
51 167
51 626
51 455
51 951
51 424
51 276
51 642
51 324
51 679
51 829
51 55
51 361
51 681
51 942
51 228
52 776
52 392
52 984
52 289
52 489
52 302
52 113
52 114
52 947
52 882
52 251
52 454
52 791
52 755
52 841
52 663
53 790
53 446
53 795
53 509
53 479
53 567
53 506
53 263
53 732
53 982
53 883
53 208
53 486
53 683
53 261
53 665
53 360
53 412
53 719
53 930
53 530
53 741
53 249
53 425
53 687
53 999
53 78
53 237
53 600
53 132
53 846
53 191
53 481
53 419
53 940
54 771
54 268
54 782
54 790
54 807
54 675
54 209
54 848
54 552
54 612
54 733
54 201
54 767
54 983
54 438
54 812
54 328
54 333
54 890
54 166
54 494
54 246
54 977
54 993
54 507
55 799
55 797
55 351
55 299
55 434
55 951
55 626
55 210
55 487
55 361
55 534
55 221
55 693
55 826
55 594
55 629
55 642
55 942
56 860
56 146
56 464
56 438
56 523
56 991
56 174
56 578
56 63
56 644
56 401
56 480
56 133
56 505
56 696
56 850
56 651
56 647
56 107
56 575
56 67
56 105
56 157
56 705
56 197
56 217
56 229
56 754
56 321
56 877
56 885
56 419
56 457
56 458
56 497
57 532
57 279
57 536
57 287
57 805
57 551
57 294
57 561
57 440
57 347
57 630
57 431
57 608
57 375
57 281
57 571
57 598
57 330
57 81
57 866
57 636
57 147
57 926
57 401
58 278
58 281
58 294
58 558
58 565
58 287
58 976
58 347
58 431
58 621
58 337
58 751
58 884
58 81
58 866
58 143
58 147
58 405
58 728
58 798
59 494
59 165
59 920
59 571
59 145
59 638
59 686
59 224
59 694
59 779
59 141
59 129
59 177
59 583
59 591
59 593
59 109
59 123
59 637
59 646
59 154
59 156
59 176
59 718
59 288
59 809
59 356
59 707
59 419
60 921
60 716
60 523
60 522
60 531
60 544
60 932
60 957
60 457
60 472
60 914
60 955
60 850
60 453
60 197
60 885
60 737
60 67
60 961
60 819
60 784
60 575
60 63
60 103
60 105
60 128
60 644
60 671
60 669
60 174
60 705
60 707
60 217
60 754
60 777
60 877
60 398
60 401
60 419
60 505
61 141
61 77
61 280
61 547
61 553
61 175
61 663
61 275
61 272
61 257
61 792
61 236
61 757
61 495
61 256
61 840
61 512
61 836
61 827
61 664
61 121
61 219
61 770
61 62
61 740
61 68
61 998
62 195
62 691
62 560
62 572
62 701
62 557
62 363
62 186
62 749
62 125
62 844
62 334
62 190
62 746
62 72
62 726
62 603
62 364
62 172
62 70
62 187
62 725
62 83
63 523
63 522
63 544
63 575
63 103
63 651
63 197
63 578
63 994
63 909
63 75
63 67
63 585
63 590
63 105
63 128
63 157
63 671
63 174
63 705
63 735
63 229
63 321
63 877
63 885
63 398
63 401
63 419
63 964
63 457
63 458
63 690
64 810
64 139
64 571
64 123
64 918
64 224
64 798
64 593
64 779
64 580
64 809
64 694
64 95
64 223
64 188
64 638
64 667
64 682
64 156
64 269
64 748
64 640
64 205
64 637
64 308
64 109
64 258
64 356
64 141
64 591
64 145
64 708
64 703
64 140
64 192
64 288
64 718
64 646
64 573
64 336
64 586
64 198
64 595
64 129
64 352
64 154
64 962
64 818
64 614
64 253
64 677
64 686
64 183
64 770
64 901
64 157
65 876
65 533
65 548
65 915
65 857
65 849
65 88
65 981
65 146
65 485
65 150
65 354
65 119
65 79
65 996
65 370
65 342
65 787
65 886
65 986
65 854
65 993
65 462
65 142
65 794
65 411
65 863
65 137
65 218
65 203
65 492
65 934
65 93
65 811
65 751
65 772
65 885
65 609
65 627
65 117
65 179
65 195
65 241
65 868
65 369
65 368
65 345
65 764
65 83
65 259
66 278
66 536
66 551
66 294
66 561
66 469
66 281
66 375
66 630
66 621
66 81
66 976
66 636
66 143
66 554
66 337
66 347
66 839
66 451
66 697
66 165
66 470
66 946
66 843
66 147
66 405
66 431
66 241
66 514
66 841
67 523
67 522
67 575
67 453
67 705
67 641
67 966
67 578
67 157
67 914
67 944
67 730
67 961
67 877
67 940
67 458
67 620
67 585
67 133
67 850
67 448
67 116
67 84
67 737
67 480
67 457
67 885
67 735
67 138
67 957
67 669
67 128
67 472
67 674
67 544
67 497
67 158
67 754
67 707
67 731
67 196
67 419
67 197
67 423
67 590
67 671
67 936
67 624
67 964
67 955
67 969
67 713
67 910
67 71
67 380
67 436
67 788
67 301
67 102
67 328
67 103
67 105
67 644
67 174
67 217
67 229
67 401
68 230
68 220
68 512
68 257
68 256
68 513
68 280
68 547
68 295
68 553
68 576
68 91
68 664
68 763
68 625
68 998
68 840
68 827
68 962
68 250
68 610
68 704
68 272
68 757
68 495
68 306
68 372
68 646
68 836
68 899
69 822
69 450
69 878
69 871
69 238
69 476
69 880
69 439
69 710
69 872
69 461
69 382
69 596
69 727
70 939
70 728
70 560
70 187
70 572
70 701
70 190
70 239
70 749
70 603
70 72
70 844
70 186
70 726
70 334
70 364
70 557
70 125
70 222
70 875
71 417
71 784
71 801
71 563
71 570
71 325
71 948
71 374
71 207
71 262
71 556
71 349
71 803
71 510
71 306
71 171
71 441
71 204
71 468
71 714
71 425
71 808
71 985
71 861
71 391
71 691
71 959
71 974
71 211
72 360
72 163
72 186
72 187
72 572
72 701
72 190
72 835
72 726
72 603
72 178
72 844
72 746
72 363
72 749
72 125
73 979
73 555
73 575
73 793
73 946
73 605
73 83
73 937
73 437
73 111
73 234
73 488
73 978
73 456
73 568
73 296
73 592
73 514
73 160
73 922
73 847
73 656
73 102
73 727
73 854
73 811
73 76
73 87
73 604
73 618
73 151
73 169
73 690
73 193
73 736
73 755
73 259
73 841
73 925
73 949
73 501
74 577
74 533
74 203
74 787
74 407
74 88
74 516
74 394
74 673
74 993
74 716
74 868
74 369
74 452
74 218
74 354
74 435
74 177
74 79
74 108
74 627
74 117
74 142
74 676
74 179
74 195
74 758
74 794
74 342
74 366
74 485
75 389
75 649
75 303
75 443
75 577
75 214
75 317
75 496
75 110
75 247
75 985
75 268
75 94
75 428
75 425
76 818
76 669
76 564
76 949
76 736
76 657
76 433
76 180
76 102
76 900
76 460
76 788
76 228
76 83
76 444
76 847
76 592
76 488
76 418
76 514
76 946
76 435
76 656
76 569
76 169
76 87
76 542
76 618
76 422
76 259
76 727
76 124
76 254
76 841
76 786
76 410
76 437
76 605
76 978
76 568
76 750
76 296
76 937
76 724
76 82
76 559
76 482
76 645
76 81
76 451
76 387
76 415
76 823
76 111
76 151
76 690
76 199
76 722
76 738
76 233
76 234
76 755
76 386
76 925
77 555
77 581
77 958
77 274
77 348
77 832
77 873
77 380
77 404
77 379
77 152
77 426
77 952
77 252
77 290
77 502
77 378
77 954
77 765
77 818
77 312
77 499
77 884
77 85
77 264
77 341
77 293
77 927
77 800
77 970
77 830
77 648
77 454
77 498
77 815
77 817
77 284
77 365
77 826
77 477
77 813
77 913
77 917
77 744
77 740
77 953
77 429
77 973
77 659
77 483
77 358
77 286
77 919
77 825
77 97
77 368
77 862
77 385
77 537
77 319
77 343
77 780
77 399
77 929
77 283
77 265
77 444
77 331
77 719
77 181
77 777
77 496
77 688
77 225
77 277
77 432
77 442
77 995
77 885
77 598
78 311
78 261
78 270
78 530
78 567
78 191
78 930
78 529
78 683
78 999
78 982
78 846
78 687
78 339
78 719
78 795
78 685
78 232
78 702
78 445
78 854
78 360
78 883
78 412
78 208
78 479
78 481
78 528
78 811
79 528
79 676
79 117
79 411
79 972
79 548
79 579
79 241
79 863
79 195
79 354
79 986
79 869
79 960
79 430
79 203
79 146
79 485
79 868
79 854
79 142
79 137
79 849
79 394
79 981
79 934
79 106
79 395
79 452
79 492
79 993
79 368
79 807
79 597
79 431
79 93
79 609
79 108
79 179
79 338
79 342
79 366
79 369
79 407
79 585
80 533
80 518
80 905
80 791
80 539
80 409
80 549
80 677
80 725
80 762
80 666
80 508
80 126
81 178
81 279
81 536
81 551
81 294
81 554
81 819
81 574
81 839
81 843
81 147
81 330
81 143
81 287
81 608
81 281
81 621
81 168
81 405
81 451
81 538
81 438
81 866
81 827
82 533
82 217
82 592
82 151
82 738
82 444
82 922
82 193
82 234
82 89
82 793
82 83
82 478
82 169
82 410
82 618
82 161
82 670
82 87
82 690
82 722
82 727
82 228
82 233
82 254
82 259
82 296
82 841
82 386
82 900
82 925
82 949
82 482
82 488
83 514
83 501
83 656
83 490
83 727
83 657
83 564
83 102
83 569
83 653
83 722
83 233
83 234
83 922
83 422
83 124
83 750
83 841
83 793
83 978
83 433
83 87
83 690
83 788
83 355
83 755
83 410
83 444
83 568
83 786
83 592
83 559
83 724
83 169
83 925
83 937
83 259
83 484
83 199
83 418
83 488
83 228
83 738
83 193
83 445
83 736
83 89
83 482
83 456
83 437
83 386
83 435
83 296
83 160
83 478
83 542
83 605
83 847
83 616
83 342
83 258
83 471
83 664
83 111
83 151
83 949
84 523
84 575
84 578
84 590
84 754
84 116
84 669
84 885
84 705
84 357
84 961
84 914
84 157
84 86
84 731
84 197
84 544
84 850
84 712
84 589
84 676
84 105
84 644
84 174
84 777
84 321
84 877
84 401
84 458
84 505
85 989
85 817
85 911
85 862
85 581
85 286
85 436
85 813
85 498
85 825
85 832
85 780
85 454
85 285
85 274
85 511
85 919
85 927
85 244
85 432
85 830
85 740
85 292
85 503
85 818
85 365
85 312
85 97
85 477
85 378
85 404
85 438
85 341
85 264
85 917
85 519
85 252
85 290
85 958
85 483
85 744
85 884
85 135
85 152
85 442
85 329
85 761
85 975
85 929
85 797
85 379
85 348
85 773
85 277
85 449
85 923
85 953
85 499
85 770
85 891
85 711
85 189
85 423
85 539
85 98
85 616
85 765
85 284
85 800
85 811
85 358
85 995
86 506
86 523
86 575
86 712
86 133
86 229
86 877
86 458
86 472
86 585
86 590
86 522
86 885
86 105
86 531
86 217
86 914
86 561
86 832
86 157
86 671
86 674
86 174
86 774
86 321
86 401
86 964
86 497
87 245
87 468
87 542
87 564
87 569
87 102
87 460
87 422
87 722
87 925
87 228
87 690
87 180
87 788
87 514
87 169
87 410
87 456
87 618
87 978
87 160
87 847
87 437
87 490
87 501
87 786
87 445
87 946
87 937
87 254
87 592
87 645
87 482
87 657
87 111
87 233
87 296
87 736
87 841
87 124
87 922
87 444
87 151
87 656
87 653
87 604
87 355
87 259
87 478
87 433
87 199
87 750
87 724
87 418
87 559
87 568
87 435
87 488
87 166
87 842
87 363
87 252
87 879
87 394
87 329
87 193
87 738
87 234
87 755
87 949
87 484
88 400
88 516
88 794
88 390
88 934
88 716
88 986
88 377
88 354
88 370
88 520
88 338
88 789
88 464
88 758
88 915
88 972
88 194
88 191
88 728
88 609
88 108
88 627
88 142
88 673
88 179
88 195
88 241
88 787
88 849
88 854
88 869
88 366
88 369
88 395
88 407
88 485
88 492
88 507
89 108
89 523
89 568
89 724
89 254
89 841
89 444
89 386
89 355
89 613
89 604
89 111
89 151
89 169
89 199
89 722
89 736
89 228
89 233
89 234
89 259
89 296
89 922
89 925
89 949
89 488
89 501
90 474
90 535
90 465
90 829
90 845
90 420
90 920
90 384
90 138
90 606
90 634
90 647
90 165
90 184
90 698
90 215
90 756
90 812
90 311
90 838
90 331
90 867
90 406
90 933
90 427
90 967
90 115
90 873
90 704
91 811
91 562
91 949
91 512
91 257
91 272
91 280
91 295
91 553
91 827
91 576
91 962
91 495
91 664
91 256
91 315
91 625
91 828
91 219
91 836
91 610
91 998
91 545
91 734
91 289
91 899
91 175
91 704
92 397
92 402
92 661
92 345
92 107
92 562
92 297
92 253
92 650
92 623
92 977
92 98
92 101
92 615
92 118
93 528
93 150
93 142
93 794
93 996
93 863
93 869
93 993
93 430
93 407
93 533
93 520
93 912
93 721
93 758
93 342
93 789
93 395
93 548
93 968
93 422
93 651
93 609
93 108
93 627
93 117
93 146
93 179
93 195
93 241
93 354
93 868
93 366
93 369
93 981
93 485
93 492
93 686
93 174
94 649
94 303
94 695
94 317
94 706
94 214
94 110
94 247
94 985
94 389
94 496
94 676
94 140
95 573
95 586
95 593
95 637
95 640
95 308
95 686
95 231
95 198
95 205
95 638
95 595
95 140
95 291
95 177
95 775
95 877
95 123
95 646
95 154
95 156
95 183
95 189
95 703
95 718
95 770
95 809
95 356
95 358
96 267
96 313
96 599
96 518
96 271
96 282
96 409
96 549
96 677
96 717
96 182
96 508
96 115
96 816
96 454
96 844
96 762
96 255
97 519
97 555
97 927
97 264
97 688
97 941
97 244
97 765
97 477
97 292
97 135
97 503
97 975
97 970
97 283
97 740
97 911
97 499
97 502
97 332
97 773
97 356
97 246
97 701
97 659
97 225
97 744
97 797
97 290
97 811
97 813
97 818
97 830
97 358
97 873
97 884
97 919
97 413
97 426
97 457
97 169
98 809
98 134
98 590
98 397
98 661
98 222
98 402
98 107
98 623
98 118
98 297
98 562
98 615
98 712
98 235
98 891
98 495
99 311
99 472
99 643
99 387
99 660
99 153
99 823
99 887
99 607
99 243
99 373
99 372
99 888
99 874
99 796
99 338
99 920
99 359
99 631
99 635
99 978
100 313
100 814
100 571
100 938
100 682
100 595
100 198
100 678
100 176
100 123
100 919
100 109
100 637
100 640
100 646
100 154
100 686
100 718
100 223
100 224
100 770
100 779
100 288
100 809
100 918
101 593
101 352
101 575
101 397
101 661
101 297
101 345
101 253
101 650
101 235
101 615
101 107
101 562
101 431
101 118
101 891
102 698
102 374
102 135
102 564
102 592
102 386
102 437
102 355
102 111
102 937
102 410
102 482
102 653
102 169
102 151
102 234
102 900
102 738
102 605
102 460
102 199
102 180
102 233
102 296
102 788
102 569
102 259
102 559
102 724
102 657
102 568
102 445
102 433
102 690
102 124
102 847
102 786
102 846
102 143
102 217
102 261
102 649
102 645
102 160
102 722
102 841
102 925
102 488
102 501
103 689
103 938
103 523
103 522
103 531
103 544
103 575
103 994
103 971
103 138
103 196
103 197
103 955
103 964
103 321
103 957
103 671
103 674
103 357
103 885
103 696
103 116
103 472
103 731
103 735
103 497
103 914
103 624
103 754
103 991
103 510
103 818
103 323
103 615
103 628
103 669
103 217
103 229
103 774
103 777
103 401
103 419
104 131
104 134
104 783
104 155
104 326
104 715
104 597
104 853
104 346
104 122
104 837
104 566
104 842
104 587
104 723
104 924
104 781
104 191
104 891
105 687
105 575
105 457
105 505
105 157
105 531
105 522
105 133
105 158
105 466
105 705
105 217
105 955
105 229
105 914
105 523
105 453
105 669
105 357
105 730
105 707
105 940
105 696
105 777
105 458
105 910
105 944
105 644
105 877
105 620
105 731
105 174
105 448
105 966
105 971
105 754
105 850
105 196
105 544
105 628
105 401
105 712
105 423
105 497
105 578
105 624
105 994
105 735
105 961
105 585
105 964
105 651
105 713
105 932
105 674
105 138
105 398
105 774
105 737
105 936
105 969
105 321
105 991
105 116
105 257
105 699
105 315
105 680
105 555
105 233
105 189
105 520
105 128
105 197
105 885
105 419
106 300
106 528
106 533
106 369
106 430
106 849
106 869
106 972
106 354
106 504
106 857
106 721
106 886
106 576
106 727
106 627
106 117
106 142
106 179
106 195
106 241
106 758
106 794
106 342
106 868
106 366
106 395
106 407
106 960
106 981
106 485
106 507
106 744
106 777
106 199
106 488
107 964
107 497
107 397
107 402
107 661
107 297
107 562
107 615
107 345
107 650
107 605
107 235
107 118
108 494
108 528
108 609
108 407
108 338
108 464
108 366
108 794
108 492
108 203
108 868
108 142
108 342
108 117
108 120
108 579
108 934
108 986
108 462
108 377
108 673
108 369
108 968
108 849
108 137
108 194
108 119
108 960
108 886
108 758
108 430
108 179
108 533
108 485
108 676
108 721
108 150
108 146
108 520
108 915
108 716
108 507
108 241
108 548
108 869
108 452
108 504
108 857
108 394
108 566
108 921
108 608
108 977
108 627
108 195
108 354
108 395
108 993
109 666
109 810
109 820
109 428
109 571
109 586
109 593
109 798
109 140
109 176
109 809
109 223
109 183
109 573
109 177
109 802
109 708
109 258
109 580
109 127
109 646
109 595
109 694
109 336
109 640
109 291
109 356
109 667
109 154
109 703
109 901
109 678
109 680
109 131
109 985
109 637
109 638
109 156
109 205
109 224
109 918
109 454
110 389
110 649
110 303
110 695
110 443
110 317
110 577
110 214
110 247
110 706
110 496
110 737
110 354
110 592
111 834
111 366
111 564
111 618
111 193
111 559
111 755
111 228
111 199
111 355
111 568
111 841
111 900
111 592
111 488
111 925
111 657
111 922
111 605
111 234
111 169
111 514
111 160
111 445
111 788
111 738
111 490
111 180
111 460
111 704
111 328
111 260
111 151
111 690
111 722
111 233
111 786
111 296
111 386
111 949
111 501
112 524
112 908
112 400
112 916
112 672
112 313
112 216
112 602
112 611
112 613
112 745
112 876
112 622
112 240
112 894
112 311
113 776
113 392
113 984
113 289
113 489
113 302
113 751
113 947
113 882
113 692
113 264
113 114
113 251
113 997
113 731
114 776
114 392
114 289
114 984
114 489
114 751
114 302
114 882
114 692
114 298
115 301
115 132
115 518
115 271
115 662
115 791
115 282
115 928
115 816
115 182
115 677
115 508
115 313
115 762
115 584
115 786
116 432
116 523
116 522
116 575
116 578
116 229
116 713
116 957
116 261
116 138
116 157
116 174
116 705
116 877
116 885
116 398
116 401
116 419
116 932
116 458
116 505
117 191
117 579
117 609
117 627
117 533
117 972
117 241
117 981
117 960
117 377
117 868
117 934
117 137
117 869
117 203
117 370
117 194
117 179
117 462
117 342
117 407
117 676
117 507
117 912
117 390
117 430
117 528
117 520
117 789
117 218
117 119
117 195
117 492
117 395
117 673
117 221
117 305
117 220
117 864
117 142
117 146
117 721
117 758
117 794
117 354
117 366
117 369
117 886
117 464
117 485
117 501
118 787
118 369
118 650
118 397
118 402
118 661
118 615
118 235
118 345
118 891
118 222
118 205
118 226
118 949
119 268
119 533
119 579
119 390
119 354
119 993
119 968
119 849
119 794
119 996
119 986
119 485
119 676
119 146
119 218
119 430
119 863
119 516
119 507
119 972
119 673
119 120
119 857
119 369
119 789
119 869
119 342
119 195
119 395
119 800
119 219
119 941
119 179
119 721
119 241
119 854
119 366
119 886
119 492
119 572
119 877
120 756
120 528
120 533
120 548
120 579
120 609
120 854
120 981
120 146
120 721
120 912
120 972
120 996
120 492
120 194
120 485
120 968
120 179
120 377
120 504
120 676
120 148
120 975
120 246
120 195
120 241
120 868
120 869
120 366
120 369
120 507
120 730
120 351
121 570
121 512
121 272
121 792
121 545
121 547
121 295
121 553
121 836
121 250
121 998
121 840
121 175
121 763
121 236
121 610
121 664
121 451
121 703
121 704
121 495
122 131
122 260
122 134
122 155
122 924
122 314
122 956
122 326
122 206
122 842
122 266
122 381
122 715
122 346
122 837
122 566
122 597
122 723
122 587
122 138
122 550
123 805
123 794
123 571
123 573
123 580
123 586
123 591
123 595
123 189
123 667
123 198
123 938
123 694
123 682
123 678
123 127
123 288
123 748
123 593
123 192
123 269
123 637
123 156
123 638
123 176
123 224
123 223
123 858
123 708
123 640
123 356
123 129
123 686
123 231
123 291
123 352
123 918
123 770
123 308
123 258
123 901
123 170
123 140
123 205
123 798
123 177
123 742
123 897
123 496
123 824
123 326
123 522
123 339
123 646
123 154
123 718
123 779
123 809
124 192
124 542
124 564
124 569
124 592
124 618
124 484
124 656
124 482
124 254
124 559
124 422
124 978
124 946
124 690
124 750
124 645
124 869
124 245
124 151
124 193
124 199
124 722
124 738
124 233
124 234
124 259
124 786
124 296
124 841
124 386
124 922
124 925
124 433
124 949
124 488
124 501
125 758
125 172
125 560
125 187
125 572
125 835
125 844
125 334
125 746
125 364
125 749
125 186
125 190
125 557
125 603
125 163
125 818
126 507
126 132
126 518
126 905
126 409
126 717
126 508
126 762
126 928
126 549
126 182
126 255
126 271
126 892
126 139
126 590
126 800
126 461
126 264
127 586
127 593
127 637
127 858
127 188
127 156
127 646
127 231
127 770
127 356
127 192
127 640
127 154
127 682
127 176
127 205
127 223
127 224
127 779
127 798
127 510
127 514
128 281
128 384
128 749
128 523
128 575
128 964
128 955
128 398
128 585
128 850
128 590
128 453
128 885
128 707
128 877
128 357
128 774
128 544
128 459
128 969
128 457
128 628
128 731
128 737
128 158
128 713
128 673
128 664
128 625
128 157
128 674
128 735
128 229
128 777
128 321
128 401
128 932
128 497
129 979
129 571
129 586
129 591
129 595
129 637
129 748
129 156
129 183
129 640
129 323
129 646
129 145
129 154
129 170
129 176
129 718
129 223
129 770
129 779
129 798
129 288
129 809
129 901
129 918
130 926
130 989
130 515
130 527
130 799
130 654
130 159
130 447
130 163
130 582
130 136
130 185
130 772
130 208
130 393
130 658
130 939
130 963
130 728
130 575
131 381
131 723
131 260
131 566
131 842
131 924
131 597
131 956
131 206
131 783
131 155
131 326
131 837
131 266
131 134
131 314
131 346
131 587
131 411
131 719
131 715
131 531
131 386
131 757
132 867
132 549
132 539
132 791
132 409
132 677
132 725
132 161
132 762
132 889
132 662
132 182
132 518
132 139
132 679
132 156
132 271
132 439
133 360
133 369
133 544
133 575
133 585
133 497
133 480
133 401
133 229
133 853
133 962
133 157
133 174
133 696
133 217
133 735
133 774
133 777
133 877
133 964
133 457
134 837
134 266
134 956
134 853
134 842
134 715
134 260
134 723
134 924
134 206
134 587
134 597
134 566
134 346
134 155
134 562
134 783
134 326
135 916
135 867
135 519
135 581
135 284
135 825
135 341
135 283
135 780
135 761
135 399
135 244
135 358
135 378
135 264
135 818
135 442
135 813
135 941
135 815
135 365
135 929
135 499
135 919
135 832
135 830
135 873
135 848
135 812
135 648
135 152
135 800
135 811
135 826
135 329
135 348
135 884
135 927
135 454
135 995
136 515
136 396
136 525
136 527
136 728
136 159
136 185
136 447
136 582
136 654
136 163
136 393
136 382
136 963
136 583
136 550
136 772
136 852
136 781
136 799
136 921
136 858
136 670
136 939
137 795
137 533
137 579
137 627
137 993
137 528
137 548
137 758
137 721
137 394
137 241
137 407
137 366
137 981
137 854
137 395
137 789
137 529
137 441
137 146
137 179
137 716
137 354
137 369
137 370
137 886
137 462
137 492
137 507
137 321
138 883
138 523
138 575
138 578
138 585
138 505
138 777
138 641
138 651
138 713
138 669
138 725
138 926
138 671
138 705
138 712
138 730
138 229
138 885
138 401
138 457
138 458
138 497
139 298
139 518
139 905
139 889
139 816
139 508
139 928
139 161
139 662
139 762
139 964
139 182
139 255
139 637
139 555
139 344
140 255
140 571
140 586
140 593
140 637
140 640
140 646
140 809
140 580
140 154
140 156
140 176
140 205
140 718
140 223
140 742
140 770
140 779
140 918
140 668
141 979
141 573
141 586
141 591
141 593
141 637
141 638
141 646
141 809
141 154
141 156
141 205
141 718
141 223
141 779
141 288
141 356
141 901
141 918
141 938
141 495
142 405
142 533
142 579
142 627
142 452
142 787
142 609
142 377
142 716
142 968
142 548
142 390
142 934
142 863
142 868
142 146
142 507
142 407
142 758
142 869
142 464
142 338
142 516
142 241
142 369
142 150
142 996
142 854
142 195
142 370
142 395
142 993
142 886
142 179
142 981
142 528
142 354
142 462
142 218
142 972
142 411
142 849
142 342
142 789
142 346
142 867
142 580
142 362
142 690
142 420
142 721
142 366
142 485
142 492
142 901
142 877
143 532
143 536
143 281
143 294
143 558
143 561
143 819
143 621
143 636
143 976
143 839
143 451
143 147
143 347
143 697
143 337
143 630
143 554
143 574
143 805
143 866
143 330
143 946
143 520
143 922
143 205
143 495
144 655
144 493
144 414
144 855
144 619
144 362
144 273
144 162
144 896
144 747
144 661
144 764
145 573
145 586
145 591
145 595
145 637
145 640
145 170
145 694
145 479
145 154
145 156
145 682
145 176
145 205
145 224
145 770
145 288
145 809
145 356
145 901
145 312
145 484
146 294
146 528
146 579
146 609
146 627
146 912
146 533
146 520
146 716
146 516
146 394
146 972
146 203
146 981
146 370
146 960
146 787
146 407
146 194
146 886
146 986
146 993
146 369
146 804
146 895
146 179
146 195
146 721
146 241
146 758
146 794
146 354
146 395
146 462
146 464
146 492
147 279
147 536
147 287
147 551
147 294
147 558
147 565
147 839
147 347
147 608
147 636
147 431
147 561
147 451
147 337
147 440
147 554
147 976
147 819
147 469
147 532
147 574
147 278
147 330
147 866
147 405
147 630
147 805
147 168
147 322
147 276
147 650
147 807
147 824
147 590
148 359
148 243
148 607
148 153
148 372
148 635
148 823
148 387
148 639
148 796
148 373
148 193
149 551
149 257
149 275
149 545
149 547
149 175
149 704
149 236
149 792
149 576
149 962
149 250
149 332
149 526
149 219
149 495
150 533
150 627
150 857
150 411
150 528
150 676
150 264
150 179
150 195
150 716
150 721
150 241
150 758
150 787
150 869
150 366
150 395
150 407
150 981
150 485
151 902
151 744
151 628
151 559
151 564
151 568
151 618
151 645
151 978
151 501
151 900
151 259
151 488
151 437
151 727
151 841
151 410
151 750
151 355
151 228
151 788
151 418
151 514
151 656
151 445
151 435
151 254
151 234
151 484
151 460
151 542
151 433
151 180
151 724
151 193
151 937
151 946
151 605
151 736
151 199
151 169
151 482
151 569
151 456
151 653
151 296
151 722
151 755
151 922
151 690
151 592
151 793
151 444
151 478
151 604
151 657
151 422
151 925
151 386
151 786
151 465
151 774
151 373
151 606
151 907
151 230
151 824
151 749
151 160
151 233
152 305
152 702
152 461
152 293
152 442
152 385
152 927
152 616
152 436
152 358
152 285
152 797
152 953
152 973
152 283
152 449
152 537
152 234
152 965
152 744
152 244
152 252
152 264
152 284
152 800
152 290
152 811
152 813
152 818
152 348
152 408
152 413
152 975
152 995
153 244
153 276
153 643
153 660
153 823
153 243
153 372
153 373
153 387
153 796
153 177
153 607
153 359
153 874
153 639
154 571
154 586
154 591
154 593
154 637
154 646
154 573
154 308
154 269
154 640
154 748
154 901
154 192
154 156
154 638
154 682
154 258
154 686
154 708
154 177
154 183
154 188
154 858
154 231
154 291
154 938
154 802
154 224
154 198
154 336
154 667
154 703
154 189
154 678
154 356
154 779
154 352
154 288
154 580
154 770
154 742
154 918
154 205
154 694
154 915
154 643
154 641
154 257
154 976
154 713
154 176
154 718
154 223
154 809
154 919
154 707
154 731
155 783
155 206
155 266
155 587
155 260
155 314
155 842
155 715
155 837
155 326
155 956
155 723
155 346
155 810
155 424
155 566
155 460
156 571
156 586
156 593
156 595
156 637
156 779
156 770
156 224
156 682
156 938
156 748
156 231
156 356
156 177
156 573
156 667
156 858
156 170
156 678
156 686
156 352
156 336
156 189
156 198
156 258
156 646
156 288
156 591
156 901
156 638
156 742
156 718
156 176
156 809
156 703
156 308
156 291
156 918
156 708
156 343
156 303
156 633
156 848
156 930
156 223
156 798
156 932
157 523
157 575
157 578
157 585
157 628
157 712
157 522
157 964
157 713
157 644
157 885
157 401
157 590
157 944
157 466
157 229
157 453
157 197
157 505
157 423
157 961
157 932
157 544
157 966
157 669
157 991
157 850
157 774
157 651
157 777
157 459
157 957
157 472
157 910
157 357
157 707
157 671
157 624
157 457
157 174
157 731
157 914
157 971
157 754
157 730
157 158
157 674
157 419
157 321
157 969
157 217
157 531
157 458
157 936
157 641
157 497
157 536
157 201
157 220
157 772
157 870
157 767
157 877
157 398
158 854
158 905
158 523
158 575
158 585
158 628
158 644
158 315
158 669
158 174
158 197
158 217
158 730
158 754
158 850
158 877
158 885
158 401
158 419
158 932
158 957
158 497
159 983
159 752
159 672
159 412
159 515
159 527
159 658
159 185
159 939
159 989
159 963
159 396
159 799
159 778
159 393
159 895
159 781
159 728
159 862
159 701
159 945
159 550
159 259
159 841
160 960
160 715
160 321
160 564
160 592
160 645
160 841
160 418
160 228
160 488
160 722
160 433
160 501
160 569
160 484
160 657
160 937
160 444
160 724
160 456
160 445
160 514
160 193
160 542
160 605
160 296
160 755
160 750
160 410
160 653
160 831
160 725
160 794
160 630
160 824
160 169
160 690
160 736
160 234
160 259
160 786
160 788
160 900
161 328
161 518
161 905
161 271
161 662
161 791
161 282
161 409
161 892
161 928
161 539
161 441
161 743
161 523
162 407
162 220
162 283
162 681
162 896
162 273
162 414
162 808
162 747
162 764
162 619
162 592
162 855
162 350
163 393
163 527
163 515
163 538
163 778
163 799
163 895
163 772
163 582
163 447
163 852
163 728
163 299
163 626
163 259
164 276
164 324
164 626
164 642
164 487
164 210
164 517
164 734
164 681
164 221
164 188
164 248
164 722
165 535
165 546
165 589
165 376
165 601
165 298
165 406
165 304
165 500
165 893
165 617
165 323
165 867
165 898
165 331
165 879
165 371
165 833
165 977
165 600
165 921
165 906
165 881
165 470
165 606
165 864
165 902
165 465
165 824
165 416
165 200
165 245
165 311
165 473
165 340
165 428
165 967
165 417
165 403
165 309
165 463
165 834
165 367
165 491
165 812
165 829
165 670
165 699
165 415
165 897
165 988
165 920
165 933
165 698
165 647
165 316
165 666
165 301
165 860
165 909
165 446
165 300
165 979
165 756
165 838
165 810
165 926
165 935
165 383
165 215
165 814
165 875
165 980
165 684
165 384
165 831
165 427
165 904
165 820
165 943
165 602
165 807
165 658
165 734
165 584
165 871
165 284
165 184
165 370
166 521
166 267
166 268
166 782
166 785
166 790
166 328
166 227
166 209
166 969
166 178
166 201
166 230
166 494
166 752
166 571
166 804
167 191
167 229
167 517
167 534
167 320
167 324
167 598
167 351
167 626
167 642
167 487
167 248
167 361
167 693
167 820
167 847
167 951
168 536
168 294
168 558
168 839
168 330
168 347
168 866
168 431
168 819
168 790
168 203
168 900
169 926
169 573
169 260
169 568
169 592
169 727
169 386
169 656
169 444
169 750
169 569
169 422
169 604
169 653
169 559
169 645
169 755
169 435
169 793
169 690
169 456
169 193
169 460
169 445
169 949
169 618
169 786
169 736
169 296
169 228
169 418
169 937
169 922
169 841
169 437
169 514
169 578
169 543
169 921
169 987
169 871
169 199
169 722
169 233
169 234
169 254
169 259
169 900
169 925
169 501
170 431
170 732
170 591
170 637
170 640
170 580
170 198
170 188
170 718
170 183
170 798
170 918
170 779
170 667
170 192
170 703
170 291
170 899
170 943
170 970
170 176
170 205
170 224
170 770
170 288
170 809
170 800
170 259
171 751
171 262
171 784
171 801
171 563
171 570
171 325
171 391
171 668
171 220
171 584
171 539
171 965
171 714
171 207
171 211
171 990
171 743
172 508
172 822
172 186
172 603
172 190
172 239
172 557
172 334
172 726
172 749
172 701
172 276
172 717
172 187
172 572
172 364
172 735
172 951
173 318
173 768
173 265
173 907
173 652
173 594
173 212
173 806
173 766
173 543
173 759
173 992
173 583
173 755
174 523
174 522
174 575
174 578
174 590
174 644
174 671
174 669
174 480
174 472
174 707
174 505
174 936
174 910
174 754
174 961
174 419
174 969
174 651
174 497
174 944
174 964
174 457
174 620
174 357
174 877
174 423
174 914
174 932
174 955
174 229
174 459
174 696
174 737
174 458
174 196
174 398
174 674
174 544
174 850
174 731
174 730
174 966
174 641
174 735
174 994
174 197
174 705
174 378
174 405
174 863
174 230
174 977
174 896
174 777
174 885
174 401
175 371
175 516
175 257
175 272
175 545
175 547
175 295
175 827
175 899
175 625
175 998
175 763
175 704
175 836
175 513
175 315
175 219
175 236
175 275
175 828
175 512
175 576
175 553
175 664
175 256
175 280
175 792
175 330
175 862
175 369
175 441
175 495
176 586
176 591
176 593
176 595
176 637
176 336
176 205
176 682
176 858
176 356
176 189
176 809
176 188
176 231
176 183
176 177
176 308
176 571
176 192
176 580
176 901
176 779
176 742
176 258
176 269
176 640
176 678
176 224
176 938
176 638
176 748
176 646
176 573
176 686
176 198
176 770
176 223
176 918
176 288
176 798
176 667
176 718
176 291
176 510
176 278
176 961
176 386
176 818
177 406
177 977
177 571
177 573
177 586
177 593
177 637
177 638
177 640
177 646
177 682
177 189
177 892
177 718
177 223
177 224
177 742
177 770
177 809
177 356
178 521
178 267
178 268
178 526
178 785
178 790
178 328
178 890
178 201
178 733
178 807
178 471
178 475
178 552
178 474
178 541
178 771
178 782
178 335
178 227
178 767
178 467
178 230
178 494
178 848
178 752
178 612
178 983
178 246
178 333
178 517
178 866
178 680
178 992
178 606
179 606
179 533
179 609
179 627
179 854
179 673
179 869
179 241
179 794
179 886
179 912
179 507
179 863
179 849
179 960
179 915
179 354
179 462
179 516
179 520
179 395
179 411
179 194
179 787
179 430
179 342
179 716
179 394
179 195
179 485
179 789
179 464
179 968
179 407
179 492
179 390
179 721
179 504
179 338
179 218
179 868
179 806
179 908
179 833
179 913
179 554
179 206
179 758
179 366
179 369
179 377
179 986
179 993
179 204
180 397
180 564
180 568
180 618
180 755
180 788
180 604
180 666
180 314
180 722
180 738
180 234
180 254
180 259
180 786
180 841
180 386
180 922
180 925
180 978
180 488
180 501
181 262
181 801
181 804
181 556
181 563
181 310
181 325
181 861
181 374
181 668
181 903
181 246
181 965
181 714
181 990
181 743
181 760
182 270
182 518
182 791
182 409
182 677
182 816
182 539
182 282
182 632
182 835
182 586
182 774
183 611
183 571
183 573
183 595
183 637
183 638
183 640
183 646
183 308
183 586
183 189
183 918
183 316
183 913
183 205
183 718
183 223
183 224
183 779
183 288
183 901
183 310
183 234
184 546
184 589
184 606
184 666
184 875
184 831
184 601
184 926
184 617
184 470
184 906
184 298
184 893
184 309
184 881
184 600
184 829
184 897
184 909
184 463
184 367
184 902
184 979
184 384
184 420
184 977
184 864
184 491
184 428
184 340
184 500
184 670
184 377
184 413
184 351
184 614
184 698
184 215
184 756
184 812
184 311
184 834
184 838
184 331
184 867
184 371
184 406
184 920
184 933
184 967
184 809
185 515
185 772
185 393
185 396
185 654
185 939
185 728
185 582
185 989
185 778
185 447
185 312
185 852
185 598
185 256
186 208
186 557
186 239
186 572
186 746
186 726
186 703
186 701
186 190
186 844
186 334
186 603
186 749
187 560
187 603
187 835
187 557
187 239
187 844
187 334
187 746
187 363
187 912
187 701
187 190
187 364
188 699
188 571
188 580
188 637
188 638
188 646
188 686
188 703
188 201
188 396
188 205
188 223
188 224
188 770
188 779
188 798
188 809
188 817
188 229
189 571
189 573
189 591
189 593
189 637
189 646
189 308
189 770
189 244
189 515
189 205
189 718
189 223
189 779
189 693
190 255
190 557
190 560
190 572
190 363
190 844
190 701
190 726
190 415
190 600
190 581
190 259
191 270
191 530
191 795
191 567
191 846
191 339
191 360
191 883
191 665
191 425
191 249
191 263
191 719
191 208
191 732
191 506
191 261
191 412
191 685
191 687
191 529
191 479
191 999
191 683
191 509
191 237
191 982
191 481
191 741
191 486
191 915
191 934
191 736
191 738
191 219
192 573
192 586
192 591
192 593
192 637
192 646
192 682
192 686
192 718
192 694
192 258
192 809
192 439
192 205
192 770
192 779
192 288
192 356
192 918
192 832
192 564
193 211
193 514
193 542
193 592
193 618
193 690
193 433
193 605
193 750
193 488
193 355
193 568
193 259
193 501
193 755
193 435
193 727
193 296
193 484
193 900
193 460
193 949
193 233
193 847
193 559
193 645
193 482
193 445
193 569
193 437
193 657
193 653
193 722
193 478
193 656
193 444
193 946
193 922
193 724
193 498
193 301
193 923
193 718
193 266
193 199
193 736
193 738
193 234
193 254
193 841
193 386
194 520
194 533
194 579
194 609
194 627
194 195
194 218
194 241
194 758
194 854
194 366
194 369
194 370
194 886
194 377
194 395
194 407
194 452
194 464
194 485
194 492
194 507
195 371
195 516
195 609
195 627
195 452
195 993
195 960
195 869
195 390
195 968
195 507
195 492
195 395
195 857
195 370
195 789
195 934
195 354
195 981
195 986
195 430
195 548
195 338
195 241
195 462
195 721
195 579
195 366
195 996
195 673
195 972
195 849
195 218
195 863
195 533
195 485
195 394
195 528
195 915
195 854
195 520
195 676
195 411
195 830
195 251
195 499
195 532
195 795
195 758
195 794
195 868
195 369
195 886
195 464
195 580
195 635
196 523
196 575
196 644
196 707
196 914
196 774
196 614
196 197
196 217
196 229
196 754
196 777
196 321
196 877
196 885
196 398
196 401
196 419
196 457
196 458
196 497
197 976
197 523
197 522
197 575
197 578
197 620
197 628
197 644
197 669
197 707
197 674
197 932
197 419
197 971
197 357
197 321
197 423
197 712
197 737
197 401
197 217
197 624
197 774
197 671
197 544
197 229
197 969
197 994
197 713
197 940
197 705
197 961
197 735
197 964
197 497
197 730
197 448
197 390
197 870
197 980
197 333
197 908
197 398
197 458
197 592
197 501
198 790
198 820
198 571
198 580
198 586
198 593
198 595
198 637
198 640
198 646
198 205
198 718
198 223
198 224
198 779
198 798
198 288
198 809
198 356
198 275
199 425
199 568
199 569
199 592
199 605
199 618
199 645
199 386
199 418
199 793
199 604
199 445
199 433
199 727
199 847
199 724
199 946
199 736
199 501
199 653
199 296
199 444
199 437
199 937
199 484
199 234
199 355
199 978
199 488
199 738
199 755
199 788
199 922
199 656
199 750
199 841
199 262
199 816
199 637
199 452
199 722
199 228
199 233
199 254
199 259
199 900
199 925
200 535
200 599
200 606
200 684
200 698
200 935
200 933
200 367
200 428
200 820
200 349
200 756
200 245
200 812
200 311
200 824
200 834
200 860
200 864
200 867
200 371
200 904
200 406
200 415
200 427
200 967
200 486
200 960
200 387
201 268
201 782
201 790
201 541
201 328
201 333
201 335
201 675
201 785
201 209
201 848
201 494
201 471
201 526
201 767
201 983
201 230
201 552
201 246
201 521
201 804
201 791
201 584
201 752
201 409
201 786
202 769
202 322
202 388
202 327
202 711
202 859
202 945
202 540
202 588
202 680
202 242
202 821
202 367
202 646
203 528
203 609
203 627
203 986
203 464
203 395
203 915
203 721
203 241
203 758
203 794
203 849
203 854
203 354
203 868
203 366
203 369
203 370
203 407
203 492
203 656
203 757
204 784
204 801
204 804
204 563
204 310
204 325
204 861
204 391
204 714
204 349
204 556
204 441
204 207
204 729
204 929
204 220
204 743
204 510
204 603
204 272
205 452
205 571
205 580
205 586
205 591
205 593
205 637
205 640
205 646
205 686
205 938
205 918
205 748
205 694
205 356
205 802
205 678
205 638
205 573
205 352
205 682
205 742
205 858
205 901
205 595
205 770
205 779
205 798
205 258
205 308
205 336
205 809
205 269
205 231
205 224
205 870
205 656
205 600
205 446
205 318
205 718
205 223
205 761
206 990
206 260
206 783
206 566
206 314
206 956
206 326
206 842
206 924
206 381
206 346
206 542
206 958
206 723
207 447
207 801
207 563
207 570
207 325
207 349
207 374
207 903
207 691
207 965
207 714
207 974
207 948
207 262
207 784
207 614
207 760
207 803
207 584
207 804
207 441
207 310
207 743
207 306
207 964
207 622
207 891
207 990
207 510
207 629
208 622
208 270
208 360
208 883
208 412
208 719
208 530
208 509
208 567
208 261
208 687
208 263
208 486
208 846
208 732
208 529
208 506
208 232
208 741
208 481
208 766
208 286
208 249
208 563
209 526
209 782
209 333
209 612
209 890
209 675
209 785
209 328
209 494
209 246
209 335
209 752
209 521
209 807
209 552
209 474
209 227
209 848
209 267
209 268
209 467
209 475
209 771
209 541
209 992
209 575
209 850
209 902
209 983
209 230
209 622
209 527
209 669
210 981
210 534
210 324
210 351
210 361
210 626
210 642
210 517
210 989
211 298
211 262
211 801
211 563
211 570
211 325
211 861
211 614
211 374
211 903
211 948
211 441
211 391
211 760
211 556
211 468
211 584
211 803
211 510
211 691
211 775
211 784
211 709
211 804
211 668
211 965
211 613
211 538
211 507
211 220
211 358
211 925
212 318
212 265
212 652
212 768
212 870
212 759
212 806
212 766
212 543
212 778
212 949
213 278
213 536
213 805
213 551
213 294
213 561
213 565
213 839
213 405
213 431
213 440
213 469
214 389
214 303
214 695
214 443
214 577
214 706
214 247
214 985
214 649
214 656
214 496
214 721
215 265
215 535
215 599
215 606
215 647
215 666
215 698
215 684
215 589
215 879
215 829
215 470
215 601
215 943
215 617
215 473
215 860
215 463
215 428
215 988
215 406
215 967
215 979
215 814
215 670
215 875
215 920
215 906
215 904
215 331
215 977
215 416
215 546
215 446
215 820
215 417
215 491
215 838
215 812
215 465
215 818
215 649
215 648
215 944
215 959
215 756
215 245
215 309
215 824
215 864
215 867
215 926
215 933
215 284
216 908
216 679
216 313
216 353
216 602
216 672
216 633
216 226
216 611
216 305
216 892
216 377
216 613
216 745
216 876
216 622
216 894
216 753
216 740
217 565
217 909
217 852
217 223
217 523
217 544
217 575
217 671
217 712
217 624
217 777
217 936
217 458
217 877
217 696
217 964
217 497
217 423
217 737
217 994
217 955
217 480
217 850
217 731
217 453
217 401
217 457
217 910
217 754
217 578
217 585
217 398
217 531
217 522
217 815
217 506
217 442
217 704
217 730
217 735
217 229
218 528
218 533
218 579
218 609
218 627
218 394
218 676
218 972
218 444
218 236
218 241
218 758
218 366
218 369
218 395
218 464
218 993
218 485
218 492
219 798
219 272
219 275
219 547
219 295
219 840
219 664
219 553
219 226
219 998
219 495
219 763
220 742
220 563
220 310
220 570
220 325
220 861
220 374
220 959
220 468
220 391
220 784
220 306
220 997
220 709
220 903
220 584
220 965
220 691
220 990
220 775
220 729
220 441
220 714
220 510
220 700
220 930
220 743
221 871
221 595
221 754
221 534
221 324
221 598
221 351
221 361
221 629
221 642
221 950
221 248
221 910
221 526
222 838
222 492
222 913
222 650
222 397
222 402
222 297
222 562
222 253
222 615
223 546
223 571
223 593
223 595
223 640
223 646
223 718
223 682
223 336
223 858
223 742
223 269
223 291
223 809
223 678
223 231
223 694
223 352
223 779
223 580
223 638
223 637
223 356
223 802
223 703
223 748
223 918
223 667
223 901
223 586
223 938
223 591
223 770
223 224
223 288
223 708
223 258
223 778
223 977
223 763
223 614
223 925
224 573
224 593
224 595
224 637
224 640
224 646
224 682
224 718
224 586
224 352
224 708
224 571
224 901
224 918
224 356
224 809
224 231
224 694
224 308
224 269
224 703
224 779
224 288
224 291
224 742
224 591
224 678
224 905
224 260
224 850
224 874
224 227
224 953
225 856
225 519
225 498
225 555
225 483
225 954
225 773
225 329
225 811
225 348
225 931
225 438
225 659
225 873
225 800
225 941
225 307
225 780
225 911
225 432
225 477
225 832
225 740
225 815
225 292
225 436
225 558
225 557
225 294
225 744
225 244
225 797
225 813
225 312
225 826
225 341
225 358
225 913
225 919
225 413
225 454
225 995
225 517
226 524
226 908
226 400
226 916
226 672
226 679
226 313
226 602
226 353
226 611
226 613
226 622
226 240
227 771
227 521
227 267
227 268
227 782
227 790
227 807
227 675
227 983
227 474
227 475
227 494
227 985
227 381
228 440
228 300
228 861
228 564
228 592
228 604
228 605
228 618
228 690
228 722
228 724
228 937
228 542
228 514
228 755
228 482
228 296
228 410
228 738
228 386
228 636
228 961
228 233
228 234
228 254
228 259
228 841
228 949
228 488
228 501
229 756
229 800
229 523
229 575
229 644
229 669
229 651
229 398
229 544
229 735
229 713
229 458
229 730
229 578
229 585
229 754
229 877
229 737
229 357
229 777
229 453
229 774
229 957
229 628
229 590
229 731
229 936
229 419
229 624
229 674
229 448
229 459
229 961
229 910
229 641
229 480
229 932
229 955
229 472
229 696
229 964
229 522
229 321
229 971
229 466
229 531
229 401
229 671
229 944
229 850
229 712
229 705
229 914
229 707
229 620
229 423
229 333
229 802
229 455
229 352
229 322
229 885
229 457
229 497
230 521
230 268
230 782
230 785
230 790
230 328
230 848
230 612
230 890
230 474
230 992
230 267
230 526
230 675
230 552
230 246
230 467
230 397
230 416
230 494
230 535
231 573
231 586
231 593
231 595
231 637
231 638
231 646
231 703
231 718
231 779
231 809
231 523
232 261
232 529
232 795
232 567
232 846
232 360
232 883
232 412
232 481
232 486
232 479
232 270
232 342
232 396
232 550
232 362
233 569
233 605
233 722
233 736
233 738
233 259
233 422
233 433
233 724
233 445
233 937
233 925
233 793
233 690
233 559
233 657
233 234
233 922
233 501
233 542
233 355
233 435
233 645
233 478
233 755
233 900
233 978
233 788
233 410
233 254
233 949
233 847
233 456
233 386
233 444
233 618
233 841
233 750
233 484
233 271
233 650
233 641
233 999
233 520
233 293
233 294
233 786
234 935
234 743
234 559
234 564
234 568
234 592
234 618
234 645
234 690
234 722
234 736
234 738
234 925
234 514
234 724
234 786
234 542
234 793
234 657
234 653
234 937
234 386
234 501
234 437
234 488
234 296
234 445
234 922
234 259
234 755
234 478
234 482
234 444
234 605
234 418
234 569
234 788
234 727
234 456
234 355
234 422
234 656
234 484
234 435
234 410
234 433
234 750
234 946
234 490
234 949
234 847
234 841
234 606
234 824
234 560
234 679
234 965
234 507
234 254
235 745
235 432
235 650
235 297
235 623
235 345
235 397
235 402
235 653
235 841
236 898
236 406
236 967
236 257
236 513
236 295
236 553
236 836
236 899
236 704
236 962
236 350
236 495
237 541
237 261
237 263
237 270
237 530
237 360
237 883
237 412
237 479
237 486
237 999
237 982
237 555
237 527
238 822
238 439
238 702
238 450
238 596
238 872
238 753
238 461
238 763
238 880
239 599
239 901
239 557
239 844
239 334
239 726
239 603
239 746
239 363
239 364
239 749
239 568
239 922
240 524
240 908
240 400
240 916
240 672
240 679
240 313
240 611
240 745
240 876
240 622
240 353
240 969
240 894
240 567
240 576
241 520
241 528
241 533
241 676
241 721
241 758
241 993
241 869
241 390
241 981
241 716
241 430
241 972
241 673
241 354
241 548
241 960
241 516
241 996
241 854
241 411
241 787
241 627
241 464
241 789
241 366
241 968
241 485
241 407
241 609
241 986
241 369
241 452
241 395
241 507
241 886
241 849
241 338
241 915
241 857
241 912
241 492
241 934
241 868
241 863
241 377
241 504
241 370
241 794
241 579
241 462
241 274
241 577
241 612
241 436
241 683
241 400
241 654
241 413
242 769
242 322
242 711
242 327
242 588
242 945
242 540
242 388
242 859
242 632
242 821
242 927
243 967
243 581
243 387
243 660
243 796
243 607
243 359
243 887
243 823
243 643
243 994
243 372
243 631
243 888
243 635
243 639
244 581
244 659
244 688
244 740
244 744
244 919
244 519
244 264
244 358
244 913
244 426
244 274
244 399
244 438
244 826
244 917
244 958
244 929
244 436
244 293
244 815
244 277
244 286
244 511
244 830
244 341
244 332
244 429
244 973
244 307
244 379
244 873
244 319
244 454
244 348
244 923
244 811
244 442
244 483
244 648
244 862
244 780
244 378
244 368
244 322
244 267
244 854
244 663
244 566
244 283
244 284
244 800
244 813
244 818
244 413
244 975
244 995
245 599
245 606
245 666
245 698
245 756
245 428
245 367
245 331
245 831
245 600
245 463
245 371
245 829
245 634
245 875
245 376
245 406
245 935
245 881
245 301
245 535
245 416
245 838
245 906
245 589
245 867
245 857
245 776
245 298
245 300
245 824
245 860
245 920
245 921
245 967
245 777
245 460
246 526
246 785
246 552
246 983
246 475
246 992
246 494
246 790
246 689
246 333
246 771
246 474
246 521
246 848
246 335
246 733
246 266
246 806
246 322
246 301
246 988
246 352
247 389
247 695
247 443
247 317
247 577
247 706
247 985
247 496
247 504
247 803
247 606
247 902
247 638
247 995
248 706
248 528
248 454
248 276
248 324
248 598
248 361
248 942
248 693
248 734
248 534
248 517
248 720
248 299
248 351
248 950
248 626
248 951
248 681
248 678
248 293
248 267
248 645
249 261
249 529
249 530
249 795
249 846
249 883
249 412
249 732
249 486
249 339
249 982
249 683
249 509
249 719
249 567
249 741
249 596
249 536
249 507
249 835
250 485
250 637
250 640
250 959
250 257
250 256
250 272
250 792
250 545
250 295
250 553
250 827
250 576
250 836
250 610
250 962
250 495
251 776
251 392
251 984
251 289
251 302
251 751
251 947
251 882
251 489
251 613
251 476
252 890
252 519
252 537
252 555
252 616
252 659
252 744
252 797
252 312
252 378
252 274
252 341
252 919
252 995
252 929
252 648
252 581
252 913
252 498
252 811
252 973
252 958
252 385
252 817
252 862
252 432
252 438
252 292
252 277
252 975
252 761
252 449
252 514
252 676
252 812
252 518
252 264
252 285
252 813
252 329
252 358
252 413
252 454
252 257
253 637
253 913
253 953
253 650
253 402
253 297
253 345
253 891
254 535
254 628
254 568
254 653
254 690
254 722
254 738
254 604
254 724
254 422
254 605
254 618
254 542
254 259
254 841
254 514
254 444
254 501
254 559
254 435
254 433
254 786
254 355
254 978
254 949
254 488
254 564
254 656
254 478
254 922
254 736
254 809
254 398
254 593
254 573
254 296
254 925
254 482
255 612
255 906
255 926
255 518
255 905
255 662
255 539
255 409
255 549
255 816
255 762
255 791
255 508
255 889
255 282
255 928
255 717
255 502
255 525
255 639
256 990
256 927
256 899
256 840
256 757
256 836
256 553
256 610
256 827
256 545
256 513
256 272
256 295
256 663
256 704
257 425
257 840
257 315
257 512
257 295
257 827
257 998
257 619
257 547
257 553
257 836
257 663
257 962
257 495
258 571
258 591
258 593
258 638
258 646
258 718
258 779
258 269
258 288
258 356
258 901
259 621
259 646
259 718
259 568
259 592
259 618
259 645
259 722
259 727
259 736
259 755
259 433
259 656
259 653
259 444
259 514
259 925
259 841
259 793
259 482
259 724
259 786
259 847
259 296
259 437
259 490
259 542
259 445
259 488
259 946
259 564
259 386
259 478
259 422
259 690
259 788
259 750
259 569
259 604
259 559
259 605
259 460
259 657
259 410
259 501
259 456
259 484
259 418
259 355
259 435
259 286
259 442
259 608
259 949
260 521
260 552
260 300
260 566
260 346
260 314
260 326
260 924
260 853
260 381
260 597
260 587
260 647
260 266
260 783
260 715
261 509
261 685
261 846
261 732
261 412
261 683
261 930
261 665
261 479
261 893
261 995
261 529
261 530
261 795
261 567
261 360
261 883
261 481
261 741
261 486
261 854
261 850
262 668
262 948
262 709
262 801
262 691
262 714
262 803
262 784
262 804
262 563
262 325
262 861
262 391
262 743
262 510
263 756
263 530
263 683
263 883
263 270
263 479
263 412
263 685
263 575
263 529
263 795
263 567
263 846
263 360
263 665
263 481
263 486
263 509
264 371
264 520
264 548
264 519
264 555
264 648
264 744
264 761
264 329
264 818
264 379
264 454
264 408
264 503
264 931
264 688
264 380
264 502
264 923
264 432
264 952
264 917
264 911
264 830
264 953
264 800
264 927
264 958
264 929
264 341
264 438
264 404
264 811
264 477
264 970
264 825
264 511
264 307
264 319
264 884
264 975
264 284
264 973
264 292
264 277
264 368
264 348
264 274
264 413
264 994
264 505
264 504
264 841
264 445
264 813
264 312
264 919
265 318
265 759
265 543
265 594
265 907
265 870
265 806
265 768
265 766
265 652
265 361
266 602
266 988
266 873
266 326
266 842
266 314
266 837
266 587
266 783
266 378
266 449
266 924
266 956
266 723
266 597
266 381
267 771
267 785
267 494
267 848
267 526
267 475
267 335
267 767
267 467
267 268
267 983
267 675
267 541
267 733
267 680
267 328
267 333
267 471
267 474
267 616
268 771
268 521
268 494
268 848
268 782
268 612
268 335
268 474
268 752
268 333
268 552
268 475
268 983
268 790
268 328
268 807
268 467
268 571
268 912
268 526
268 785
268 471
268 992
268 533
269 766
269 627
269 571
269 573
269 586
269 637
269 682
269 686
269 718
269 770
269 779
269 859
269 737
269 798
269 288
269 809
269 356
269 744
270 999
270 486
270 687
270 685
270 529
270 509
270 795
270 567
270 930
270 665
270 741
270 732
270 907
270 530
270 846
270 339
270 360
270 883
270 412
270 425
271 518
271 905
271 539
271 892
271 662
271 282
271 816
271 409
271 717
271 791
271 809
271 549
271 677
271 348
271 401
271 296
272 315
272 962
272 512
272 827
272 704
272 757
272 899
272 610
272 909
272 275
272 547
272 576
272 998
273 812
273 407
273 896
273 655
273 764
273 350
273 414
273 855
273 560
273 747
273 493
274 756
274 801
274 555
274 659
274 744
274 761
274 648
274 767
274 284
274 800
274 826
274 358
274 365
274 884
274 413
274 927
274 454
274 975
274 851
275 974
275 644
275 315
275 664
275 545
275 827
275 899
275 836
275 467
275 280
275 792
275 547
275 295
275 576
275 704
275 962
275 495
276 337
276 413
276 705
276 517
276 951
276 455
276 693
276 720
276 642
276 534
276 320
276 619
276 324
276 598
276 351
276 629
276 942
276 950
277 333
277 563
277 555
277 659
277 744
277 519
277 498
277 751
277 284
277 811
277 813
277 312
277 826
277 830
277 329
277 348
277 358
277 884
277 919
277 408
277 413
277 454
277 975
277 995
278 532
278 375
278 279
278 554
278 294
278 636
278 697
278 451
278 281
278 565
278 621
278 866
278 327
278 360
278 805
278 558
278 561
278 337
278 347
278 440
279 532
279 375
279 294
279 440
279 697
279 281
279 636
279 574
279 843
279 608
279 287
279 630
279 819
279 536
279 431
279 805
279 909
279 473
279 551
279 558
279 561
279 565
279 347
279 405
279 614
279 903
279 738
279 501
280 628
280 512
280 663
280 962
280 625
280 610
280 545
280 664
280 553
280 704
280 547
280 715
280 295
280 576
280 836
281 536
281 451
281 558
281 819
281 574
281 697
281 330
281 636
281 347
281 561
281 866
281 294
281 405
281 621
281 907
281 739
281 805
281 551
281 843
281 431
281 464
281 401
282 518
282 905
282 662
282 816
282 409
282 508
282 717
282 889
282 592
282 632
282 762
282 892
283 555
283 740
283 744
283 761
283 290
283 537
283 873
283 319
283 343
283 285
283 511
283 688
283 581
283 995
283 862
283 815
283 503
283 621
283 497
283 284
283 800
283 813
283 307
283 312
283 826
283 832
283 329
283 348
283 368
283 919
283 413
283 931
283 941
283 438
283 975
284 364
284 581
284 744
284 761
284 773
284 929
284 343
284 404
284 483
284 765
284 995
284 923
284 399
284 954
284 307
284 498
284 815
284 368
284 290
284 800
284 931
284 975
284 380
284 927
284 426
284 319
284 952
284 379
284 454
284 436
284 818
284 292
284 365
284 830
284 911
284 884
284 970
284 442
284 286
284 826
284 358
284 385
284 688
284 341
284 519
284 503
284 438
284 659
284 378
284 811
284 797
284 825
284 832
284 555
284 780
284 648
284 449
284 332
284 511
284 873
284 973
284 502
284 413
284 737
284 622
284 938
284 704
284 301
284 524
284 329
284 348
284 674
285 519
285 555
285 616
285 659
285 688
285 744
285 761
285 408
285 436
285 648
285 380
285 477
285 343
285 884
285 332
285 740
285 868
285 905
285 800
285 290
285 818
285 312
285 826
285 341
285 358
285 368
285 919
285 953
285 454
285 975
285 786
286 759
286 519
286 555
286 659
286 744
286 761
286 773
286 448
286 797
286 811
286 813
286 307
286 312
286 832
286 341
286 358
286 919
286 408
286 413
286 927
286 438
286 953
286 995
287 524
287 536
287 697
287 866
287 558
287 621
287 375
287 574
287 469
287 451
287 516
287 943
287 554
287 347
287 608
287 405
287 431
287 440
288 571
288 593
288 595
288 637
288 646
288 682
288 718
288 779
288 798
288 356
288 580
288 918
288 638
288 748
288 667
288 640
288 573
288 858
288 809
288 586
288 352
288 938
288 412
288 468
288 973
288 826
289 392
289 776
289 692
289 302
289 984
289 489
289 947
289 882
289 952
289 832
290 571
290 519
290 581
290 744
290 761
290 797
290 498
290 358
290 884
290 408
290 442
290 830
290 913
290 537
290 307
290 365
290 773
290 832
290 794
290 877
290 775
290 811
290 813
290 818
290 312
290 826
290 862
290 873
290 919
291 412
291 586
291 593
291 595
291 637
291 640
291 646
291 682
291 686
291 779
291 798
291 809
291 356
291 885
291 324
292 519
292 616
292 688
292 740
292 744
292 761
292 800
292 957
292 934
292 312
292 348
292 919
292 413
292 931
292 438
292 454
292 995
292 321
293 992
293 555
293 744
293 800
293 953
293 923
293 329
293 811
293 826
293 307
293 319
293 740
293 343
293 817
293 688
293 873
293 752
293 813
293 312
293 919
293 413
293 432
293 436
293 975
293 995
294 536
294 805
294 819
294 630
294 976
294 532
294 469
294 843
294 574
294 565
294 507
294 898
294 554
294 558
294 839
294 347
294 608
294 636
294 431
294 682
295 785
295 935
295 637
295 424
295 512
295 547
295 840
295 828
295 827
295 610
295 663
295 757
295 553
295 625
295 677
295 413
295 953
295 836
295 704
295 962
295 495
296 341
296 592
296 690
296 722
296 727
296 738
296 949
296 484
296 569
296 750
296 542
296 978
296 937
296 482
296 755
296 645
296 514
296 355
296 564
296 900
296 501
296 736
296 435
296 925
296 724
296 418
296 618
296 460
296 788
296 786
296 847
296 568
296 604
296 386
296 410
296 804
296 662
296 956
296 583
296 972
296 841
296 922
296 433
296 488
297 563
297 650
297 661
297 402
297 562
297 345
297 352
297 615
298 535
298 546
298 589
298 600
298 606
298 666
298 698
298 756
298 833
298 417
298 897
298 977
298 967
298 684
298 699
298 309
298 406
298 921
298 829
298 465
298 935
298 898
298 860
298 367
298 926
298 416
298 446
298 403
298 814
298 371
298 473
298 601
298 906
298 316
298 834
298 810
298 376
298 301
298 340
298 875
298 902
298 617
298 838
298 304
298 820
298 879
298 300
298 420
298 867
298 428
298 988
298 670
298 507
298 644
298 767
298 404
298 812
298 311
298 824
298 864
298 920
298 933
298 979
298 573
298 488
299 744
299 442
299 517
299 351
299 693
299 455
299 320
299 534
299 424
299 734
299 642
299 487
299 928
299 324
299 598
299 361
299 950
300 535
300 546
300 589
300 600
300 606
300 666
300 684
300 698
300 756
300 812
300 301
300 838
300 845
300 933
300 384
300 647
300 465
300 634
300 834
300 463
300 814
300 383
300 311
300 428
300 304
300 473
300 920
300 898
300 670
300 699
300 331
300 906
300 323
300 410
300 820
300 824
300 867
300 909
300 406
300 921
300 935
300 967
300 979
300 988
300 791
300 738
301 535
301 589
301 606
301 666
301 684
301 698
301 699
301 756
301 311
301 867
301 893
301 415
301 428
301 898
301 323
301 601
301 979
301 416
301 988
301 427
301 906
301 599
301 383
301 340
301 417
301 980
301 473
301 309
301 316
301 829
301 881
301 943
301 921
301 403
301 463
301 465
301 897
301 820
301 376
301 371
301 838
301 860
301 831
301 420
301 845
301 833
301 304
301 977
301 491
301 967
301 810
301 920
301 904
301 617
301 367
301 902
301 875
301 969
301 972
301 710
301 305
301 885
301 814
301 824
301 864
301 406
301 933
302 920
302 846
302 776
302 984
302 489
302 692
302 947
302 432
302 751
302 747
303 389
303 649
303 443
303 706
303 317
303 496
303 695
303 567
303 577
303 384
304 535
304 599
304 666
304 670
304 684
304 698
304 756
304 812
304 814
304 491
304 634
304 767
304 817
304 311
304 824
304 838
304 331
304 864
304 867
304 898
304 904
304 909
304 920
304 415
304 933
304 935
304 967
304 465
304 979
304 988
305 908
305 672
305 679
305 524
305 894
305 611
305 856
305 876
305 745
305 633
305 313
305 602
305 739
305 622
305 834
306 535
306 775
306 801
306 556
306 563
306 729
306 510
306 614
306 743
306 441
306 997
306 325
306 468
306 570
306 974
306 709
306 668
306 681
306 433
306 730
307 427
307 688
307 744
307 761
307 773
307 797
307 800
307 811
307 813
307 329
307 519
307 929
307 616
307 477
307 498
307 358
307 319
307 348
307 449
307 826
307 385
307 975
307 502
307 332
307 380
307 871
307 881
307 524
307 646
307 368
307 378
307 413
307 426
307 442
307 454
307 995
308 905
308 880
308 573
308 586
308 637
308 640
308 646
308 682
308 686
308 770
308 779
308 809
308 510
308 522
309 535
309 589
309 606
309 666
309 698
309 756
309 428
309 600
309 820
309 427
309 384
309 829
309 904
309 967
309 812
309 371
309 875
309 980
309 810
309 831
309 898
309 500
309 416
309 423
309 452
309 787
309 311
309 824
309 838
309 864
309 867
309 909
309 406
309 920
309 926
309 933
309 935
309 988
310 838
310 775
310 784
310 804
310 563
310 614
310 325
310 974
310 584
310 441
310 556
310 729
310 714
310 735
310 374
310 391
310 948
311 782
311 621
311 535
311 606
311 666
311 698
311 756
311 814
311 599
311 473
311 820
311 403
311 491
311 979
311 383
311 980
311 812
311 845
311 446
311 371
311 415
311 684
311 864
311 546
311 909
311 699
311 323
311 879
311 897
311 933
311 906
311 881
311 420
311 617
311 600
311 465
311 833
311 860
311 601
311 902
311 463
311 921
311 416
311 834
311 943
311 829
311 867
311 831
311 893
311 340
311 988
311 470
311 946
311 533
311 816
311 898
311 920
311 427
311 967
311 567
311 939
312 519
312 555
312 616
312 744
312 761
312 811
312 813
312 648
312 927
312 432
312 825
312 399
312 413
312 958
312 499
312 332
312 953
312 826
312 404
312 329
312 477
312 973
312 818
312 503
312 378
312 995
312 408
312 380
312 797
312 773
312 343
312 442
312 830
312 511
312 919
312 688
312 498
312 454
312 780
312 815
312 537
312 913
312 319
312 438
312 911
312 931
312 765
312 358
312 941
312 832
312 426
312 424
312 829
312 974
312 469
312 446
312 704
312 341
312 348
312 884
313 633
313 908
313 679
313 916
313 602
313 622
313 613
313 353
313 739
313 745
313 400
313 856
313 876
313 524
313 894
313 376
313 563
313 434
314 353
314 783
314 924
314 566
314 587
314 381
314 820
314 956
314 837
314 326
314 715
314 346
315 995
315 513
315 545
315 547
315 553
315 962
315 921
315 576
315 899
315 704
315 998
315 495
315 763
316 535
316 606
316 666
316 698
316 699
316 756
316 810
316 814
316 824
316 834
316 838
316 331
316 867
316 371
316 893
316 906
316 406
316 920
316 933
316 427
316 967
316 465
316 624
317 649
317 695
317 443
317 577
317 985
317 979
317 706
317 933
317 995
317 472
318 543
318 870
318 806
318 907
318 766
318 759
318 323
318 768
318 652
318 594
318 508
318 668
319 933
319 616
319 744
319 811
319 341
319 358
319 919
319 426
319 953
319 454
319 975
319 995
319 566
320 526
320 814
320 517
320 534
320 642
320 455
320 700
320 751
320 324
320 598
320 351
320 361
320 629
320 942
320 434
321 599
321 814
321 523
321 522
321 585
321 590
321 628
321 644
321 671
321 696
321 705
321 735
321 777
321 459
321 994
321 932
321 707
321 957
321 357
321 737
321 850
321 936
321 910
321 480
321 914
321 423
321 971
321 730
321 641
321 419
321 944
321 544
321 961
321 964
321 398
321 575
321 966
321 620
321 466
321 731
321 754
321 578
321 774
321 624
321 453
321 969
321 505
321 669
321 885
321 611
321 646
321 681
321 625
321 877
321 401
321 458
322 859
322 327
322 680
322 388
322 945
322 540
322 769
322 588
322 711
322 821
322 888
323 806
323 546
323 589
323 599
323 601
323 606
323 666
323 684
323 698
323 756
323 812
323 814
323 824
323 602
323 838
323 331
323 864
323 867
323 371
323 893
323 384
323 406
323 920
323 926
323 933
323 967
323 988
323 964
324 629
324 942
324 487
324 534
324 681
324 361
324 987
324 700
324 734
324 693
324 720
324 642
324 517
324 951
324 424
324 598
324 351
324 626
325 906
325 741
325 342
325 775
325 784
325 801
325 804
325 563
325 570
325 349
325 903
325 965
325 441
325 974
325 997
325 614
325 556
325 510
325 709
325 803
325 668
325 861
325 714
325 729
325 391
325 691
325 948
325 959
325 743
325 643
325 395
325 346
325 434
325 990
325 454
325 850
325 386
325 495
326 783
326 924
326 956
326 853
326 347
326 842
326 346
326 951
327 769
327 388
327 711
327 821
327 588
327 540
327 857
327 680
327 945
327 859
327 869
327 765
327 811
327 358
328 521
328 782
328 785
328 790
328 541
328 552
328 771
328 333
328 752
328 733
328 467
328 807
328 335
328 471
328 474
328 494
328 689
328 767
328 526
328 675
328 475
328 918
328 399
328 983
328 992
328 339
328 818
328 919
329 589
329 948
329 519
329 537
329 555
329 659
329 688
329 761
329 765
329 800
329 811
329 826
329 744
329 740
329 818
329 931
329 941
329 830
329 502
329 385
329 379
329 365
329 503
329 773
329 368
329 797
329 958
329 581
329 954
329 913
329 404
329 825
329 648
329 815
329 358
329 975
329 832
329 929
329 332
329 917
329 380
329 919
329 399
329 813
329 776
329 766
329 814
329 683
329 473
329 339
329 341
329 873
329 884
329 413
329 927
329 426
329 442
329 454
329 995
330 536
330 431
330 866
330 561
330 574
330 405
330 548
330 337
330 621
330 630
330 440
330 864
330 436
330 547
331 589
331 599
331 684
331 698
331 756
331 812
331 820
331 634
331 921
331 838
331 864
331 824
331 898
331 383
331 935
331 420
331 845
331 500
331 367
331 647
331 617
331 417
331 897
331 867
331 829
331 893
331 980
331 879
331 384
331 909
331 416
331 470
331 906
331 546
331 535
331 427
331 860
331 406
331 878
331 357
331 759
331 426
331 863
331 920
331 926
331 967
331 571
332 906
332 685
332 519
332 659
332 744
332 761
332 797
332 800
332 811
332 818
332 832
332 348
332 862
332 358
332 368
332 884
332 378
332 919
332 953
332 454
332 975
332 458
333 521
333 785
333 790
333 807
333 689
333 733
333 767
333 612
333 782
333 335
333 474
333 752
333 541
333 848
333 983
333 796
333 971
333 494
334 844
334 701
334 746
334 863
334 749
335 782
335 785
335 790
335 541
335 467
335 736
335 890
335 494
336 904
336 571
336 586
336 637
336 646
336 682
336 686
336 742
336 770
336 779
336 809
336 918
336 373
337 536
337 551
337 554
337 561
337 451
337 532
337 431
337 819
337 608
337 866
337 636
337 405
337 548
338 630
338 516
338 627
338 716
338 758
338 794
338 972
338 452
338 549
338 366
338 369
338 886
338 407
338 464
338 485
338 492
339 529
339 530
339 567
339 719
339 846
339 685
339 509
339 732
339 481
339 360
339 412
339 425
339 479
339 506
339 803
339 484
340 535
340 589
340 606
340 666
340 684
340 698
340 756
340 812
340 814
340 820
340 838
340 860
340 867
340 371
340 406
340 920
340 415
340 967
340 995
341 519
341 555
341 659
341 744
341 800
341 811
341 813
341 454
341 436
341 931
341 503
341 923
341 954
341 399
341 426
341 815
341 365
341 499
341 378
341 927
341 970
341 477
341 449
341 765
341 404
341 952
341 438
341 581
341 817
341 343
341 616
341 348
341 975
341 442
341 720
341 660
341 485
341 606
341 884
341 408
341 953
341 995
342 756
342 528
342 609
342 721
342 758
342 794
342 996
342 516
342 886
342 390
342 673
342 395
342 548
342 716
342 579
342 369
342 912
342 502
342 689
342 869
342 464
342 981
342 492
342 603
342 705
342 932
343 558
343 676
343 519
343 555
343 659
343 688
343 744
343 773
343 800
343 818
343 348
343 358
343 919
343 413
343 927
343 438
343 953
343 442
343 454
343 975
343 723
344 415
344 794
344 441
344 975
344 783
344 644
344 598
344 517
344 351
344 361
344 629
344 642
344 424
344 434
344 950
345 650
345 661
345 615
345 397
345 402
345 623
345 562
346 586
346 779
346 783
346 924
346 566
346 723
346 853
346 956
346 587
346 842
346 418
346 516
346 726
346 381
347 536
347 805
347 551
347 561
347 565
347 574
347 839
347 843
347 431
347 697
347 636
347 608
347 630
347 866
347 558
347 451
347 659
347 519
347 400
347 375
347 440
347 974
347 927
347 619
347 568
348 377
348 555
348 659
348 744
348 761
348 797
348 811
348 818
348 826
348 498
348 873
348 952
348 365
348 404
348 442
348 913
348 502
348 413
348 358
348 975
348 616
348 927
348 432
348 511
348 438
348 929
348 740
348 973
348 923
348 765
348 436
348 581
348 368
348 385
348 380
348 862
348 958
348 780
348 399
348 832
348 503
348 884
348 379
348 408
348 688
348 648
348 426
348 773
348 817
348 931
348 499
348 970
348 954
348 911
348 730
348 646
348 962
348 361
348 527
348 919
348 454
349 665
349 518
349 775
349 784
349 801
349 556
349 563
349 570
349 959
349 760
349 714
349 691
349 374
349 903
349 965
349 757
349 613
349 725
349 391
349 668
349 974
349 743
349 510
349 813
349 956
350 920
350 655
350 414
350 855
350 764
350 619
350 493
350 362
350 747
350 808
350 896
350 911
350 841
351 534
351 598
351 950
351 361
351 629
351 455
351 987
351 487
351 424
351 700
351 626
351 434
351 642
351 734
351 648
351 942
351 951
352 591
352 593
352 595
352 637
352 638
352 646
352 718
352 770
352 779
352 809
352 356
352 918
352 501
353 524
353 908
353 672
353 679
353 602
353 611
353 613
353 876
353 633
353 400
353 622
353 894
354 516
354 548
354 579
354 721
354 794
354 627
354 485
354 915
354 996
354 716
354 673
354 857
354 869
354 464
354 972
354 912
354 492
354 462
354 528
354 886
354 648
354 584
354 781
354 868
354 366
354 369
354 395
354 407
354 452
354 507
354 718
354 418
355 452
355 564
355 568
355 592
355 690
355 722
355 738
355 786
355 841
355 386
355 925
355 433
355 949
355 488
355 501
356 469
356 571
356 573
356 586
356 593
356 637
356 638
356 646
356 742
356 779
356 809
356 748
356 682
356 595
356 667
356 918
356 580
356 901
356 858
356 798
356 770
356 694
356 703
356 938
356 708
356 591
356 919
356 732
356 706
356 565
356 463
356 511
356 534
357 862
357 523
357 522
357 575
357 585
357 641
357 644
357 671
357 730
357 777
357 877
357 885
357 398
357 401
357 964
357 547
358 469
358 867
358 519
358 648
358 688
358 740
358 744
358 800
358 811
358 813
358 818
358 832
358 954
358 432
358 913
358 780
358 555
358 825
358 368
358 931
358 884
358 498
358 773
358 953
358 797
358 502
358 958
358 365
358 449
358 379
358 385
358 873
358 477
358 503
358 917
358 581
358 442
358 973
358 952
358 426
358 378
358 436
358 911
358 616
358 927
358 537
358 429
358 499
358 862
358 399
358 483
358 975
358 830
358 995
358 380
358 746
358 485
358 992
358 573
358 777
358 919
358 408
358 413
358 454
359 628
359 660
359 796
359 387
359 888
359 607
359 874
359 851
359 635
359 372
359 643
359 631
359 783
359 852
359 887
359 433
360 529
360 530
360 795
360 481
360 999
360 506
360 883
360 683
360 687
360 741
360 732
360 567
360 412
360 685
360 509
360 846
360 930
360 479
360 697
360 766
360 964
360 786
361 779
361 956
361 517
361 534
361 598
361 424
361 681
361 950
361 642
361 434
361 487
361 626
361 987
361 720
361 629
361 942
361 700
361 951
361 726
361 877
361 707
362 646
362 896
362 655
362 808
362 855
362 493
362 619
362 764
363 557
363 572
363 701
363 835
363 603
363 749
363 364
363 726
363 844
363 503
363 625
363 413
363 497
364 794
364 557
364 835
364 746
364 484
365 555
365 761
365 811
365 813
365 818
365 832
365 970
365 438
365 429
365 954
365 414
365 686
365 884
365 927
365 454
365 975
365 995
365 644
365 402
366 516
366 609
366 627
366 676
366 721
366 758
366 854
366 520
366 886
366 411
366 996
366 390
366 915
366 981
366 787
366 485
366 394
366 452
366 377
366 369
366 370
366 972
366 968
366 849
366 857
366 789
366 548
366 673
366 579
366 716
366 863
366 464
366 528
366 794
366 533
366 993
366 430
366 912
366 986
366 504
366 462
366 668
366 983
366 823
366 697
366 395
366 407
366 960
366 492
366 507
366 990
367 606
367 666
367 684
367 698
367 699
367 756
367 812
367 814
367 820
367 838
367 860
367 864
367 867
367 600
367 417
367 647
367 415
367 926
367 491
367 416
367 893
367 463
367 871
367 772
367 488
367 371
367 906
367 920
367 933
367 427
367 967
367 979
367 988
367 492
368 570
368 519
368 688
368 744
368 761
368 765
368 811
368 818
368 826
368 659
368 503
368 927
368 873
368 970
368 813
368 797
368 929
368 502
368 537
368 817
368 644
368 619
368 856
368 378
368 953
368 454
368 837
368 950
369 698
369 933
369 967
369 528
369 721
369 794
369 504
369 886
369 854
369 394
369 868
369 430
369 981
369 915
369 863
369 462
369 960
369 411
369 395
369 993
369 972
369 849
369 673
369 857
369 986
369 492
369 485
369 533
369 716
369 464
369 516
369 758
369 407
369 377
369 370
369 996
369 579
369 676
369 609
369 548
369 452
369 627
369 520
369 789
369 869
369 787
369 390
369 970
369 727
369 952
369 828
369 903
369 375
369 507
369 646
370 530
370 579
370 609
370 627
370 721
370 758
370 869
370 507
370 972
370 934
370 915
370 464
370 968
370 794
370 673
370 716
370 857
370 492
370 407
370 520
370 849
370 411
370 854
370 986
370 377
370 430
370 960
370 516
370 528
370 390
370 886
370 394
370 985
370 734
370 875
370 395
370 462
370 512
371 606
371 666
371 670
371 684
371 699
371 756
371 814
371 824
371 838
371 860
371 867
371 420
371 906
371 933
371 617
371 920
371 446
371 833
371 647
371 600
371 881
371 427
371 463
371 376
371 601
371 935
371 698
371 384
371 834
371 383
371 988
371 634
371 829
371 415
371 864
371 403
371 921
371 473
371 599
371 977
371 417
371 897
371 893
371 491
371 808
371 472
371 903
371 769
371 909
371 967
371 407
371 598
372 442
372 660
372 796
372 851
372 607
372 373
372 643
372 888
372 387
372 631
372 810
372 411
372 635
372 639
372 755
373 551
373 884
373 523
373 387
373 823
373 635
373 660
373 643
373 631
373 888
373 639
374 609
374 801
374 804
374 556
374 563
374 990
374 441
374 743
374 691
374 959
374 709
374 775
374 614
374 974
374 714
374 391
374 948
374 861
374 510
374 729
374 377
374 668
374 468
375 532
375 536
375 551
375 565
375 839
375 843
375 451
375 917
375 636
375 809
376 535
376 599
376 606
376 698
376 756
376 812
376 814
376 820
376 824
376 860
376 867
376 650
376 909
376 920
376 926
376 933
376 427
376 428
376 967
376 627
377 475
377 516
377 627
377 721
377 758
377 868
377 869
377 548
377 787
377 996
377 716
377 609
377 673
377 830
377 744
377 395
377 407
377 462
377 464
377 986
377 993
377 485
377 523
377 663
378 494
378 555
378 659
378 740
378 744
378 800
378 811
378 826
378 832
378 884
378 761
378 379
378 436
378 502
378 426
378 817
378 929
378 498
378 919
378 873
378 970
378 830
378 813
378 913
378 931
378 975
378 503
378 537
378 773
378 454
378 601
378 942
378 619
378 393
378 623
378 413
378 438
378 953
378 995
378 774
378 419
379 519
379 744
379 761
379 797
379 811
379 832
379 862
379 783
379 615
379 380
379 919
379 408
379 413
379 454
379 975
379 995
379 655
380 744
380 761
380 813
380 832
380 648
380 818
380 811
380 973
380 408
380 773
380 672
380 919
380 413
380 927
380 953
380 995
381 535
381 956
381 837
381 715
381 853
382 824
382 520
382 515
382 772
382 393
382 396
382 527
382 658
382 778
382 939
382 582
382 728
382 387
382 426
383 606
383 666
383 698
383 699
383 756
383 812
383 814
383 820
383 838
383 860
383 867
383 904
383 906
383 406
383 920
383 921
383 933
383 935
383 428
383 967
383 465
383 988
383 760
383 618
384 535
384 546
384 606
384 684
384 698
384 756
384 814
384 824
384 838
384 860
384 867
384 427
384 845
384 897
384 634
384 875
384 500
384 829
384 810
384 403
384 980
384 463
384 428
384 417
384 820
384 920
384 656
384 482
384 906
384 415
384 933
384 967
384 979
384 988
385 519
385 555
385 744
385 811
385 826
385 873
385 919
385 408
385 413
385 442
385 454
385 950
386 824
386 564
386 568
386 618
386 690
386 722
386 727
386 736
386 738
386 841
386 793
386 592
386 569
386 900
386 422
386 656
386 786
386 645
386 542
386 946
386 755
386 657
386 653
386 604
386 514
386 922
386 456
386 460
386 437
386 607
386 784
386 967
386 925
386 433
386 949
386 488
386 501
387 807
387 588
387 427
387 873
387 643
387 635
387 874
387 660
387 851
387 887
387 631
387 639
388 769
388 711
388 588
388 540
388 680
388 821
388 573
388 945
388 859
388 668
389 475
389 706
389 649
389 985
389 496
389 577
389 443
389 549
389 695
390 606
390 609
390 627
390 721
390 758
390 794
390 868
390 869
390 395
390 407
390 464
390 485
390 492
390 705
391 606
391 801
391 563
391 570
391 861
391 997
391 714
391 974
391 784
391 614
391 691
391 775
391 803
391 965
391 729
391 468
391 435
391 733
391 668
391 990
391 743
391 510
391 688
392 776
392 692
392 489
392 751
392 592
392 984
392 947
392 882
393 536
393 632
393 515
393 989
393 781
393 778
393 772
393 728
393 963
393 396
393 939
393 766
393 490
393 525
393 654
393 658
393 550
393 447
393 582
394 532
394 883
394 528
394 533
394 627
394 676
394 716
394 758
394 794
394 849
394 868
394 395
394 407
394 452
394 462
394 464
394 981
394 485
394 772
394 557
394 746
394 671
394 410
395 533
395 627
395 676
395 758
395 794
395 886
395 789
395 492
395 981
395 854
395 915
395 868
395 609
395 673
395 721
395 430
395 960
395 528
395 986
395 485
395 507
395 972
395 968
395 472
395 437
395 532
395 487
395 499
395 452
395 777
395 877
396 939
396 538
396 895
396 550
396 654
396 527
396 525
396 799
396 515
396 781
396 989
396 583
396 658
396 772
396 522
396 441
396 778
396 582
397 454
397 402
397 891
397 661
397 615
397 755
398 599
398 977
398 523
398 575
398 620
398 644
398 669
398 705
398 730
398 850
398 877
398 885
398 531
398 964
398 457
398 578
398 754
398 497
398 969
398 707
398 713
398 401
398 940
398 774
398 590
398 480
398 419
398 991
398 505
398 448
398 453
398 423
398 956
398 468
398 702
398 952
398 844
399 907
399 752
399 519
399 581
399 616
399 648
399 744
399 818
399 884
399 413
399 927
399 931
399 953
399 442
399 454
399 975
399 995
399 962
400 524
400 908
400 633
400 856
400 602
400 672
400 739
400 916
400 876
400 745
400 611
400 613
400 622
401 864
401 406
401 523
401 531
401 575
401 578
401 628
401 669
401 707
401 730
401 754
401 877
401 885
401 544
401 932
401 777
401 735
401 774
401 964
401 466
401 955
401 505
401 497
401 585
401 644
401 472
401 624
401 453
401 991
401 713
401 419
401 671
401 936
401 448
401 457
401 961
401 944
401 620
401 674
401 994
401 971
401 696
401 969
401 850
401 590
401 458
401 914
401 459
401 966
401 737
401 423
401 940
401 731
401 480
401 641
401 941
401 733
401 890
401 478
401 708
402 935
402 661
402 891
402 623
402 562
402 615
403 535
403 589
403 601
403 666
403 698
403 756
403 814
403 824
403 834
403 860
403 867
403 906
403 406
403 920
403 921
403 926
403 415
403 933
403 427
403 428
403 967
404 782
404 537
404 555
404 581
404 616
404 659
404 688
404 744
404 811
404 813
404 818
404 832
404 712
404 845
404 919
404 408
404 927
404 953
404 975
404 995
405 532
405 536
405 551
405 565
405 839
405 608
405 976
405 697
405 561
405 469
405 554
405 558
405 905
405 930
405 431
405 482
406 535
406 589
406 606
406 666
406 684
406 698
406 756
406 812
406 814
406 820
406 834
406 867
406 906
406 933
406 473
406 838
406 699
406 909
406 897
406 415
406 810
406 898
406 446
406 980
406 881
406 829
406 824
406 967
406 416
406 920
406 500
406 833
406 600
406 875
406 546
406 902
406 491
406 845
406 904
406 988
406 463
406 470
406 601
406 943
406 428
406 599
406 634
406 831
406 647
406 915
406 954
406 442
406 816
406 981
406 921
406 935
406 465
406 979
406 886
406 811
407 812
407 814
407 530
407 520
407 528
407 579
407 627
407 716
407 721
407 758
407 849
407 869
407 886
407 504
407 492
407 912
407 854
407 968
407 868
407 533
407 485
407 996
407 915
407 676
407 548
407 609
407 863
407 986
407 516
407 794
407 673
407 972
407 934
407 507
407 452
407 430
407 411
407 464
407 917
407 933
407 635
407 480
407 960
407 735
408 801
408 555
408 581
408 659
408 744
408 780
408 813
408 832
408 919
408 502
408 688
408 826
408 477
408 449
408 817
408 483
408 815
408 825
408 499
408 498
408 958
408 953
408 519
408 923
408 952
408 426
408 800
408 797
408 616
408 931
408 457
408 544
408 790
408 747
408 561
408 413
408 436
408 454
408 995
409 427
409 721
409 518
409 905
409 662
409 725
409 508
409 791
409 549
409 717
409 762
409 889
409 565
409 611
410 771
410 431
410 516
410 886
410 564
410 568
410 592
410 690
410 722
410 736
410 738
410 922
410 466
410 925
410 949
410 488
410 501
411 533
411 548
411 609
411 721
411 758
411 485
411 492
411 507
412 530
412 795
412 846
412 883
412 665
412 687
412 509
412 529
412 741
412 479
412 719
412 685
412 481
412 999
412 732
412 506
412 486
412 683
412 567
412 425
412 982
412 638
412 461
413 701
413 519
413 555
413 744
413 800
413 818
413 826
413 862
413 832
413 438
413 811
413 502
413 813
413 873
413 498
413 927
413 780
413 454
413 941
413 825
413 773
413 817
413 581
413 426
413 797
413 499
413 432
413 952
413 761
413 609
413 972
413 601
413 461
413 442
413 975
413 995
414 816
414 896
414 764
414 619
414 493
414 872
414 808
414 545
415 532
415 535
415 599
415 606
415 666
415 699
415 756
415 812
415 814
415 834
415 838
415 867
415 920
415 810
415 860
415 893
415 617
415 845
415 601
415 465
415 416
415 446
415 698
415 906
415 903
415 930
415 933
415 427
415 967
415 948
416 546
416 634
416 666
416 756
416 838
416 860
416 864
416 867
416 898
416 906
416 920
416 921
416 926
416 933
416 967
416 673
416 707
416 754
416 877
417 599
417 606
417 666
417 684
417 698
417 756
417 810
417 814
417 824
417 834
417 838
417 867
417 906
417 909
417 422
417 933
417 935
417 428
417 967
417 465
417 988
418 542
418 592
418 618
418 690
418 722
418 727
418 736
418 738
418 841
418 922
418 484
418 490
418 663
418 993
418 478
418 488
419 523
419 575
419 585
419 590
419 644
419 730
419 735
419 877
419 885
419 936
419 480
419 651
419 969
419 712
419 459
419 696
419 957
419 669
419 458
419 641
419 940
419 472
419 754
419 707
419 994
419 671
419 932
419 448
419 423
419 966
419 910
419 650
419 499
420 589
420 617
420 666
420 670
420 684
420 756
420 814
420 820
420 838
420 867
420 897
420 920
420 926
420 933
420 935
420 428
420 967
420 977
420 465
420 527
421 596
421 871
421 439
421 702
421 872
421 822
421 753
421 865
421 880
421 878
421 881
421 461
421 476
422 898
422 568
422 690
422 722
422 738
422 755
422 841
422 949
422 501
423 778
423 572
423 975
423 523
423 575
423 628
423 669
423 730
423 877
423 885
423 964
424 933
424 688
424 517
424 626
424 681
424 455
424 434
424 987
424 693
424 825
424 942
424 951
425 530
425 567
425 883
425 665
425 529
425 930
425 486
425 999
425 479
425 687
425 685
425 719
425 481
425 732
425 884
425 712
425 564
426 571
426 519
426 659
426 744
426 761
426 811
426 813
426 873
426 919
426 927
426 432
426 616
426 499
426 913
426 504
426 606
426 953
426 454
426 850
427 467
427 561
427 535
427 546
427 589
427 600
427 606
427 647
427 666
427 698
427 756
427 812
427 814
427 838
427 906
427 920
427 926
427 933
427 935
427 446
427 875
427 864
427 810
427 881
427 893
427 599
427 988
427 463
427 902
427 867
427 470
427 601
427 834
427 824
427 833
427 475
427 613
427 574
427 967
427 977
427 523
427 925
428 535
428 546
428 589
428 606
428 666
428 756
428 814
428 834
428 838
428 864
428 906
428 926
428 933
428 935
428 967
428 820
428 909
428 599
428 977
428 875
428 617
428 600
428 902
428 810
428 898
428 831
428 829
428 634
428 953
428 452
428 587
428 988
428 683
428 797
429 581
429 744
429 761
429 813
429 826
429 919
429 927
429 442
429 917
429 868
429 454
429 964
429 592
430 908
430 548
430 579
430 627
430 676
430 721
430 794
430 452
430 986
430 485
430 492
430 507
431 536
431 551
431 554
431 558
431 561
431 839
431 843
431 608
431 866
431 630
431 440
431 805
431 976
431 889
432 555
432 581
432 761
432 780
432 800
432 811
432 818
432 832
432 438
432 511
432 931
432 817
432 825
432 483
432 448
432 454
432 995
432 544
432 575
433 446
433 862
433 457
433 564
433 690
433 722
433 736
433 786
433 841
433 946
433 750
433 444
433 542
433 559
433 501
433 460
433 657
433 488
433 435
433 849
433 999
433 986
433 478
434 756
434 746
434 598
434 629
434 642
434 681
434 534
434 693
434 734
434 517
434 710
434 950
435 778
435 975
435 564
435 568
435 618
435 645
435 653
435 722
435 736
435 738
435 755
435 786
435 841
435 900
435 925
435 949
435 460
435 488
436 591
436 637
436 537
436 659
436 800
436 919
436 927
436 832
436 818
436 830
436 746
436 953
436 454
436 995
437 564
437 592
437 722
437 736
437 738
437 786
437 841
437 922
437 949
437 484
437 488
437 501
438 601
438 555
438 659
438 688
438 744
438 797
438 800
438 818
438 826
438 832
438 927
438 813
438 773
438 811
438 954
438 483
438 740
438 941
438 960
438 904
438 932
438 953
438 454
438 995
439 834
439 822
439 878
439 476
439 872
439 710
439 753
439 865
439 518
439 461
439 880
440 805
440 561
440 843
440 839
440 551
440 866
440 819
440 976
440 469
440 636
440 507
440 533
440 627
440 758
440 896
441 609
441 775
441 801
441 803
441 804
441 563
441 965
441 468
441 743
441 510
442 981
442 519
442 555
442 581
442 659
442 744
442 811
442 813
442 826
442 919
442 953
442 954
442 818
442 499
442 449
442 952
442 677
442 454
442 995
442 671
443 649
443 695
443 706
443 985
443 496
443 606
443 849
443 671
444 717
444 885
444 497
444 514
444 542
444 568
444 592
444 656
444 690
444 722
444 736
444 786
444 841
444 488
444 501
445 894
445 816
445 514
445 569
445 618
445 690
445 722
445 736
445 738
445 755
445 841
445 922
445 949
445 488
446 535
446 589
446 599
446 606
446 647
446 666
446 684
446 756
446 812
446 814
446 838
446 867
446 893
446 902
446 920
446 921
446 926
446 933
446 935
446 491
446 777
446 852
446 967
446 465
446 979
446 988
447 515
447 525
447 527
447 658
447 550
447 582
447 778
447 654
447 781
447 963
447 538
447 782
447 728
447 995
448 860
448 864
448 685
448 523
448 575
448 644
448 671
448 669
448 705
448 730
448 754
448 777
448 850
448 885
448 497
449 838
449 555
449 659
449 740
449 744
449 800
449 818
449 873
449 927
449 454
449 975
449 995
450 509
450 822
450 702
450 476
450 865
450 753
450 872
450 461
450 878
450 871
450 710
450 900
450 829
450 596
450 880
450 642
450 653
450 690
451 532
451 536
451 554
451 558
451 819
451 574
451 839
451 608
451 866
451 621
452 533
452 579
452 627
452 721
452 758
452 794
452 854
452 886
452 968
452 516
452 863
452 609
452 972
452 673
452 912
452 464
452 485
452 993
452 548
452 986
452 960
452 964
452 512
452 462
453 546
453 523
453 575
453 578
453 585
453 590
453 620
453 624
453 628
453 644
453 671
453 669
453 707
453 735
453 774
453 850
453 877
453 885
453 457
453 458
453 497
454 492
454 555
454 688
454 744
454 800
454 811
454 813
454 818
454 862
454 873
454 884
454 919
454 973
454 740
454 761
454 941
454 995
454 503
454 483
454 616
454 773
454 826
454 913
454 825
454 817
454 929
454 477
454 975
454 931
454 537
454 519
454 502
454 780
454 830
454 970
454 511
454 917
454 560
454 566
454 460
454 847
455 462
455 931
455 458
455 534
455 598
455 629
455 642
455 942
455 734
455 487
455 596
455 691
456 458
456 542
456 559
456 564
456 569
456 592
456 618
456 645
456 653
456 722
456 727
456 736
456 738
456 949
456 488
456 501
457 523
457 544
457 575
457 585
457 620
457 671
457 705
457 777
457 877
457 971
457 914
457 885
457 957
457 932
457 731
457 991
457 712
457 628
457 641
457 497
457 644
457 459
457 851
457 767
457 879
457 458
457 788
458 549
458 523
458 575
458 585
458 644
458 671
458 674
458 712
458 735
458 754
458 774
458 777
458 850
458 932
458 964
458 910
458 737
458 731
458 466
458 620
458 944
458 707
458 994
458 459
458 730
458 940
458 497
458 544
458 472
458 590
458 936
458 480
458 628
458 641
458 961
458 505
458 624
458 955
458 879
458 672
458 617
458 750
459 579
459 854
459 586
459 523
459 544
459 575
459 671
459 705
459 707
459 774
459 777
459 850
459 877
459 885
460 515
460 773
460 564
460 568
460 690
460 722
460 738
460 788
460 841
460 922
460 925
460 514
460 604
460 867
460 488
461 933
461 702
461 710
461 822
461 476
461 865
461 871
461 753
461 880
462 608
462 795
462 516
462 533
462 548
462 579
462 609
462 627
462 716
462 721
462 758
462 794
462 868
462 886
462 849
462 676
462 789
462 787
462 972
462 968
462 912
462 863
462 530
462 671
462 759
462 485
462 492
462 507
462 784
462 501
463 535
463 606
463 666
463 698
463 756
463 814
463 824
463 838
463 867
463 906
463 909
463 920
463 926
463 967
463 932
463 497
464 982
464 516
464 528
464 609
464 627
464 716
464 721
464 758
464 794
464 886
464 868
464 869
464 789
464 548
464 533
464 972
464 492
464 787
464 986
464 863
464 485
464 993
464 676
464 673
464 960
464 934
464 990
464 822
464 896
464 507
465 535
465 601
465 606
465 617
465 684
465 699
465 756
465 812
465 814
465 824
465 834
465 838
465 864
465 867
465 909
465 920
465 933
465 935
465 967
465 977
465 979
465 634
465 589
465 833
465 881
465 600
465 879
465 943
465 670
465 980
465 860
465 470
465 703
465 972
465 911
465 725
465 839
465 574
465 988
465 718
465 919
466 752
466 658
466 931
466 523
466 544
466 575
466 590
466 620
466 644
466 669
466 707
466 712
466 730
466 735
466 754
466 877
466 885
467 521
467 526
467 782
467 785
467 790
467 541
467 890
467 873
467 471
467 475
467 992
467 494
467 752
468 666
468 718
468 775
468 801
468 556
468 570
468 861
468 668
468 974
468 948
468 804
468 965
468 990
468 563
468 743
468 709
468 584
468 760
468 823
468 905
468 510
469 536
469 805
469 551
469 554
469 561
469 565
469 839
469 608
469 866
469 533
470 546
470 589
470 606
470 684
470 698
470 756
470 812
470 824
470 838
470 864
470 867
470 906
470 909
470 920
470 967
471 521
471 526
471 782
471 790
471 890
471 552
471 807
471 474
471 494
471 475
471 857
471 961
471 546
472 613
472 988
472 523
472 575
472 628
472 644
472 671
472 705
472 731
472 754
472 877
472 885
472 932
472 881
472 497
473 589
473 606
473 684
473 698
473 756
473 812
473 814
473 824
473 834
473 838
473 867
473 898
473 906
473 920
473 926
473 933
473 967
473 988
473 639
473 605
474 771
474 521
474 782
474 790
474 890
474 675
474 752
474 552
474 526
474 475
474 785
474 612
474 541
474 992
474 822
474 670
475 782
475 785
475 790
475 890
475 848
475 526
475 612
475 552
475 733
475 502
475 992
475 494
476 824
476 702
476 710
476 596
476 872
476 878
476 880
477 902
477 835
477 519
477 761
477 765
477 813
477 818
477 862
477 873
477 919
477 927
477 975
477 585
478 834
478 559
478 568
478 569
478 656
478 690
478 722
478 738
478 786
478 841
478 922
478 925
478 949
478 490
478 482
478 755
478 721
478 532
478 547
479 530
479 795
479 846
479 883
479 506
479 567
479 529
479 982
479 850
479 710
479 481
479 486
480 710
480 523
480 522
480 575
480 578
480 590
480 644
480 671
480 707
480 735
480 777
480 877
480 885
480 964
480 497
480 505
480 493
481 530
481 567
481 846
481 883
481 665
481 732
481 509
481 506
481 529
481 719
481 685
481 930
481 999
481 687
481 741
481 486
481 560
481 927
481 549
481 744
482 715
482 564
482 690
482 722
482 727
482 738
482 786
482 900
482 925
482 949
482 841
482 569
482 510
482 901
482 488
483 519
483 744
483 761
483 797
483 800
483 813
483 826
483 832
483 884
483 919
483 927
483 995
483 664
483 523
484 754
484 568
484 653
484 690
484 722
484 736
484 786
484 841
484 900
484 949
484 738
484 490
484 559
484 488
484 724
484 604
484 618
484 922
484 592
484 750
484 542
484 788
484 847
484 598
485 528
485 533
485 609
485 627
485 758
485 794
485 868
485 886
485 507
485 968
485 915
485 993
485 857
485 981
485 960
485 504
485 721
485 912
485 787
485 986
485 673
485 548
485 863
485 579
485 996
485 676
485 972
485 520
485 934
485 716
485 516
485 849
485 889
485 838
485 518
485 810
485 679
485 492
486 530
486 846
486 883
486 685
486 741
486 529
486 567
486 683
486 982
486 687
486 886
486 504
486 716
486 975
487 861
487 534
487 626
487 629
487 642
487 942
488 927
488 497
488 505
488 564
488 568
488 592
488 722
488 727
488 736
488 738
488 786
488 841
488 900
488 922
488 925
488 793
488 657
488 645
488 501
488 978
488 847
488 569
488 788
488 542
488 949
488 750
488 724
488 618
488 653
488 514
488 755
488 937
488 490
488 817
488 632
488 815
488 539
488 712
489 812
489 984
489 692
489 947
489 776
489 882
489 663
489 751
489 865
490 536
490 574
490 741
490 927
490 592
490 604
490 722
490 736
490 738
490 786
490 841
490 900
490 922
490 949
490 501
490 512
491 535
491 599
491 606
491 698
491 699
491 756
491 812
491 820
491 838
491 864
491 867
491 904
491 906
491 909
491 920
491 933
491 935
491 779
491 505
492 520
492 609
492 627
492 676
492 721
492 758
492 794
492 854
492 868
492 886
492 912
492 972
492 981
492 857
492 787
492 507
492 533
492 673
492 548
492 915
492 516
492 528
492 869
492 789
492 579
492 849
492 993
492 986
492 504
492 937
492 774
492 844
492 497
493 655
493 808
493 747
493 619
494 785
494 790
494 807
494 612
494 675
494 992
494 541
494 890
494 771
494 689
494 848
494 752
494 767
494 733
494 831
494 867
494 579
494 927
494 553
495 547
495 576
495 836
495 899
495 663
495 704
495 998
495 757
495 840
495 512
495 828
495 545
495 763
495 962
495 610
495 792
495 664
495 513
495 827
495 553
496 649
496 695
496 577
496 706
496 589
497 967
497 523
497 575
497 628
497 644
497 696
497 712
497 735
497 877
497 885
497 932
497 705
497 971
497 669
497 969
497 964
497 737
497 994
497 505
497 624
497 671
497 674
497 730
497 777
497 944
497 991
497 544
497 957
497 585
497 522
497 955
497 592
498 519
498 659
498 744
498 826
498 830
498 832
498 873
498 927
498 995
499 519
499 555
499 581
499 688
499 744
499 761
499 780
499 811
499 813
499 826
499 832
499 884
499 919
499 927
499 995
500 535
500 698
500 756
500 814
500 838
500 860
500 867
500 902
500 909
500 920
500 926
500 967
500 988
501 559
501 592
501 618
501 645
501 690
501 722
501 736
501 841
501 946
501 568
501 949
501 605
501 755
501 656
501 653
501 978
501 738
501 604
501 925
501 922
501 514
501 542
501 937
501 793
501 657
501 564
501 569
501 900
501 750
501 788
501 847
501 724
501 907
501 674
502 581
502 688
502 744
502 761
502 773
502 811
502 813
502 826
502 884
502 919
502 953
502 975
502 995
503 714
503 659
503 688
503 744
503 800
503 811
503 813
503 919
503 975
503 995
504 611
504 756
504 520
504 627
504 794
504 854
504 868
504 886
504 949
505 523
505 575
505 578
505 628
505 671
505 669
505 705
505 735
505 754
505 777
505 964
505 674
505 850
505 774
505 737
505 712
505 651
505 713
505 910
505 991
505 731
505 602
505 658
506 530
506 567
506 846
506 883
506 685
506 719
506 732
506 665
506 930
506 982
506 810
506 509
507 843
507 893
507 520
507 533
507 609
507 627
507 673
507 676
507 716
507 721
507 758
507 794
507 849
507 854
507 869
507 993
507 986
507 787
507 863
507 857
507 968
507 915
507 789
507 959
507 525
507 588
508 867
508 518
508 905
508 662
508 928
508 549
508 717
508 539
508 725
508 641
509 530
509 567
509 883
509 665
509 685
509 534
509 922
510 801
510 556
510 563
510 570
510 965
510 714
510 990
510 997
510 743
510 760
510 861
510 614
510 668
510 584
510 691
510 804
510 775
510 903
510 959
510 709
510 914
510 701
511 519
511 555
511 744
511 813
511 818
511 826
511 919
511 953
511 975
511 756
512 800
512 962
512 763
512 545
512 625
512 836
512 998
512 547
512 827
512 576
513 684
513 849
513 809
513 691
513 899
513 664
513 886
513 547
513 553
513 828
513 576
513 836
513 704
513 962
513 998
514 933
514 564
514 657
514 568
514 645
514 724
514 755
514 937
514 900
514 978
514 604
514 847
514 569
514 618
514 690
514 722
514 736
514 738
514 925
514 949
515 538
515 658
515 989
515 895
515 778
515 527
515 583
515 582
515 678
515 525
515 550
515 939
515 728
515 842
516 981
516 789
516 787
516 548
516 579
516 533
516 721
516 758
516 794
516 868
516 686
517 681
517 700
517 734
517 626
517 598
517 987
517 951
517 693
517 720
517 856
517 942
517 950
517 568
518 677
518 889
518 539
518 892
518 816
518 905
518 662
518 632
518 762
518 791
518 725
518 717
518 549
518 577
518 807
518 765
519 920
519 975
519 818
519 688
519 931
519 884
519 873
519 927
519 616
519 826
519 825
519 740
519 911
519 973
519 659
519 953
519 954
519 815
519 923
519 800
519 929
519 811
519 797
519 817
519 919
519 917
519 640
519 795
519 754
519 979
519 902
519 937
519 555
519 744
519 813
519 832
519 995
520 794
520 869
520 758
520 863
520 533
520 915
520 673
520 627
520 676
520 721
520 854
520 868
520 886
521 771
521 689
521 752
521 552
521 612
521 848
521 726
521 782
521 785
521 541
521 807
521 983
521 992
522 523
522 651
522 731
522 671
522 944
522 737
522 914
522 754
522 850
522 620
522 696
522 966
522 628
522 885
522 877
522 680
522 593
522 575
522 578
522 585
522 590
522 644
522 707
522 735
522 932
523 543
523 637
523 624
523 531
523 696
523 969
523 735
523 651
523 991
523 955
523 774
523 707
523 731
523 669
523 957
523 544
523 850
523 644
523 777
523 940
523 914
523 674
523 713
523 932
523 910
523 966
523 628
523 877
523 641
523 671
523 575
523 620
523 964
523 590
523 737
523 578
523 885
523 585
523 971
523 712
523 730
523 821
523 612
523 754
524 876
524 856
524 916
524 672
524 633
524 611
524 745
524 622
524 812
524 712
525 548
525 799
525 728
525 781
525 527
525 658
525 778
525 939
525 582
525 957
526 807
526 983
526 785
526 771
526 790
526 890
526 689
526 992
526 752
527 778
527 989
527 728
527 772
527 939
527 654
527 852
527 538
527 727
527 658
527 963
527 582
527 844
527 659
527 931
527 953
528 609
528 579
528 981
528 993
528 912
528 857
528 627
528 676
528 758
528 854
528 869
529 982
529 567
529 685
529 683
529 530
529 846
529 637
529 795
529 883
529 732
529 974
529 922
530 551
530 685
530 999
530 741
530 883
530 567
530 930
530 982
530 795
530 719
530 979
530 846
530 813
530 656
531 893
531 869
531 549
531 735
531 932
531 713
531 628
531 575
531 578
531 585
531 644
531 707
531 777
531 877
531 885
531 626
532 554
532 636
532 697
532 819
532 565
532 561
532 839
532 536
532 551
532 558
532 608
532 919
533 869
533 627
533 934
533 789
533 993
533 758
533 868
533 972
533 863
533 849
533 996
533 981
533 794
533 960
533 854
533 886
533 673
533 579
533 609
533 721
534 667
534 987
534 734
534 629
534 720
534 636
534 598
534 642
534 942
534 951
534 788
535 933
535 921
535 666
535 980
535 879
535 812
535 606
535 699
535 829
535 906
535 838
535 824
535 977
535 684
535 589
535 875
535 845
535 926
535 617
535 814
535 897
535 860
535 599
535 634
535 834
535 546
535 601
535 756
535 629
535 937
535 600
535 698
535 867
535 898
535 920
535 967
535 988
536 976
536 636
536 554
536 621
536 843
536 608
536 839
536 574
536 819
536 805
536 561
536 866
536 565
536 630
536 551
536 772
536 606
536 573
536 558
536 708
536 722
537 995
537 927
537 960
537 581
537 688
537 761
537 773
537 797
537 800
537 811
537 813
537 817
537 826
537 975
537 777
537 940
538 654
538 658
538 781
538 799
538 778
538 550
538 939
538 661
539 662
539 791
539 677
539 928
539 717
539 889
539 960
539 816
539 762
540 769
540 680
540 588
540 945
540 821
540 859
541 782
541 785
541 552
541 992
541 790
541 890
541 602
541 976
541 814
541 918
541 925
542 882
542 724
542 841
542 978
542 618
542 900
542 564
542 656
542 788
542 925
542 657
542 782
542 827
542 569
542 592
542 604
542 690
542 722
542 786
542 922
542 949
543 768
543 907
543 652
543 766
543 870
543 759
543 806
544 850
544 936
544 671
544 774
544 940
544 713
544 651
544 674
544 941
544 578
544 585
544 644
544 696
544 712
544 735
544 754
544 877
544 885
545 792
545 610
545 757
545 962
545 704
545 998
545 763
545 663
545 827
545 664
545 667
545 547
545 828
546 666
546 864
546 599
546 893
546 909
546 634
546 881
546 601
546 906
546 902
546 812
546 943
546 684
546 606
546 933
546 926
546 867
546 600
546 833
546 695
546 756
546 814
546 824
546 838
546 920
546 935
546 967
546 977
546 988
547 836
547 757
547 792
547 962
547 840
547 576
547 899
547 553
547 828
547 663
547 704
547 998
547 763
547 610
547 827
547 875
548 771
548 673
548 972
548 993
548 787
548 868
548 912
548 981
548 934
548 996
548 986
548 960
548 863
548 849
548 789
548 609
548 627
548 676
548 716
548 721
548 758
548 794
548 886
548 618
549 905
549 662
549 791
549 816
549 717
549 677
549 762
550 839
550 864
550 658
550 778
550 895
550 772
550 728
550 852
550 989
550 799
550 654
550 583
551 805
551 839
551 554
551 976
551 819
551 866
551 558
551 574
551 630
551 621
551 843
551 561
551 697
551 797
551 608
552 771
552 782
552 785
552 790
552 807
552 848
552 890
552 752
552 841
552 949
553 625
553 899
553 998
553 828
553 792
553 757
553 763
553 616
553 679
553 827
553 576
554 805
554 561
554 574
554 843
554 729
554 780
554 608
554 621
555 817
555 780
555 815
555 952
555 941
555 917
555 884
555 811
555 970
555 953
555 648
555 911
555 761
555 973
555 773
555 832
555 688
555 825
555 923
555 616
555 818
555 659
555 873
555 607
555 721
555 801
555 894
555 744
555 800
555 813
555 995
556 775
556 784
556 801
556 948
556 990
556 803
556 804
556 651
556 602
556 563
556 570
556 861
556 668
556 714
556 974
556 743
556 760
557 844
557 701
557 560
557 726
557 835
557 603
557 746
557 749
557 661
558 636
558 561
558 608
558 565
558 630
559 594
559 868
559 901
559 760
559 690
559 922
559 964
559 564
559 568
559 592
559 618
559 727
559 736
559 841
559 925
559 949
559 836
560 726
560 835
560 749
560 603
560 728
560 572
560 844
560 746
560 951
560 653
561 565
561 819
561 697
561 608
561 788
561 866
562 698
562 658
562 591
562 650
562 661
562 623
563 613
563 804
563 760
563 965
563 861
563 584
563 714
563 803
563 997
563 570
563 668
563 990
563 614
563 729
563 784
563 691
563 801
563 743
563 903
563 892
563 974
564 690
564 605
564 922
564 618
564 736
564 949
564 569
564 750
564 900
564 793
564 946
564 722
564 568
564 978
564 727
564 592
564 653
564 724
564 738
564 841
564 657
564 937
564 925
564 847
564 720
564 997
564 776
565 805
565 697
565 636
565 839
565 866
565 819
565 969
565 690
565 608
565 631
566 983
566 783
566 924
566 715
566 597
566 723
566 587
566 842
566 837
566 920
567 795
567 685
567 732
567 687
567 719
567 665
567 741
567 651
567 883
568 762
568 847
568 978
568 727
568 841
568 690
568 786
568 569
568 750
568 937
568 946
568 722
568 987
568 618
568 653
568 738
568 900
568 922
568 949
568 664
569 847
569 949
569 645
569 922
569 727
569 738
569 618
569 788
569 724
569 755
569 852
569 867
569 592
569 604
569 653
569 690
569 722
569 736
569 786
569 841
569 925
570 801
570 729
570 861
570 709
570 903
570 959
570 990
570 584
570 948
570 965
570 974
570 831
570 743
570 844
571 694
571 770
571 858
571 718
571 798
571 686
571 591
571 593
571 708
571 918
571 667
571 742
571 646
571 637
571 595
571 802
571 682
571 678
571 938
571 586
571 703
571 779
571 930
571 640
571 901
571 744
572 701
572 844
572 749
572 835
572 746
573 918
573 686
573 779
573 591
573 586
573 802
573 595
573 667
573 640
573 648
573 637
573 646
573 809
573 901
574 839
574 630
574 843
574 866
574 579
574 836
575 636
575 944
575 674
575 578
575 707
575 932
575 651
575 669
575 735
575 971
575 914
575 850
575 731
575 964
575 644
575 940
575 754
575 961
575 885
575 991
575 730
575 620
575 994
575 641
575 624
575 737
575 936
575 955
575 585
575 966
575 712
575 671
575 628
575 877
575 713
575 696
575 983
575 697
575 803
575 926
575 596
575 777
576 770
576 827
576 828
576 625
576 836
576 664
576 998
576 757
576 763
576 663
576 616
576 885
577 649
577 706
577 695
577 985
578 762
578 801
578 651
578 641
578 712
578 628
578 735
578 624
578 671
578 774
578 674
578 944
578 620
578 644
578 590
578 961
578 914
578 963
578 786
578 775
578 782
578 736
578 585
578 705
578 730
578 754
578 777
578 877
578 885
578 964
579 915
579 981
579 849
579 996
579 886
579 912
579 673
579 960
579 986
579 609
579 721
579 758
579 794
579 736
580 779
580 858
580 718
580 802
580 638
580 586
580 593
580 595
580 646
580 770
580 798
580 809
580 901
580 918
580 763
581 684
581 923
581 740
581 873
581 817
581 826
581 659
581 744
581 813
581 818
581 832
581 884
581 953
582 634
582 889
582 658
582 963
582 852
582 989
582 799
582 939
582 583
582 895
582 778
582 720
582 716
582 894
582 728
583 772
583 654
583 658
583 778
583 939
583 852
583 777
583 942
584 984
584 784
584 709
584 729
584 803
584 861
584 668
584 691
584 714
584 743
585 651
585 644
585 885
585 737
585 777
585 932
585 991
585 994
585 774
585 969
585 712
585 713
585 641
585 628
585 995
585 671
585 754
585 850
585 877
586 646
586 637
586 667
586 591
586 640
586 682
586 798
586 694
586 901
586 779
586 938
586 708
586 918
586 595
586 665
586 686
586 742
586 809
587 608
587 783
587 956
587 837
587 653
587 723
588 711
588 680
588 945
588 769
588 821
588 859
589 600
589 897
589 834
589 820
589 829
589 980
589 935
589 824
589 906
589 810
589 879
589 933
589 926
589 647
589 684
589 898
589 932
589 795
589 984
589 606
589 698
589 756
589 838
589 867
589 902
589 909
589 920
589 967
589 977
589 979
589 794
589 620
589 669
590 676
590 644
590 955
590 966
590 735
590 940
590 914
590 825
590 620
590 730
590 754
590 777
590 877
590 885
590 932
591 890
591 682
591 595
591 938
591 703
591 640
591 742
591 809
591 593
591 678
591 918
591 686
591 667
591 770
591 858
591 666
591 637
591 638
591 646
591 718
591 779
592 618
592 727
592 786
592 788
592 949
592 657
592 793
592 925
592 978
592 645
592 738
592 900
592 841
592 724
592 654
592 722
592 828
593 901
593 686
593 858
593 595
593 667
593 742
593 938
593 708
593 703
593 798
593 770
593 802
593 718
593 694
593 678
593 637
593 942
593 765
593 720
593 946
593 640
593 748
593 779
593 809
593 671
594 768
594 907
594 870
594 766
594 806
594 759
594 953
595 981
595 938
595 686
595 798
595 694
595 918
595 640
595 802
595 648
595 845
595 637
595 718
595 809
595 901
596 758
596 869
596 702
596 710
596 865
596 822
596 753
596 871
596 694
596 872
596 878
596 880
597 988
597 783
597 837
597 842
597 723
597 853
597 864
598 734
598 951
598 942
598 700
598 720
598 629
598 642
599 859
599 672
599 617
599 820
599 935
599 988
599 833
599 814
599 904
599 879
599 699
599 875
599 647
599 921
599 867
599 812
599 606
599 831
599 684
599 698
599 756
599 834
599 838
599 860
599 898
599 906
599 920
599 933
599 979
599 885
600 916
600 606
600 684
600 698
600 756
600 814
600 824
600 838
600 867
600 920
600 933
600 979
600 730
601 897
601 935
601 875
601 943
601 977
601 712
601 670
601 684
601 698
601 756
601 812
601 820
601 824
601 838
601 860
601 867
601 902
601 906
601 920
601 926
601 933
601 967
601 988
601 658
601 779
601 642
602 908
602 672
602 679
602 856
602 739
602 622
602 613
602 745
603 701
603 835
603 844
603 746
603 749
604 920
604 710
604 642
604 618
604 657
604 645
604 736
604 972
604 605
604 722
604 738
604 786
604 922
605 684
605 925
605 949
605 690
605 722
605 727
605 736
605 738
605 755
605 786
605 841
605 922
606 699
606 988
606 617
606 898
606 967
606 834
606 977
606 879
606 875
606 909
606 943
606 897
606 881
606 893
606 670
606 647
606 810
606 824
606 829
606 666
606 698
606 820
606 812
606 980
606 831
606 921
606 926
606 684
606 979
606 935
606 838
606 904
606 833
606 864
606 756
606 933
606 649
606 728
606 814
606 867
606 902
606 920
606 627
606 942
607 660
607 796
607 823
607 888
607 639
607 887
607 643
607 635
607 874
607 831
607 631
608 805
608 839
608 697
608 630
608 976
608 843
608 819
608 824
608 993
608 941
608 645
609 857
609 627
609 721
609 972
609 996
609 869
609 912
609 934
609 789
609 968
609 948
609 622
609 758
609 794
609 849
609 854
610 792
610 914
610 704
610 998
611 908
611 672
611 916
611 856
611 876
611 745
611 633
611 613
611 622
612 771
612 782
612 785
612 790
612 807
612 675
612 765
612 890
612 983
612 992
612 684
613 908
613 679
613 856
613 633
613 622
613 876
613 916
613 672
613 739
613 745
613 894
613 898
613 967
613 818
614 617
614 775
614 784
614 801
614 965
614 714
614 990
614 743
614 877
615 661
615 681
616 988
616 929
616 797
616 995
616 648
616 830
616 919
616 941
616 817
616 917
616 784
616 688
616 744
616 761
616 826
616 832
616 931
616 975
616 645
617 881
617 666
617 698
617 814
617 824
617 834
617 867
617 904
617 920
617 926
617 933
617 935
617 967
617 988
618 824
618 884
618 786
618 724
618 722
618 847
618 925
618 900
618 736
618 949
618 656
618 657
618 750
618 946
618 690
618 715
618 897
618 727
618 755
618 841
618 922
619 988
619 885
619 896
619 855
619 747
619 887
620 979
620 651
620 877
620 669
620 674
620 932
620 966
620 705
620 944
620 931
620 942
620 707
620 735
620 964
621 805
621 843
621 866
621 630
621 819
621 701
621 995
622 908
622 916
622 679
622 739
622 876
622 894
622 745
623 675
623 867
623 718
623 659
623 661
624 784
624 873
624 707
624 994
624 671
624 669
624 730
624 735
624 877
624 885
624 932
625 792
625 827
625 836
625 899
625 774
625 704
625 962
626 734
626 642
626 950
627 716
627 758
627 960
627 915
627 912
627 996
627 673
627 972
627 721
627 849
627 854
627 986
627 676
627 857
627 968
627 787
627 975
627 818
627 794
627 868
627 869
627 886
628 698
628 774
628 651
628 966
628 991
628 696
628 961
628 932
628 914
628 754
628 641
628 885
628 944
628 671
628 669
628 777
628 850
628 964
629 935
629 877
629 693
629 942
629 734
629 700
629 720
629 951
629 773
629 959
630 805
630 866
630 819
630 741
631 698
631 756
631 660
631 874
631 887
631 643
631 635
631 639
631 851
631 823
631 658
632 867
632 960
632 905
632 791
632 928
632 816
632 922
633 908
633 916
633 745
633 876
633 894
633 756
633 868
633 798
634 699
634 698
634 838
634 812
634 920
634 864
634 756
634 824
634 867
634 904
634 933
634 967
634 988
635 643
635 660
635 823
635 887
635 639
635 796
635 851
635 738
636 976
636 839
636 759
636 670
636 826
636 957
637 667
637 718
637 640
637 748
637 694
637 686
637 802
637 858
637 742
637 703
637 938
637 638
637 798
637 918
637 901
637 646
637 809
637 708
637 770
637 682
637 786
638 770
638 925
638 640
638 646
638 682
638 779
638 809
638 995
639 643
639 851
639 888
639 887
639 874
639 660
639 796
639 823
639 900
640 678
640 770
640 646
640 918
640 798
640 748
640 669
640 968
640 718
640 779
640 809
640 901
640 962
641 897
641 885
641 966
641 865
641 671
641 669
641 705
641 731
641 754
641 777
642 768
642 809
642 951
642 720
642 681
642 693
642 987
642 942
642 736
643 874
643 888
643 919
644 944
644 730
644 885
644 735
644 969
644 994
644 705
644 674
644 914
644 669
644 910
644 731
644 955
644 671
644 750
644 726
644 754
644 850
644 877
644 932
644 722
645 656
645 793
645 786
645 755
645 788
645 736
645 946
645 922
645 690
645 722
645 727
645 841
645 925
645 949
646 981
646 678
646 798
646 667
646 742
646 686
646 938
646 682
646 748
646 918
646 901
646 694
646 703
646 779
646 809
646 708
646 858
646 770
646 880
646 829
646 718
646 884
646 777
647 814
647 921
647 980
647 855
647 666
647 698
647 699
647 756
647 838
647 864
647 867
647 909
647 920
647 933
647 967
647 979
647 988
648 929
648 975
648 953
648 740
648 744
648 798
648 756
648 688
648 761
648 765
648 813
648 818
648 832
648 995
649 706
649 695
649 985
649 779
649 817
650 661
650 800
650 891
651 669
651 705
651 777
651 877
651 885
651 964
652 768
652 907
652 766
652 806
652 870
652 759
652 683
652 868
653 727
653 656
653 755
653 949
653 922
653 690
653 722
653 736
653 786
653 841
654 778
654 772
654 939
654 781
654 895
654 658
654 963
655 883
655 927
655 896
655 747
655 764
655 808
655 855
656 812
656 813
656 953
656 750
656 937
656 949
656 690
656 727
656 736
656 738
656 788
656 841
656 998
657 666
657 861
657 826
657 736
657 738
657 786
657 841
657 925
657 949
658 852
658 781
658 778
658 728
658 895
658 989
658 939
658 963
658 772
659 830
659 765
659 919
659 917
659 817
659 811
659 813
659 873
659 927
659 913
659 953
659 884
659 780
659 761
659 911
659 970
659 815
659 845
659 829
659 688
659 744
659 800
659 818
659 975
660 796
660 856
660 851
660 874
660 887
660 888
661 671
661 891
661 690
661 738
662 725
662 892
662 762
662 905
662 717
662 816
662 993
662 881
662 928
662 677
662 889
663 962
663 899
663 792
663 763
664 836
664 809
664 704
664 998
665 745
665 846
665 883
665 687
665 683
665 795
665 982
665 685
665 719
666 943
666 812
666 829
666 977
666 684
666 824
666 860
666 881
666 980
666 699
666 909
666 820
666 756
666 920
666 814
666 897
666 906
666 845
666 864
666 670
666 926
666 834
666 893
666 838
666 967
666 898
666 833
666 935
666 875
666 933
666 979
666 988
666 717
666 873
666 884
666 887
666 698
666 867
666 962
667 718
667 742
667 770
667 779
667 809
667 736
668 775
668 801
668 861
668 997
668 959
668 784
668 709
668 803
668 990
668 974
669 831
669 696
669 961
669 914
669 730
669 944
669 705
669 707
669 885
669 833
669 712
669 735
669 754
669 850
669 877
669 964
670 756
670 812
670 820
670 824
670 838
670 867
670 898
670 920
670 921
670 933
670 967
670 988
671 966
671 914
671 705
671 674
671 737
671 730
671 991
671 957
671 910
671 969
671 964
671 735
671 971
671 974
671 712
671 731
671 754
671 774
671 850
671 885
671 722
672 908
672 739
672 745
672 679
672 856
672 916
672 894
672 758
673 920
673 721
673 758
673 787
673 794
673 886
673 813
673 712
674 774
674 730
674 712
674 850
674 877
674 971
674 882
674 862
674 696
674 707
674 735
674 754
674 777
674 964
674 736
675 785
675 848
675 890
675 782
675 752
675 767
675 770
675 983
675 886
675 714
676 996
676 758
676 721
676 789
676 986
676 787
676 960
676 968
676 729
676 794
676 854
676 869
677 905
677 717
677 725
677 889
677 928
677 791
677 765
677 903
677 777
678 770
678 779
678 809
678 901
679 908
679 916
679 894
679 739
679 745
679 876
679 761
679 922
680 769
680 711
680 945
680 691
680 821
680 859
680 872
681 951
682 822
682 785
682 706
682 770
682 779
682 809
682 901
682 938
682 975
683 795
683 846
683 883
683 685
684 890
684 867
684 906
684 824
684 834
684 977
684 881
684 845
684 756
684 980
684 979
684 829
684 879
684 935
684 783
684 698
684 812
684 814
684 838
684 898
684 920
684 926
684 933
684 967
684 988
685 867
685 795
685 883
685 719
685 930
685 982
685 732
685 880
686 770
686 694
686 802
686 748
686 809
686 858
686 972
686 718
686 779
686 798
686 884
686 763
687 909
687 921
687 795
687 846
687 883
687 982
687 927
688 975
688 832
688 765
688 744
688 830
688 817
688 815
688 811
688 917
688 941
688 761
688 927
688 826
688 911
688 862
688 748
688 792
688 773
688 813
688 884
688 953
688 995
689 771
689 785
689 790
689 807
689 733
689 752
690 774
690 855
690 925
690 786
690 937
690 847
690 900
690 722
690 738
690 727
690 755
690 750
690 922
690 788
690 793
690 729
690 989
690 695
690 815
690 841
690 949
691 775
691 784
691 801
691 803
691 974
691 743
692 776
692 984
692 751
692 882
692 947
692 789
692 919
693 942
693 951
693 836
694 866
694 718
694 770
694 779
694 809
694 901
695 706
695 985
695 873
695 968
695 938
695 823
696 814
696 914
696 910
696 964
696 885
696 731
696 974
696 821
696 705
696 712
696 754
696 777
696 877
697 866
698 933
698 943
698 988
698 812
698 904
698 881
698 831
698 898
698 920
698 699
698 814
698 864
698 860
698 829
698 902
698 893
698 926
698 906
698 833
698 980
698 810
698 845
698 909
698 756
698 820
698 879
698 838
698 967
698 834
698 897
698 824
698 875
698 979
698 729
698 915
698 758
698 867
698 965
699 831
699 829
699 833
699 759
699 997
699 756
699 814
699 838
699 864
699 867
699 909
699 920
699 988
699 901
699 811
700 868
700 919
700 942
701 835
701 844
701 749
701 841
702 719
702 822
702 753
702 871
702 865
702 872
702 878
702 775
702 853
703 858
703 809
703 901
703 918
703 708
703 852
703 718
703 742
703 770
703 779
703 798
703 761
704 827
704 899
704 828
704 792
704 998
704 962
704 757
704 938
704 719
704 865
704 763
705 932
705 877
705 914
705 994
705 964
705 777
705 944
705 866
705 707
705 712
705 885
707 969
707 850
707 774
707 713
707 957
707 961
707 987
707 777
707 877
707 885
708 846
708 986
708 718
708 809
709 775
709 784
709 801
709 804
709 861
709 990
709 743
709 760
710 822
710 880
710 865
710 753
710 872
711 945
711 769
711 821
711 740
711 859
712 774
712 932
712 944
712 955
712 877
712 754
712 885
712 964
713 826
713 735
713 877
713 885
713 727
714 801
714 903
714 959
714 804
714 729
714 784
714 824
714 743
714 877
715 790
715 848
715 783
715 723
715 853
716 972
716 721
716 787
716 915
716 968
716 996
716 868
716 872
716 758
716 981
716 754
717 767
717 838
717 791
717 816
717 889
717 725
717 840
717 963
717 749
717 830
718 728
718 918
718 748
718 938
718 809
718 802
718 770
718 901
718 798
718 958
718 779
718 800
719 795
719 846
719 883
719 773
720 726
720 862
720 812
720 842
720 738
721 794
721 787
721 912
721 960
721 789
721 972
721 868
721 854
721 863
721 915
721 886
721 758
721 869
721 860
721 858
721 900
721 740
721 742
722 906
722 750
722 736
722 841
722 847
722 937
722 786
722 925
722 922
722 738
722 900
722 946
722 755
722 724
722 793
722 727
722 978
722 949
722 886
722 753
722 804
722 741
723 783
723 956
724 928
724 738
724 841
724 949
725 905
725 791
725 928
725 889
725 762
726 835
726 844
726 746
726 749
727 925
727 788
727 755
727 871
727 998
727 786
727 841
727 949
728 852
728 939
728 963
728 772
728 799
728 781
728 895
729 801
729 861
729 948
729 743
730 955
730 885
730 735
730 731
730 944
730 850
730 914
730 971
730 884
730 754
730 877
731 839
731 969
731 814
731 735
731 754
731 777
731 885
731 964
732 795
732 999
732 808
732 741
732 788
733 771
733 790
733 890
733 983
733 752
733 854
734 876
734 967
734 735
734 942
734 958
735 885
735 955
735 850
735 910
735 944
735 969
735 966
735 754
735 957
735 774
735 961
735 994
735 752
735 777
735 932
736 978
736 925
736 738
736 847
736 793
736 755
736 949
736 841
736 900
736 786
736 922
737 920
737 813
737 774
737 777
737 877
738 897
738 949
738 978
738 750
738 937
738 755
738 946
738 925
738 786
738 788
738 841
738 922
739 908
739 916
739 856
739 757
739 745
739 894
740 817
740 744
740 825
740 765
740 918
740 761
740 800
740 813
740 818
740 826
740 832
740 919
740 995
741 846
741 883
741 930
741 818
742 838
742 809
742 770
742 918
742 953
743 801
743 861
743 990
743 784
743 803
743 974
743 903
743 997
743 965
743 775
743 804
743 948
743 760
743 758
743 816
743 793
744 927
744 825
744 797
744 952
744 884
744 941
744 913
744 954
744 862
744 873
744 919
744 780
744 817
744 826
744 811
744 929
744 765
744 761
744 773
744 953
744 911
744 931
744 818
744 975
744 830
744 923
744 958
744 995
744 973
744 832
744 871
744 902
744 814
744 813
745 908
745 916
745 894
745 876
746 749
747 870
747 903
747 808
748 851
748 770
748 779
748 809
748 918
749 835
749 844
750 786
750 788
750 949
751 776
751 984
751 947
751 882
752 782
752 785
752 790
752 848
752 890
752 983
752 758
753 822
753 872
753 878
753 880
753 830
754 955
754 910
754 877
754 936
754 944
754 932
754 850
754 966
754 971
754 821
754 790
755 906
755 801
755 788
755 786
755 841
756 967
756 904
756 926
756 820
756 814
756 838
756 824
756 834
756 980
756 909
756 875
756 860
756 879
756 898
756 893
756 906
756 867
756 864
756 810
756 902
756 881
756 988
756 943
756 933
756 979
756 833
756 829
756 845
756 812
756 897
756 920
756 935
756 977
756 808
756 921
757 909
757 899
758 824
758 981
758 915
758 854
758 960
758 869
758 789
758 972
758 849
758 794
758 868
758 968
758 787
758 996
758 857
758 863
758 886
758 986
758 912
758 934
758 935
758 759
758 902
758 993
759 768
759 907
759 870
759 806
759 766
760 801
760 804
760 903
761 941
761 911
761 826
761 830
761 970
761 913
761 953
761 917
761 825
761 773
761 923
761 884
761 811
761 973
761 797
761 813
761 995
761 780
761 958
761 931
761 927
761 815
761 798
761 951
761 791
761 800
761 818
761 862
761 919
761 975
762 920
762 905
762 791
762 816
762 928
762 889
762 961
762 892
762 918
763 836
763 840
763 998
763 827
763 792
764 832
764 808
764 855
764 792
765 935
765 954
765 958
765 862
765 927
765 931
765 800
765 811
765 826
765 832
765 873
765 919
765 995
766 768
766 806
766 870
766 770
766 884
767 782
767 785
767 983
767 992
768 806
768 870
768 907
769 859
769 945
769 821
770 802
770 796
770 827
770 813
770 779
770 809
770 901
771 782
771 890
771 807
771 785
771 790
771 820
772 939
772 852
772 781
772 799
772 778
773 884
773 815
773 800
773 917
773 873
773 923
773 975
773 955
773 934
773 811
773 830
773 862
773 927
773 941
773 953
774 961
774 966
774 885
774 936
774 910
774 964
774 877
774 932
775 948
775 974
775 861
775 826
775 784
775 801
776 882
776 984
776 947
776 783
777 860
777 971
777 877
777 914
777 991
777 955
777 964
777 966
777 850
777 994
777 957
777 885
777 940
778 852
778 799
778 895
778 939
778 963
779 802
779 901
779 798
779 938
779 939
779 809
779 918
779 874
780 797
780 973
780 944
780 867
780 811
780 884
780 953
780 975
781 876
781 963
781 989
781 811
782 790
782 983
782 890
782 785
782 848
782 871
782 807
782 809
783 842
783 853
783 956
783 837
784 892
784 990
784 948
784 965
784 959
784 801
784 861
784 974
785 790
785 983
785 890
785 798
785 947
785 807
785 992
786 846
786 793
786 922
786 925
786 945
786 879
786 841
786 949
787 912
787 831
787 868
787 986
787 932
788 841
788 925
789 883
789 854
789 868
789 869
789 986
790 848
790 807
790 992
790 890
790 983
790 823
790 921
790 979
791 905
791 889
791 892
791 928
791 816
792 998
792 827
792 899
793 989
793 841
793 925
794 824
794 868
794 981
794 996
794 849
794 869
794 886
794 898
794 913
795 866
795 846
795 883
796 909
796 874
796 823
796 888
796 929
796 887
797 825
797 815
797 927
797 817
797 911
797 845
797 800
797 811
797 813
797 826
797 832
797 841
797 998
798 858
798 918
798 809
799 895
799 989
799 963
800 898
800 884
800 911
800 953
800 817
800 973
800 970
800 825
800 954
800 958
800 975
800 873
800 818
800 967
800 989
800 813
800 919
800 927
801 993
801 905
801 903
801 861
801 997
801 990
801 948
801 974
801 965
801 959
801 803
802 809
803 974
803 804
803 948
803 861
804 990
804 861
804 948
804 894
804 974
805 839
805 976
805 957
805 843
806 907
806 870
807 992
807 978
807 890
807 983
807 986
808 995
808 896
808 821
809 901
809 918
809 938
810 988
810 943
810 834
810 838
810 860
810 898
810 906
810 909
810 920
810 921
810 926
810 933
810 935
810 957
811 825
811 830
811 923
811 917
811 958
811 931
811 929
811 970
811 919
811 953
811 817
811 952
811 913
811 862
811 961
811 818
811 826
811 832
811 995
811 899
812 935
812 838
812 906
812 845
812 833
812 977
812 980
812 904
812 831
812 926
812 864
812 879
812 820
812 867
812 898
812 909
812 933
812 967
812 988
812 889
813 970
813 958
813 911
813 929
813 873
813 941
813 923
813 917
813 954
813 952
813 995
813 913
813 818
813 919
813 931
813 953
813 975
813 832
813 973
813 980
813 843
813 829
813 884
813 927
814 820
814 967
814 902
814 829
814 867
814 920
814 834
814 977
814 943
814 979
814 831
814 845
814 838
814 926
814 980
814 935
814 906
814 875
814 933
814 904
814 824
814 864
814 921
814 988
814 966
814 925
814 849
815 919
815 975
815 995
815 850
816 905
816 892
816 889
816 942
817 931
817 927
817 953
817 995
818 970
818 862
818 973
818 995
818 825
818 911
818 923
818 929
818 867
818 919
818 953
818 885
820 845
820 979
820 926
820 881
820 875
820 980
820 902
820 935
820 920
820 838
820 839
820 824
820 867
820 906
820 909
820 967
821 945
821 859
821 838
822 871
822 880
822 872
822 865
822 878
822 964
823 874
823 887
823 925
823 827
824 920
824 979
824 988
824 860
824 893
824 909
824 926
824 921
824 933
824 881
824 904
824 833
824 864
824 898
824 867
824 879
824 935
824 967
825 826
825 832
825 919
825 927
825 995
826 917
826 941
826 973
826 923
826 911
826 958
826 830
826 954
826 927
826 901
826 859
826 884
826 919
826 995
827 828
827 836
827 998
828 887
828 998
828 836
829 838
829 867
829 904
829 906
829 909
829 920
829 921
829 926
829 933
829 967
830 972
830 884
830 919
830 927
830 995
831 898
831 879
831 867
831 909
831 920
831 926
831 933
831 935
831 967
831 979
831 988
832 954
832 862
832 884
832 927
832 952
832 975
832 911
832 923
832 919
832 887
832 955
832 995
832 978
833 838
833 867
833 906
833 920
833 926
833 933
833 935
833 967
833 977
833 941
834 967
834 879
834 904
834 921
834 867
834 906
834 864
834 979
834 977
834 875
834 838
834 902
834 920
835 844
836 840
837 956
837 842
837 924
838 875
838 864
838 902
838 935
838 893
838 926
838 867
838 921
838 967
838 881
838 909
838 845
838 906
838 943
838 898
838 860
838 904
838 988
838 933
838 979
838 977
838 980
838 897
838 879
838 920
838 894
838 863
839 913
840 989
840 899
840 962
841 937
841 900
841 847
841 922
841 925
841 949
842 853
843 866
843 856
845 867
845 898
845 909
845 920
845 933
845 967
845 977
845 979
846 982
846 883
846 930
847 885
847 900
847 925
847 949
848 890
848 983
848 992
849 993
849 869
849 986
850 971
850 877
850 961
850 944
850 957
850 955
850 921
850 885
850 932
851 887
851 874
851 888
852 989
852 942
853 924
853 956
854 968
854 912
854 869
854 960
854 972
854 981
854 868
854 886
854 900
856 908
856 916
856 876
856 894
857 868
859 945
860 933
860 935
860 977
860 926
860 897
860 943
860 904
860 979
860 969
860 864
860 867
860 898
860 920
860 921
860 967
860 988
861 903
861 948
861 990
862 906
862 954
862 958
862 952
862 931
862 953
862 975
862 995
863 868
863 993
864 926
864 935
864 879
864 921
864 977
864 933
864 875
864 901
864 920
864 967
864 988
865 880
865 872
866 976
866 930
866 988
867 935
867 906
867 898
867 920
867 881
867 926
867 967
867 893
867 921
867 980
867 933
867 943
867 875
867 879
867 897
867 904
867 988
867 979
867 902
867 977
867 998
868 869
868 912
868 981
868 996
868 972
868 934
868 915
868 936
869 968
869 934
869 915
869 993
869 886
869 972
869 986
869 960
869 911
869 928
869 981
870 907
871 880
871 872
871 878
872 878
872 880
872 875
873 954
873 913
873 953
873 884
873 958
873 919
873 927
873 975
873 995
874 909
874 888
874 887
875 898
875 906
875 909
875 920
875 921
875 926
875 933
875 967
875 979
875 988
876 908
876 916
876 894
876 949
877 957
877 971
877 944
877 932
877 961
877 991
877 914
877 885
877 940
877 993
877 964
878 927
878 955
879 897
879 898
879 906
879 920
879 933
879 979
881 920
881 967
881 988
882 947
882 900
883 999
883 930
883 982
884 953
884 975
884 958
884 911
884 952
884 995
885 936
885 994
885 961
885 971
885 910
885 940
885 955
885 944
885 991
885 964
885 932
885 966
885 914
886 993
886 912
886 915
886 921
886 989
886 981
887 904
887 888
888 953
889 905
889 892
891 963
892 928
893 943
893 918
893 906
893 920
893 926
893 935
893 967
894 908
894 916
894 912
894 933
894 967
897 920
897 933
897 935
897 977
898 935
898 988
898 906
898 920
898 921
898 967
898 979
900 922
900 925
900 949
902 935
902 980
902 904
902 920
902 926
902 933
904 983
904 909
904 920
904 921
904 926
904 967
904 979
905 928
906 967
906 920
906 935
906 933
906 988
908 916
908 992
909 983
909 943
909 935
909 933
909 920
909 921
909 926
909 925
911 919
912 986
913 927
913 975
913 995
914 957
915 993
917 919
917 927
917 975
917 995
918 977
918 927
918 919
919 927
919 970
919 952
919 931
919 923
919 975
919 941
919 953
919 995
920 977
920 979
920 935
920 933
920 967
920 926
920 980
920 988
921 979
921 933
921 926
921 977
922 937
922 946
922 949
923 927
923 953
923 975
924 956
924 954
925 946
925 949
925 978
925 937
926 943
926 933
926 967
926 988
927 929
927 941
927 952
927 953
927 975
927 995
928 978
929 953
929 995
931 953
931 995
932 991
932 994
932 980
932 940
932 964
933 967
933 988
933 980
933 979
933 935
935 943
935 992
935 967
937 949
939 963
939 964
940 964
941 995
941 953
942 951
943 967
943 977
943 965
944 964
946 977
946 949
947 984
948 965
949 978
950 987
950 951
952 995
953 975
953 995
953 973
953 970
954 995
956 975
957 964
959 974
959 990
960 993
963 989
964 999
964 991
964 971
964 994
964 969
965 987
967 979
967 988
968 993
973 995
974 997
974 990
976 986
977 988
979 980
979 988
981 993
